Li P  S  Cl
 1.0000000000000000
    20.5609999999999999    0.0000000000000000    0.0000000000000013
     0.0000000000000033   20.5609999999999999    0.0000000000000013
     0.0000000000000000    0.0000000000000000   20.5609999999999999
 Li  P   S   Cl 
 192  32 160  32
Cartesian
  0.1952851811529406  2.5736627911071315  2.5536446799692261
  2.4431835506590360 10.1233420212311707  7.5210542808139413
  9.9816632756480956  7.8485898350362264  2.3317066688898103
  7.5388758545374666  0.1671672574740677  7.5726803299476382
  0.1785468152686829  7.6595109536965849  7.5718009845983598
  2.7531535746774249  0.1716024153790233  2.8425712225634849
 10.1613770853002716  2.7390349548084409  7.4521629342973394
  7.4742709914378214 10.0043135162382484  2.3888280249335891
  7.9716118071121862  2.2449439447128943 10.0204872120739861
  7.6876935969210578  7.8234165635484576  0.1270970155906676
  2.7395035555399572  2.6412587209765492  0.1460456433387013
  2.6569926788334404  7.8836001991107638  9.9510315579882285
  5.3828590693207561  7.3651709845103035  2.3716657389766280
  7.6074279488215417  4.8577566584603442  7.7590435934359538
  4.8463219612007569  2.4756449957245303  2.7248953995373046
  2.5997196677859375  5.5534748084156069  7.8090676813601947
  5.3013786172268276  2.4575435471203271  7.7367005303358694
  7.5573293835991144  5.3804546005975915  2.5849167399949557
  4.9831551642148861  7.7923999775059212  7.5951584765440829
  2.4112441199771535  4.7098287423970921  2.5878090002353376
  2.8764053843933035  2.2442796746882911  5.0266512353620305
  2.2618753614109424  7.4581688885365525  5.3229626112421009
  7.8820743479290085  2.4454828765907219  5.4213333360248450
  7.8435981278696936  7.8560275455416386  4.8993705505911773
  0.2509918233163765  2.7003589814789990 13.0133004064859605
  2.6544590620212061  9.9454267088208397 17.5608345135632220
  9.9317735443628994  7.6890704787125612 13.0808983594134496
  8.0034155010911316  0.2592384582209963 18.0149044515688175
  0.1593983549580548  7.8244939846924035 17.8400894053112893
  2.3655059619199332  0.2088174574598657 12.6997448352837310
 10.2368621648465954  2.7193918787785076 17.9359227013991536
  7.8881418129227470  9.9392631622848189 13.0011449348627508
  7.8449262033427036  2.3748145684838868 20.2416571006625290
  7.6635323753589137  7.4648119238277459 10.5961171314004794
  2.4540077819962267  2.5137582482565262 10.4038684806258619
  2.5384039996092347  7.8058360264540676 20.3563560276340638
  5.4603549880053697  7.8944945770953350 12.8890377341712288
  7.6582485443688606  4.9025394273613587 17.8686786475289523
  4.8864312810441932  2.5432251126726961 12.8488240382132641
  2.4968184453864795  5.3055671604599288 17.7542496554136982
  5.3261584170117597  2.7424192455019725 17.8264295117807308
  7.6865171720950833  5.4636929326058716 12.9275908648317746
  4.8349952676059527  7.5705335087151235 18.3471365117571850
  2.6367642786262731  5.0062854731213422 12.9322608762782227
  2.4339542295407894  2.6201754003349293 15.3120985643673109
  2.5769395574619152  7.7018454185894853 15.5552555342669496
  7.7581234854911951  2.5618909340297895 15.7931695918257393
  7.4672048308832766  7.8096069399738326 15.1794332417298516
  0.3550202600251310 12.9706493489670720  2.6712264123977945
  2.7225520077316960 20.2810925670106066  7.5165057655469916
 10.0907301174735160 17.9559842830254190  2.6749314498511185
  7.5883043535999066 10.6431612559113109  7.6450416827790866
  0.3286246163486701 17.9850875513950896  7.6935183331191848
  2.5695102156406091 10.4105649705935690  2.4743257424361325
 10.0408719934946618 12.8842823030315650  7.6836698872122033
  7.7103309133800773 20.3579970021049874  2.3342814401307410
  7.5420028781581632 13.0277820562573066 10.3190757611083672
  7.8271358504952069 18.0407962735380032  0.3167974511768092
  2.4674817278071464 12.9056266429609057  0.4575996713728158
  2.6055446789062975 18.0621292158232762 10.0864558997742257
  5.2237793961139189 18.1874277745771060  2.5583992464384009
  7.7782096682456885 15.2538893731447232  7.5859866779052174
  4.9735483470478652 12.8635172745648081  2.4965661199763205
  2.6106494174130273 15.5791302419248314  7.5282599686956821
  5.3820610577095644 12.6648342635808060  8.0448830399697346
  7.8381160330238329 15.8360403470519131  2.4982241755453685
  4.9214315266422357 18.1007708263536493  7.5131395784865109
  2.6462202420004761 15.1674938127212489  2.5609149223205407
  2.5382424838664259 12.8536644498061392  5.0207680567441688
  2.7098646858466178 18.1126899635382337  5.3064816144785683
  7.6289803602687600 12.7376268317002719  5.4617739981630882
  7.7119158667325198 17.9451462289358190  4.7700703711531620
  0.0082394567746589 12.8967859544922110 12.7751263787805645
  2.5878152735245745 20.3028557926014948 17.7440043958162441
 10.0987278817462567 18.1930582200067086 12.6751120406511895
  7.8678047323947098 10.4305103168246820 18.3538825342251322
  0.3383038447267759 17.9054344592403964 17.7694489157274234
  2.3172750115579723 10.6635133615712423 12.7810003469751745
  9.9866749363048957 12.8919075469102058 18.1146592198406502
  7.7763096823056364 20.2336422284947126 12.8511700124479091
  7.7056619756344062 12.9098338158850563 20.1406763730011775
  7.8452926710445912 17.9999203379208232 10.5901582651822270
  2.7907656274443524 13.0726847660593428 10.3726047864031123
  2.7469575165696067 17.7508493114883379 20.4250373606570150
  5.3009342370588453 18.2363312467386436 12.7034938998880946
  7.7901021351995530 15.1640235277764130 17.6401654904486342
  4.7954025847413053 12.7881946021953770 12.8170099434861413
  2.6031476099747075 15.7578171059807914 18.0943478275218439
  5.4966843559406477 12.6991066419975542 17.9213354977204951
  7.5505072768009631 15.5366790854750061 12.7886854487954302
  4.8646901462197887 18.0606493026121200 17.8609766058053872
  2.4778457539379217 15.0563341979637642 12.8632369396502693
  2.3228136388440053 12.9940428316583461 15.1861871545164675
  2.5531426097237579 17.7952907598261270 15.6282373285700622
  7.7799441483535619 12.5556466249807102 15.6331538842090403
  7.4819320060706902 18.3267908480012416 15.0556447372983833
 10.4514706460013294  2.5517797986376118  2.6015285673797268
 12.5791034859726416 10.0066887311819031  7.6163285329331920
 20.2369637289989583  7.8694456850133774  2.6000392015628249
 17.9707329741804429  0.2409075782779405  7.7937202509386614
 10.3685314570261777  7.8345577978774923  7.8534683098400739
 12.7872239178650151  0.2831800114656524  2.4842360448797960
 20.4689081063848377  2.4138444581304754  7.9053434074923370
 17.9151880497616105 10.1737914445197539  2.6310842097064104
 18.0319126521544959  2.5945312487081722  9.9053206313477684
 17.9793832660616282  7.7884764398481146  0.2981119631172015
 12.6763799117247178  2.6618051750830212  0.2860794936630381
 12.7914981969157040  7.9375777266326288  9.8904110824103242
 15.7157263345695188  7.8160211407056135  2.4884885661956626
 18.0758056421166948  4.7576057191976782  7.6832626440251124
 15.1640148964962993  2.6410274397321478  2.5636927450740803
 12.6607866375503519  5.3582465046041996  7.5419477415041252
 15.6552749949854508  2.7167287069951178  7.8266553154451284
 17.9589145863596578  5.4256476106270028  2.6307274034679682
 15.4380157556698627  7.7756689228744724  7.5331264225158812
 12.4744805836256223  5.0980111737840232  2.9547361479155589
 12.8710956607862084  2.6329585267426121  5.0434736884853235
 12.9613369900622359  8.0693136214564891  5.3520473252628662
 18.1575026048577115  2.6094883445094044  5.4074351541390602
 17.9546210640919277  7.6329876440817177  4.9547993203126666
 10.6601264123724988  2.8750519906191787 12.5942488131719212
 12.9504586278607210  9.8793283856025305 18.0610203353247449
 20.4541504160596084  7.7849107230362007 12.5736906741683487
 17.8678362324824569  0.1867048324121304 17.8949157862366732
 10.4772066143149658  7.7235283080831776 17.8358348801093314
 12.6801891537263867  0.3533238856312227 13.0489820410437716
 20.1047742787297352  2.5556075128992908 18.1806776048578840
 17.9283289515980933  9.9734164121689837 13.0299874595695844
 17.8369282058952727  2.7158985704370346 20.3108119989363516
 18.3458305158642503  7.8969600434841087 10.5223302537740491
 13.0074396879290948  2.7326794160794674 10.6439371510531284
 12.9646013632466186  7.4231816916770006 20.3032904748096357
 15.7768266975648928  7.8182755715904930 12.7806133058005198
 17.8770706697474502  4.8144891445242397 18.0372121576440279
 15.0840462558334902  2.3427505948431158 12.9447571310723895
 12.7583163398499959  5.4331700412689745 18.2348445590283319
 15.6346198958383074  2.4415166958075551 17.9459202445259223
 17.9662235815904836  5.4929290772759440 12.8040044041617147
 15.0287089065894559  7.5814108236635827 18.0157903660699006
 12.9459454952732056  5.0250758915482612 12.9702718723946706
 12.5724357716643667  2.7180044429326062 15.0010662615183676
 12.8371672699705162  7.5014859573597246 15.7595085169758473
 18.0140014398463286  2.5403088576096136 15.5608629851451639
 17.9321536065184830  7.8780726340774905 15.1380556098262371
 10.4149992847454396 12.6971539548983081  2.6238216481551033
 12.6686540914248749 20.1598310259313180  7.7711250885086756
 20.3730354960291642 18.1372866152009493  2.2602377669973936
 18.1823012798173700 10.5636919412454109  7.7382309546885688
 10.4088591110856346 18.0204953740598448  7.9332104052721091
 12.7671973622565122 10.4283301935039354  2.6015844389195060
 20.4210988694221385 12.9155978521535992  7.5360917252924677
 18.2090908835999983 20.2950623726493760  2.4511040210294444
 18.0184789205337204 12.8583098266987559  9.9004011181500839
 17.7224325237492906 17.7555645948538228  0.2746440075081433
 12.7510790531033216 12.8460794232966808  0.3133814319196389
 12.7377046975521733 18.0056555462413712 10.0556331942535984
 15.6181814553603573 17.7527806245353119  2.3590509760613290
 18.1678740668390226 15.1197905882149062  7.5699610910557356
 15.2561273609006918 13.0084377719471505  2.4229385379035762
 12.8079603985107759 15.5424996400016298  7.8677368079926282
 15.5680568642114174 13.0647554242606301  7.9252105776524653
 17.8524882431596197 15.6528745015119437  2.5714106038850386
 15.2647538361706570 18.0475298685887999  7.6277911341784836
 12.8737629767480275 15.0863936263884213  2.7315004998338175
 12.8799761094421950 12.7027501169545722  4.8472650323800419
 12.7984282647178507 17.7777500546286937  5.5345701884661196
 18.0396656897797669 12.8120560591211898  5.3601682108622990
 17.7942517466385830 17.8206603773172709  4.8399313047127084
 10.4698446380879773 12.6800982316369364 12.7423900336005058
 12.7187776395094296 20.3893968728595816 17.8588925504638816
 20.1157790844128144 17.7937653217703371 12.8574690160208469
 18.0195828478739593 10.1547224144675496 18.0609533897046362
 10.6415124080874026 18.1650175392747748 17.9281625393474116
 12.8944414026722480 10.6744869159130449 12.8432580683474118
 20.5099028723923666 12.7987124134807324 18.0234197990503162
 17.8116538290365156 20.3186817931014225 12.8252696805243769
 17.6478061802517843 12.8017203253349994 20.3454340695349778
 18.0226703617604045 18.0882604124163500 10.4340098740985496
 13.1551496779093142 13.1642307948893897 10.5269097060766903
 12.7838361427964511 17.8525999471212167 20.3212445565525073
 15.7291594623183038 17.8963018212129583 12.9003773840275713
 17.8749344569565736 15.1812590069761715 17.8919644069324484
 15.2192591182122410 12.7432747520636358 12.8234623398350305
 13.0958096238184574 15.3367101016761023 18.0831985729574924
 15.6067386431439079 12.6888390766877315 18.0403871714404609
 17.9394303236648618 15.6877424518622650 12.8931121522397181
 15.0885979032622739 18.2108936867455249 18.1580100073686630
 12.9797627251508647 15.2648972022419169 12.8712425099387211
 12.8663002491810143 12.6733027202177944 15.3553697033940981
 12.9615447516522426 18.0494572067210939 15.7031370971255058
 17.8403211091775518 12.8807226435107118 15.8190748976171793
 18.1274466886042447 18.0002009101933638 15.2227014960064508
 -0.0512322040352357  0.0351884752599156  5.1928077051306660
  5.1225749409832959 -0.0365392968540158 -0.0274754287236245
  0.0147220652353304  5.2329338943976049  0.0138891810170325
  5.0904076614640132  5.1893563458955576  5.1705211278285317
 -0.1210432695533696  0.0016060838538528 15.5344593701025175
  5.1084400737995459  0.1042779281269507 10.2199369880214892
 -0.0049185579283081  5.1279679973237711 10.2089693422008381
  5.1515274794717518  5.1979624192456715 15.4202071130522320
 -0.1312895920430848 10.3016985840835087  5.1071690462264776
  5.0480363112117512 10.2796377713453744 -0.0063152468983954
 -0.0714097765623554 15.3843322719259525 -0.0155413443157157
  5.1788619675853163 15.4742393791323583  5.2671569467016743
 -0.0204526539545772 10.1827581795913389 15.4183369052503245
  5.1869361775596126 10.3135727661557581 10.2840431512144583
 -0.0130170612845282 15.4230581067889130 10.2018154359280153
  5.1098078490537118 15.4534498966218585 15.4579847668338726
 10.3308624106254694 -0.0423922840804405  5.1511343719510529
 15.4050655934322815  0.0020302665785387  0.1104449948421835
 10.3056051511097806  5.1152946046540526  0.0245710912452697
 15.4043127288173114  5.1874730947101115  5.1206974114421921
 10.3003190966411609  0.1390702486185880 15.4778626258739127
 15.4597778839240920  0.0272422638029903 10.2656577697275857
 10.3206439839045014  5.1063951351933667 10.3047385513946370
 15.4132964537846497  5.0500462470136842 15.4459960714864799
 10.2806225715574922 10.3508955787267709  5.1065346288823514
 15.4448613375119912 10.3307470616608228 -0.0347662700790057
 10.2032561739149816 15.4664110783213804  0.0417239207849294
 15.3647179861519341 15.4226367161582179  5.1396433834088571
 10.2226101627121864 10.1884270129182468 15.4359232409648115
 15.4276322523378600 10.2950596763987647 10.3129142193980545
 10.2040355106866887 15.3917800931124145 10.2489804555345287
 15.4680221756554861 15.3400916880076856 15.3842737762261912
  1.2491064349078755  1.1601701266287006  6.4052974167108339
  1.1767328083410491  9.0293638992331839  3.9659910251758035
  9.0108559322971864  9.1695019541721923  6.3818119105633890
  9.0981564057920945  1.1188720010301119  3.8387386285604079
  6.2759528786201750  1.2364288826086780  1.2392690391861716
  3.9481272595938424  1.0996077618504654  8.9753844349359060
  6.3821277589455576  9.0592593590733532  9.2247094750594183
  4.0166629172232744  9.1535723211230025  1.2280613487672505
  1.3184813899126964  6.2430913455380548  1.1268039379312196
  9.0338153368870486  3.9923905038544176  1.1803895641727773
  9.1182612559611691  6.3109806135562128  9.0591890903748862
  1.1490994896287874  4.0202240535274862  8.9751132562501894
  6.3924446719336236  6.1555565986296994  6.3876711672229192
  6.2903728548235396  3.9308779237749780  4.0260217789335737
  3.9940822169011145  3.8735016891487186  6.3525027574583515
  3.9495745415875350  6.4843450272209529  3.9154592550850533
  2.6221519614367153  2.5369734523999692  2.5273251284556904
  2.4981840287552122  7.7577465914254953  7.7305501403326495
  7.6630570556411195  7.7022961497145639  2.5741749961976277
  7.7670008123782317  2.5603897048910031  7.5956808609424797
  1.1768273400282199  1.1865912167755928 16.5495534000828250
  1.1596372088557465  9.0809538576021680 14.1517042340256012
  8.9818525749606941  9.1355499423896500 16.7312608609887690
  9.0968256586867380  1.2616025421094901 14.2630163213229082
  6.3744856919383679  1.1375469062980865 11.4628804469569676
  3.8807637724296438  1.1813331856492568 19.3689033872711285
  6.2821171604493093  9.0428947917488518 19.4463745340302836
  3.9849960923012708  9.0696472718470780 11.4705000502478391
  1.1866073800355872  6.3264624134236396 11.4722315799168939
  9.0896730477836378  4.0014561472344479 11.4463539694967693
  9.0871134211734361  6.3301480082002133 19.4767580511421237
  1.1431868150905524  3.9548189685907551 19.3916641746087173
  6.3385723540581296  6.3195725020901117 16.6303352756141223
  6.3472745843669829  4.0226910756255005 14.2269748702289807
  3.9272175312922424  3.9941070793697304 16.6938841729475769
  3.8882820303668777  6.3604265732635312 14.2224495861680307
  2.4653306369990093  2.6937795811903888 12.8695209877334076
  2.5515809416659705  7.6299744782811381 17.9688996725116326
  7.6831475564481648  7.7059764975741452 12.9441681991399857
  7.6460755542056527  2.5021079154338857 17.9569316533380032
  1.0301902536711340 11.5589588888441899  6.1790756510281621
  1.1358098145285314 19.4020284989772627  4.0097311290921693
  9.1254182840003519 19.4482381069956638  6.3913773133572391
  9.0097162789859659 11.6082620824877836  4.0212012846635226
  6.2450143063823846 11.4320291936664162  1.2134124700892566
  3.9890800702136473 11.4381965691237841  9.1007362552654900
  6.4068320775060146 19.3481420008321869  9.0936282359767091
  3.8521466157806539 19.3667729065104091  1.1096617837778060
  1.1667401789021761 16.5834484770250938  1.1735065246218768
  9.0036100697817059 14.2292116532058319  1.1680093246055416
  9.0139062999648161 16.6088265158600770  9.0786136383274556
  1.2143695179097784 14.3659583241656108  8.9817855612463653
  6.3768878197144279 16.5841786948527208  6.4444993287843975
  6.3008097519161419 14.3617927877916998  4.0692221262149042
  3.9129760448640023 14.1994826452406713  6.3455305448534123
  3.9108521095686903 16.6339334361337983  4.0626354904873869
  2.6153782070903286 12.7536996068707573  2.6580561552063795
  2.5458707072854514 18.0366926785186799  7.7467637086746777
  7.7045106641750820 18.1326372233141413  2.5149740842873953
  7.6828992379756036 12.9267907891162412  7.7421363190367263
  1.2076812288814294 11.3360509158533898 16.6069576237943402
  1.1908624944429773 19.4175652364806908 14.4365001585950452
  9.0761132552699468 19.4760505693632773 16.7126813840378148
  9.1814443105331094 11.4688130194854683 14.2642516547060989
  6.4472894822676894 11.3258081780364073 11.4936535332067642
  3.7743367372684453 11.3650964783768682 19.4998070739728036
  6.2986358173330652 19.3487539358561094 19.3597722465302517
  3.9284144828757062 19.4501028271471519 11.3810026252663867
  1.2110740534538600 16.5377527710559207 11.4214547460793359
  9.1138968314358095 14.2012553239127186 11.4891863266164389
  9.1076743010684194 16.5576553444323018 19.4033099512406046
  1.0821219148063332 14.0914693270435532 19.4767197807486383
  6.4054826201285699 16.7313121144435435 16.5261146877813587
  6.4035533060851009 14.2166283746687441 14.2565930128575271
  3.9175168983123227 14.0923245341985375 16.4875388039369142
  3.8732495309449542 16.5254131614975641 14.1490677933876920
  2.5390201574401567 12.9106002433674032 12.9399175281718808
  2.6862213097618812 17.9205683098355770 18.0146564159998839
  7.6114844950653175 17.9807527321034115 12.8529560468928832
  7.7826773102792837 12.9489428880445399 17.8858223065151378
 11.3350184460040531  1.2344961994947279  6.2623826938215688
 11.4037195126182276  9.0176225853651975  3.8939724262125903
 19.3836701892678995  9.0783884354219904  6.3958071394832334
 19.3386538622824347  1.1890858793796122  3.9520996114753655
 16.5740148171175221  1.3238116374878117  1.1637570125926715
 14.1324059762890180  1.2070474488636638  9.1163747978006597
 16.5963068684041133  9.1716633712254190  9.1241783555234370
 14.1958859235225106  8.9911357179776967  1.2566274704523213
 11.3916312333473737  6.2869743465866144  1.2689343550203986
 19.2675275823635808  4.0167419280269838  1.1834779743949684
 19.3824547846012329  6.3338196248620777  9.1014485888592436
 11.4526816244958063  3.8742970675594446  9.0217212556661401
 16.7010248057978181  6.2278905590879283  6.3224302903942435
 16.7045711079056360  4.0346311661515717  4.0347136136719701
 14.2561511373039931  3.9194220407897764  6.2531892855223372
 14.3669091147215440  6.3489677252048935  3.9001255795173728
 12.9268004462572943  2.5187415000562297  2.5503496823035481
 12.7241342151791130  7.6870464369057609  7.6330933143063850
 18.0178127248198372  7.7583076890310174  2.5909368867522091
 18.0228059514744423  2.5071602959399271  7.6883139033449117
 11.5057293529661084  1.2819788904017884 16.6285078383466214
 11.4692805378055294  9.0909493789987845 14.2819865115307501
 19.3624726200646258  8.9928981704004585 16.6010807673289484
 19.3222208942647988  1.1905241096422861 14.2633666644381254
 16.7158569624341879  1.2900306195439653 11.3013106190070491
 14.1978028022896083  1.0902552110914023 19.4623064379037451
 16.6382464478221692  9.0104205861381246 19.3674779636297458
 14.1822806899059568  9.1440199108614131 11.4595388762268904
 11.5045884196442287  6.3666066392701435 11.4476881144767741
 19.3523872934177099  3.9329848280541748 11.4359168640159528
 19.4066220775528073  6.2710551492278794 19.2489732420696349
 11.5539727464529456  4.0344726564812312 19.4582532744456707
 16.6483213926572127  6.3253778238974681 16.6316163656115990
 16.6081280377126284  4.0141135766378522 14.1457557554453626
 14.1253445953789143  4.0133955910377859 16.5767099263495190
 14.3035845098181760  6.3342387707087129 14.3456035674101603
 12.8953885717260412  2.5836571029340081 12.9416963582236377
 12.8634808004884000  7.6066259202358131 18.0929922453052221
 18.0549616087972531  7.6867063072671549 12.8628098235359900
 17.9139868029370781  2.4953395058384813 17.9375778037228208
 11.4722084927441355 11.5336459220378309  6.3269720159950413
 11.4818934142873825 19.2328108908438971  4.0011057999294426
 19.4118375004630117 19.3202192775640427  6.4546149189080051
 19.3984931581715969 11.4515700526788127  3.7700577671251296
 16.6222082199830403 11.4655290114836177  1.1760991933797205
 14.2313220887126679 11.4162968032184029  9.1711201716934472
 16.5491615007302535 19.3867136825593427  9.0851125677534430
 14.1389708654948389 19.3424921685993496  1.2284746225665810
 11.5364770808717267 16.5997041889756964  1.1990431033009568
 19.1933717102176331 14.3287842988108167  1.0922736653944634
 19.3026131683701188 16.5863108957406808  9.0991972545227107
 11.4981516707134652 14.2292950543446022  8.9740395859308606
 16.6127232746014286 16.5722749048872444  6.2722947840953305
 16.6250055412969608 14.2774370485333382  4.0105189781698432
 14.3294642417752716 14.1729446676531001  6.2796736467847740
 14.1522094400530456 16.6369076144974706  3.9380715133714124
 12.8648685608568947 12.8183931546209369  2.6061743394641517
 12.9026970620896257 18.0174014375433664  7.7564437401163957
 17.9869703723461924 17.9951300750173111  2.4440332224380077
 18.0342393744705589 12.8494172740192525  7.6730830003352439
 11.3730948201608264 11.3133183483787683 16.6246857455373451
 11.4717647667016269 19.2994662547080758 14.2411837031904458
 19.3437483140727196 19.3018603277555094 16.7088638946781423
 19.5149481414325940 11.3932232160074598 14.2090710284904542
 16.6836368533612180 11.4066680774687690 11.3894337833551784
 14.0811153103838915 11.4635091381444632 19.3190226531376439
 16.6635502622234455 19.4753851728782195 19.4855559254634869
 14.2567998962377107 19.2724428462040080 11.2647714569009878
 11.3249543728942967 16.6482242400498208 11.4036473900676967
 19.3470793925233657 14.2448639770568359 11.4880657449217018
 19.3614716491616790 16.5576893254723210 19.3257921370038588
 11.3310134083311738 14.1093659636481394 19.4246225437991171
 16.6403169203415793 16.6270260085789552 16.6604088930216996
 16.5422339853003741 14.0929297119298873 14.2156993361695410
 14.2211839736925629 14.2518283603335796 16.5451858879637719
 14.2660948948327118 16.5503163599697416 14.2525764557140899
 12.7911602047451396 12.8806733893787015 12.7556271294054575
 12.8314262600063174 17.9809766771024826 17.8833367328994726
 17.9427059514902538 17.9973537654743936 12.9302294939365350
 17.9652941801371533 12.7955880341698709 17.9923172370035722
  0.0567266181137385 -0.0110102525752820  0.0626459357452433
  5.0835993450994463  5.1008957225604714 -0.0056906927950668
  5.1319097176385204  0.0613437904213086  5.2911260564516427
 -0.0728444366203538  5.2464612522951750  5.1282048259880550
 -0.0809200246798942  0.0344587024563402 10.4363499243807905
  5.3011205107331092  5.1922568346358933 10.3170665959746710
  5.1183401713477545 -0.0087956911452850 15.4364133022622045
  0.0318585788383730  5.1579134615396178 15.2975968134630733
  0.1319030961587802 10.3287723389216666  0.0202075414551512
  4.9830926334563008 15.4012543393206016  0.1047269281940408
  5.0900234989034763 10.3356286930987160  5.0618300791989546
  0.0606819951024649 15.4310054574905973  5.0910500825967189
 -0.1182879214723589 10.2698205106970324 10.2889302664015574
  5.3143761962523870 15.4958362533280294 10.1539404231870378
  5.1587630440917787 10.3761553653266301 15.3797396847007750
  0.0357488546689832 15.3997159674593576 15.5277862693910915
 10.3026732861172281 -0.0096633517567283 -0.0525119496761661
 15.4342535944508796  5.0109912031370039  0.1070017986971228
 15.3193592218191128  0.1145335465328932  5.2528802844699163
 10.3596821026705488  5.0906929334498479  5.1530415834334082
 10.3655427844699464 -0.0524484572864079 10.3043597596812546
 15.4727359993084299  5.1945349893450272 10.2124855784299253
 15.3099643039609781 -0.0997751740775479 15.4673308145433772
 10.2607008345896364  5.1387125657265873 15.3743578991855827
 10.2150651626760069 10.2938953166846847 -0.0973549179686695
 15.4433834784913468 15.2015757206062645 -0.0426287992002101
 15.5047701656126868 10.4078745407616342  5.0223806579926915
 10.2038359648925940 15.4209408474353911  5.0463232380511132
 10.3864235686710735 10.4048721898640277 10.2540799797806486
 15.4460274633098180 15.4806414506228744 10.1408899024828845
 15.4137340526487439 10.2819903137376265 15.3793633820421558
 10.2677371979009564 15.3823984145327692 15.5187083097094902
Cartesian
  0.0008274719035589  0.0003979473564258 -0.0050066273612829
 -0.0040979975547386  0.0037350733855511 -0.0093161092238777
 -0.0059643253869956  0.0084544341294091 -0.0129622062739830
 -0.0105186325101158 -0.0007925983791211 -0.0077036590573767
 -0.0011325074515178 -0.0057171387305630 -0.0036045847119317
  0.0076104835505699 -0.0014696621636138  0.0130606201078704
 -0.0038688406646357  0.0130369594670839 -0.0100320925150607
 -0.0087003984019211 -0.0034968999490842 -0.0022387217070348
  0.0154387087388847 -0.0172931061318670 -0.0049203938321234
  0.0026999519125243 -0.0009041404405152  0.0040831895633687
  0.0066840162448227  0.0056740318476772 -0.0022772726400441
  0.0023586506360515  0.0061216002369803  0.0027352548263417
  0.0043881196260279 -0.0153285612557933 -0.0140339794738185
 -0.0016314090403550 -0.0076362571403423  0.0053485192630383
  0.0016119362080989 -0.0021342618281656  0.0069822880203725
  0.0037859760605710 -0.0001062281773316  0.0028035911488843
  0.0048683996487833 -0.0018289159502303 -0.0021511802902935
 -0.0058197237591259 -0.0009083050275654 -0.0015192694191312
  0.0049330289302874  0.0052539968561811 -0.0058749306622088
 -0.0038184973058477  0.0004882353994317  0.0046485159151335
  0.0162545641422861 -0.0151569464748508  0.0003649089637747
 -0.0148823981590301 -0.0142303174751308 -0.0000851675350827
  0.0055498665473956 -0.0035603008915400 -0.0073028106419515
  0.0012281965386039  0.0022998634938919 -0.0034245611297822
 -0.0038723437958390  0.0083271821639976  0.0075328023491405
  0.0115292768647132 -0.0081511547907147 -0.0166213553105533
  0.0004287663520286 -0.0024959611072082  0.0109161474224461
  0.0051752053056267  0.0039603796273322  0.0104498484595877
  0.0055553875194044 -0.0032269172579226  0.0004471205205773
 -0.0137405965372380 -0.0000112510897775 -0.0045547400285552
  0.0003202471602337  0.0087999632163065 -0.0005271768264774
  0.0074979321520240 -0.0007300106262618  0.0053148877415405
  0.0050593575067126 -0.0094089777727632  0.0020072042637310
 -0.0052266359309492 -0.0132664347731925  0.0014433685687872
 -0.0072334050743484 -0.0008486929569680 -0.0006280924458201
 -0.0015007184330772  0.0062652792775169 -0.0024889691911839
 -0.0033129216710609  0.0085125565373715  0.0014076789011390
  0.0027214866177000 -0.0025814985052482 -0.0019366245442865
 -0.0024674912385028 -0.0007248595062512 -0.0005812046560259
 -0.0097260298846243  0.0022270588796910 -0.0057050208880311
 -0.0005898017333657  0.0000793945785663 -0.0005360416666698
 -0.0011031857776857 -0.0012898477280376  0.0042484538095671
 -0.0059410213797713 -0.0125672566836387  0.0139838213030552
 -0.0020549718802437  0.0004226070971153 -0.0020165342174341
 -0.0048211405982914  0.0053777339675352 -0.0007506111891866
 -0.0013943939786097 -0.0003850902160746 -0.0016861772148901
 -0.0009299308164349 -0.0008248207564794 -0.0010399798208303
 -0.0106962246237215  0.0097439989284176  0.0061666488073677
  0.0019466301791202  0.0091709617289135  0.0020535753983797
  0.0059688697567533 -0.0037667478663315 -0.0111011153260746
 -0.0002139699634150 -0.0021593835323706  0.0034737909830409
 -0.0058004254471539  0.0061151160402922 -0.0022578566899393
  0.0023046123589623 -0.0013194751426331 -0.0015251921047215
 -0.0028631478520626 -0.0026187300178609 -0.0021111097059476
 -0.0065674266496975  0.0015874108929776 -0.0008261651606330
  0.0038209932399294  0.0020788917633088 -0.0095413336922486
 -0.0089966361899517  0.0088283995365874  0.0030074158032255
  0.0044154980195394  0.0058430543473798 -0.0036064920520761
 -0.0034116444698395  0.0003579400609179  0.0047442053775704
  0.0002083000778346  0.0022958500337479 -0.0015935004719168
 -0.0034268272336710  0.0063841441409307  0.0032284454550927
  0.0046225101506202 -0.0027137380330841 -0.0035081080815164
  0.0005531468445993  0.0036013335470635 -0.0000708540546074
  0.0001379452556777  0.0060251745076842 -0.0080476860092381
  0.0073500680489819  0.0040662186744367  0.0026062346939223
  0.0025267007510775  0.0059710315644420  0.0000497479904527
 -0.0011655238443219  0.0076555765294446 -0.0072405611343199
  0.0018996027078476 -0.0007964778562489 -0.0008739786594589
  0.0006000786330173  0.0006290442993573 -0.0028165144810099
  0.0043308670064335  0.0073726236536545  0.0020403822138379
 -0.0117791081002911 -0.0019420268595309  0.0045811181287698