Li P  S  Cl
 1.0000000000000000
    25.1819793006824639    0.0000000000000000    0.0000000000000015
    -0.0000000000000009   14.5388225279766061    0.0000000000000009
     0.0000000000000000    0.0000000000000000   37.2126966544236950
 Li  P   S   Cl 
 286  48 240  48
Selective dynamics
Cartesian
 -1.5009420675132026  1.2250776849965357 12.7282256791545407   T   T   T
 21.7869344087368262  5.3850196228741192  8.9789700296710766   T   T   T
 21.8608739890505817  1.2506693470643711  8.6046931166217515   T   T   T
  3.9643098141938351  9.9479916734014253 14.7779806129008975   T   T   T
  7.5658373582473377  9.5721982097561522  0.2219598855698084   T   T   T
 32.2208112191282297 12.8786490259024440  3.9670431966625137   T   T   T
  4.1462230993786013  4.0793802678724820  8.3332248302846939   T   T   T
 13.2366847535187464 12.4939140462694063  5.8059882297496390   T   T   T
 15.2781049138353726  6.5206271320461786 20.4335467075616783   T   T   T
  7.2104355572543710 12.5337611606109256  9.7739092338132387   T   T   T
  8.6294733602719980  2.3638763076192948  8.5757680146227404   T   T   T
 14.9735660670301289  6.9465003436036348  2.3756904375894567   T   T   T
 -0.9303575358241505  8.5458170607506041 13.0870778087763959   T   T   T
 16.1191198650917258 11.3123822072419351  4.9688673614226806   T   T   T
 19.9111075894727989  5.3650544384732992 13.3941531596053771   T   T   T
 -2.8607637635102052 12.7126685840670675 15.6037714410990915   T   T   T
 15.9740140177135892  2.8703447594761538  6.2172146252174691   T   T   T
 27.5697101328145209  9.8245715456676130  1.2835489001107463   T   T   T
 -0.0653664487986154  5.2030580741698156  6.6960423583884010   T   T   T
 13.1880976351548984  9.0834719227026035  5.4037355195040444   T   T   T
 17.0212392643987727  2.0275871916947481 11.7469372828942049   T   T   T
  1.1571035154405354  7.8618895270866656 15.3364042118744504   T   T   T
 15.1525124382625851 -6.3426175524931088 -2.3094564021143427   T   T   T
 30.2622035940657668  9.8725708195099209 -8.0668934564778532   T   T   T
  5.1961571449890478 12.6098562717427001 13.4853592191576617   T   T   T
  9.2057517976653465 12.9641675875085909 21.5394186552614606   T   T   T
 17.1759408525572752  5.7399822186251184 15.5096069715979699   T   T   T
  5.5745785685563369 11.6056282056432956 15.5802054244404644   T   T   T
 15.3789983288126315 -5.9834664671739235  7.7088540146824647   T   T   T
 22.8968973863040617 12.8711635000365128  0.5458131984190845   T   T   T
  2.9468720478400598  1.3123854473233263  8.6603243377778369   T   T   T
 19.7706051290395024 12.4944023309466097 14.0036140538037639   T   T   T
 13.5293902874287220 -1.5421824358604512 10.2419730000125497   T   T   T
  5.9794885217533542 11.3327045361470731 18.9011514334093782   T   T   T
  6.5391901690244412  5.7354290085347808  9.7275315017515407   T   T   T
 27.3425141968249363 13.4318211975745641 -0.0692260941507634   T   T   T
 16.8069740829414016 19.4581179005287339 11.1237986155818156   T   T   T
 10.7755561335005510  8.3375421556672400 14.9651788843159963   T   T   T
 14.0768992390720626 15.1689323196187367  2.0496644786492566   T   T   T
  3.5427876264981539  6.5610116348430152 -0.7225461735971641   T   T   T
 10.0021544802518907 14.5745287247713726  9.3897511736170234   T   T   T
 20.5598244506308987 11.2552029205284363 11.0451131593054459   T   T   T
 32.5233325562788664  1.7394544724179821 24.3380634725646345   T   T   T
  7.5081364760246014  8.0985455387912069 26.0542893924680818   T   T   T
 18.3094458104583637 -0.6861242558156870  2.9321517251697373   T   T   T
  0.6027562427991668  5.0601328568513750 -2.9731752884146609   T   T   T
  1.8629500243164621  5.7412507113207614  9.1573882914639917   T   T   T
 13.0364428401388892  1.2251900663127115  6.2996602604301364   T   T   T
 -4.5086758805707658 -3.4790417806649048 18.3521467487857635   T   T   T
 17.3574803498943737 17.1724291355838332 22.9321139673922687   T   T   T
 11.5581567799132081  4.0827517983087338  2.5088410084882624   T   T   T
  6.7205880179460538  6.2705958072490331  1.2091497188823255   T   T   T
 10.1676663433194570  7.5428851603431628  3.2902842011740518   T   T   T
 20.8450373681587067  5.9274191640931368  5.2403203051227285   T   T   T
  7.3235414075236305  0.4398861641219668 15.5480920191703831   T   T   T
 11.0030429422935150  1.8421286444709812 13.0567992157497521   T   T   T
 20.0611040467107316 -5.5049135970064293  2.3758457167694833   T   T   T
  4.6908996422952569 11.1207916477806812  6.4524441934981107   T   T   T
 15.4501047007195922 -9.2777813428216014  8.1189280076863515   T   T   T
 20.6107205393300390  9.1977748560718702  8.5775274507530153   T   T   T
 -2.5915541822276178 13.3932568090581370 12.7788229439851655   T   T   T
 12.9259193968431330  5.3732480368773068 15.0232739017723809   T   T   T
 16.2760393959739815 11.3506339314978426  8.3823231702333398   T   T   T
  3.3242424779022022 11.8454500533837503 -2.5519401012567808   T   T   T
  8.0845293835240906 25.8640185401164899 14.1086997867178248   T   T   T
 19.9703083417126734  2.5780231636499380 14.0272512675446848   T   T   T
 25.0452113977612143  0.6630301351604204 16.1971380468185764   T   T   T
 11.4720111610080160  9.3351608277199141 12.3915333300037336   T   T   T
 13.1986201659231366  6.8795290836772907  0.0718883406771327   T   T   T
  4.4085084655069577  3.3786147917483782  0.9570924464127755   T   T   T
 10.4830064990516743  0.9710756665092027  6.7376465982938800   T   T   T
 19.8355335653386291  3.8259874891970780 11.1075503158287372   T   T   T
  6.2746710374317081  8.4503844183397199  8.0556595235258168   T   T   T
  6.6398015862586011  8.7057479810505853 15.8489608057863016   T   T   T
 18.1158984678300143 14.5872748118514153 16.4449551229041617   T   T   T
 11.0728824345152876  3.8501129494540467 18.2149171856721317   T   T   T
 10.5505282808812311 11.7300053331507357 -5.0224118136770155   T   T   T
 14.9715951299022176  9.6098115595084579  0.4977367039294895   T   T   T
  2.2439176455528429  8.6305763803313589  8.8684012383214608   T   T   T
 12.4524239036038971  3.3497873564014631  8.9662756391499148   T   T   T
 16.9073124400473134 11.0894069667841322 21.7072356990804671   T   T   T
 12.4780080026615092  2.2173276388869438 15.4649976192708376   T   T   T
 10.7222476901449557 13.8607505992512827  0.0500823545996523   T   T   T
 23.5902980236015978  0.6148943476307267  5.9917788775027798   T   T   T
  9.2345411697862616  8.3142575990782355  8.9055606211066625   T   T   T
 22.3769518402254661  6.6725759200150172 14.8311761571335641   T   T   T
  3.3533151668574215  5.0067193091965221 14.2267174300678167   T   T   T
 15.1164316250135897 12.2119752644756581 -0.1116000835873266   T   T   T
 22.6357611242742038  2.2616889942663598  3.2745569533886392   T   T   T
  3.5383427985063385 11.0160941058831590  9.3958161961359821   T   T   T
 12.5864015827639921 10.1375904446977714  8.4556799567615286   T   T   T
 31.7800572101860865  2.4228512885678053 12.6316860015270311   T   T   T
 12.8153855097948366  4.0744667823956693 22.9570061382402137   T   T   T
 20.2791061516138171 16.2886933844586750  4.9686278722209023   T   T   T
 25.3242084978058912  2.2849812571651995  8.5806364106415831   T   T   T
  4.5300687253497278  4.2628213350798596 -2.1428580328441380   T   T   T
 10.0352420423881021  6.0972305832788232 13.2393843222947076   T   T   T
 16.4660234843513038  3.3987758680587454 25.5938689807612008   T   T   T
  3.6112948236741413 15.6268043226442828 13.7139919591368233   T   T   T
  5.2943844277737027  4.8803025054059610  3.0789704086215441   T   T   T
 20.1764814762159901  1.8563601096837825  1.1043443078291022   T   T   T
  1.7049243465743844 12.3560364962184117  5.7996629973592881   T   T   T
 13.9621451008342738  9.0722385594639086 14.8144906834611483   T   T   T
 15.5032134958860652 16.0862858809180693 17.5304321539629058   T   T   T
  6.4345475652989501 -4.8906681427906715 11.7889625349493876   T   T   T
  7.9362664947541797 15.6114500049826219 -0.7513586635550982   T   T   T
 11.0535831148965151  2.6480653556428710 -0.6565338478853631   T   T   T
 18.7041739565208971 13.3581918471610557  8.4455950414900709   T   T   T
 14.8880472558497203  7.4283009726433669 12.7351587968652193   T   T   T
 10.8074076307689229 13.2215112764195233 13.3604808518871501   T   T   T
 26.4860017676378376  9.1190261749295480  6.3849284665408153   T   T   T
  5.5979605066202085 15.2303771693908025  2.0850783295327475   T   T   T
 19.7433521165016970 11.5656365422125873  1.1126425238295505   T   T   T
 17.1559770520430703 -1.7494399574912656 12.5349749009934079   T   T   T
  2.7009859580545594 17.6776633344690666  5.5830465062973724   T   T   T
  8.9668316534328483 -1.7968199025623579 18.6287253792442762   T   T   T
 25.3173200657729396  5.5866393923091771 16.7495278207306555   T   T   T
 -0.3425305576822324  5.0564434730735304 13.0040685507194702   T   T   T
 14.6872217610453877  1.2886434129957058  8.5049977609343443   T   T   T
 15.4235596382283546  4.9076841589336233 -0.4398808771549412   T   T   T
  6.2758804578034733 15.2814433414553577  7.5773825654517006   T   T   T
 17.5383175261593820 -4.9244812822929829 13.4105216224345156   T   T   T
 -1.6981278267290361  9.4928043762235745 16.8913046003029059   T   T   T
 18.5966961813622120 -4.4641628705174607 -3.1009533942666785   T   T   T
 24.4712835190863771  3.4035750044996247  0.4240419218768487   T   T   T
 23.1386603296324793 -6.4572444830979228  7.6808397139200144   T   T   T
  8.0440530998008288  8.2049136752328238  5.4512981515155952   T   T   T
 13.6550145167221260 -0.6860203001987902 19.2279318068927054   T   T   T
  4.7017678822084568  8.2406820377071988 13.1503473439509229   T   T   T
  8.6591911780993289  2.2664152041061465 -2.6348302847709557   T   T   T
 10.3028319666575854  6.5381417038071001  6.8494004473184189   T   T   T
 19.1548764393635054 16.6159557015975246  7.5713948380443918   T   T   T
  7.8603740257804837 12.4092957959995118  7.3194925698448881   T   T   T
  6.8244302876400758 19.9681458644789238 13.7242843206552525   T   T   T
 -4.0415745511677228 -2.2403468975733141  7.5585970799620403   T   T   T
 -3.2531643600396483  5.1737947093662005  2.1742586960000119   T   T   T
 22.7797402876863941 23.9607278783129019 -9.2233315709411077   T   T   T
 24.6202169338559003 -2.7794391716602069 13.9748451958880189   T   T   T
  7.1294847749983203  4.9369592863740115  6.7689251422258989   T   T   T
 11.0427174486051864  6.8792464305622030 24.4276371234500722   T   T   T
 25.6389489284721677 11.8962939559167395  8.8082092968936117   T   T   T
  9.2181298014003943 -2.5941851576861605 -1.5537264081758995   T   T   T
 12.7103565036246522  6.6397314525570232 10.9586834855598685   T   T   T
 12.2363629422473430  9.8329518676200820 32.0355473244282223   T   T   T
 13.5116302946768005  4.9790079718873077 42.6904268503309510   T   T   T
  1.7892765649272411 12.0397502105732386 18.3879786915047490   T   T   T
 16.3572604175686536  3.5113174606068118 14.3926257268347886   T   T   T
 19.5660374845368494 22.0749256202880844 28.6108011694856827   T   T   T
 -1.7308346772792522  1.6226210943634816 28.1896931670799482   T   T   T
  3.5022949517452076 11.5382304134341283 26.1099664489290895   T   T   T
 25.6230181487920490  3.0550557104380762 31.0498401401748296   T   T   T
 -4.1387382490674520  9.5729312480923454 13.4396148981507828   T   T   T
 17.4881785546610047  5.0701398511662310 23.2197759100365992   T   T   T
 10.2104811802609543  8.1589312302886903 34.5488169708745119   T   T   T
  3.3645713684121690 -1.6127433626737016 29.8490001755648997   T   T   T
 12.5311931297250592 17.8360296529081843 31.2318518749258125   T   T   T
 17.2195976321558106 -2.0999672367776623 29.1449672962852020   T   T   T
  1.7500396961736133 12.7992828170436894 13.9761769867795724   T   T   T
 23.2114862990328703  0.8580886118523863 18.7377785582073315   T   T   T
 18.1864847913613019  7.2771859942192103 37.3669138128875744   T   T   T
  5.4092548133326943 -0.8805239021456508 32.0268680231095857   T   T   T
  8.9349020324195099  9.2297898149729392 30.0347452938971351   T   T   T
 22.3288558927887522 -1.0796271481044815 25.7371410571025301   T   T   T
  8.1602033501214333  2.9174473152577827 16.0551483558698003   T   T   T
 14.1925131697468689  1.9754404654663178 23.5177630623714933   T   T   T
 18.0000028118375184 10.2520713888428254 36.8489510036651211   T   T   T
 12.6454865126807157  3.1228940840991477 27.6842691099504847   T   T   T
 12.9000317459246840 12.1286268945641922 28.6918211729650920   T   T   T
 21.6976240680482704  1.2273634024181665 31.0018523155102343   T   T   T
  4.9856722958169870 18.4947673854553507 16.7035277988353208   T   T   T
 10.5851344629963489 -0.5814128893853735 24.9370016231175349   T   T   T
 17.5621548757803723 16.0056558099500421 35.9776933888035160   T   T   T
  3.9269871785247226  1.4518365610438886 31.7764974049986755   T   T   T
 14.9784964449534446  9.4618807601215522 26.1681599061575092   T   T   T
 24.8014929402374804  4.9519514074265816 29.0435099497899998   T   T   T
 -4.1211853195596202 12.0087003313933884 23.4174887393765481   T   T   T
 23.3897727160650035  0.6767219018107286 23.4955192099814028   T   T   T
 16.4708520039143025  7.9179794609053369 31.8577825702922901   T   T   T
  6.2231074354144926 -6.3283804767072152 35.4445801274929693   T   T   T
  1.1495499635007875  1.3280088471411939 19.6851783256575104   T   T   T
 23.7570456191059591  7.3570284692513352 24.4401163711765435   T   T   T
 27.1611841761336663 -5.4342727340149510 34.7478881178320620   T   T   T
 -5.7791497693434435  7.0452165364511465 31.5167074017771185   T   T   T
 16.2657135801024992 -1.9205989306104643 31.8402869029941122   T   T   T
  2.5490838825716624 15.7950436607971696 29.0769961059115651   T   T   T
 10.5859970403023258 -2.8665397425269079 16.6799926375856167   T   T   T
 14.5143942501153536 13.3581447454125559 14.7642164877607680   T   T   T
 23.3120222997213062 -5.3336758929608754 39.9982947718494017   T   T   T
 10.2824288214535358  1.2211277295075349 27.8024986454573870   T   T   T
 23.0294616366556042  4.3418068369399032 31.8649788464515993   T   T   T
  1.4833488028932651 12.7016002954054024 22.8919355049694140   T   T   T
 13.1646971430620709 10.5710182807030826 18.6646454316390376   T   T   T
 21.7312574106429111  5.4056843185884347 22.7156132467278553   T   T   T
  5.3955899555549136  8.0524797506684997 40.0868483529410895   T   T   T
 21.9362293980132108 12.5531975459605469 33.4982901749595783   T   T   T
 19.3960240673483426 15.4827850493161456 28.8062329277753442   T   T   T
 -5.2736039704637721  2.3100236909503926 24.7022442340740653   T   T   T
  9.4699408472758240 -5.4953946790915902 18.8849510652836798   T   T   T
 21.8978034325585398  5.4367584808194191 25.6114314101517451   T   T   T
  1.2073819847960556 -0.4839029935244318 48.4835670858617505   T   T   T
 22.1964281232122289 17.1750820939533462 35.7158022348205719   T   T   T
 18.6632595025450030 -15.0253929015747651 32.0665313219713966   T   T   T
  6.4418714435889797  6.3896185864112214 28.1379649522537925   T   T   T
 14.6675969255795078  2.9068763978246062 20.0188672006331601   T   T   T
 27.5791994788936066  9.4966465959701409 22.4316687316781689   T   T   T
 11.7469227360648798  8.4615616689691571 29.1367862183544339   T   T   T
 10.1292591476087157 13.0656395807247172 40.6348070033584605   T   T   T
 21.5364040725161558  4.7734525945151960 28.7500003267811586   T   T   T
  6.0163720747283174  6.6153526851872639 31.2249546737413475   T   T   T
  4.1492100156582845  3.1813639117832992 25.3101201562581544   T   T   T
 24.4017646622182411  7.8015580099806225 20.9905077114739527   T   T   T
 27.4093912065514189 15.8401527427042197 38.1874278735033670   T   T   T
 11.2053146489334647  5.2875734357869879 33.5461332743471843   T   T   T
 15.6263096542638138  5.5340173115175331 30.3969516514262850   T   T   T
  5.8110624291117325  1.8521502412942832 29.2163662860559938   T   T   T
 17.2594732898757997 -2.1774917061677495 34.3621509741909961   T   T   T
 18.8674867374914541 13.1081941720070105 24.4949607246925787   T   T   T
  1.8231451293339533  1.1055702613914169 24.2972438052594875   T   T   T
 13.6746100751614854  9.0418076506421734 23.5210254562344758   T   T   T
 21.7825833072829198  8.8524695947490422 42.6667666683612197   T   T   T
  3.3833361419334436 15.4282294498705816 35.6484260990428936   T   T   T
  7.6993041213898810 -2.0124907499458748 24.4066411594478012   T   T   T
 20.1355575582042405  9.0861727946178910 24.7874918481387354   T   T   T
  5.5833512656509861 -1.7875982696151624 23.0934470485556531   T   T   T
  7.3788214614715910 18.5584428452752626 19.1216511330358294   T   T   T
 31.7021762922394288 -1.4303036585361881 35.1455350996118199   T   T   T
  2.2896709473012526  5.7988988673944641 39.5992444568389601   T   T   T
  9.2895179352049997  3.3852179374101117 30.9885687838696562   T   T   T
 22.4001759698541960  8.6381998878556630 30.7363152924751297   T   T   T
  8.9709897415550035 -4.8868030467951176 23.6359615041338422   T   T   T
 12.3752357539161721  7.1788471013182003 19.2197541552176432   T   T   T
 28.5753042435934361 -1.2337556977899562 39.8965343030075132   T   T   T
  7.7520436478004324 14.7247103329808695 30.6943018012711413   T   T   T
 10.7674994218267379 -0.9873173362834196 29.6378259809741245   T   T   T
 21.8729657178650925 12.1431522686673894 28.7456070229254834   T   T   T
  0.8045602445743165  3.1914982970281831 21.9509812408108260   T   T   T
 15.6684483870358697 13.5329189888811854 22.8835919407698967   T   T   T
 20.8569170248116365  6.9901358920908656 36.4160049714863447   T   T   T
 19.0581893432299978  6.3988213358640245 45.3788717709918075   T   T   T
  3.4196242376653925  8.8665227594682321 31.1554243595922742   T   T   T
 27.6632142093084568  8.9851143281206411 25.3229347044967064   T   T   T
  6.6715878092085736 -1.4181169303086882 28.2852389426853605   T   T   T
 13.0118848669797771 11.6246477256913501 22.5907109907412895   T   T   T
 25.9570666290004155  2.3425838983694693 35.5270223310058526   T   T   T
  8.6128939736411247 10.2314845341774543 33.7637635857023639   T   T   T
  6.7289140818404247  6.7572903444731338 22.7616850341485559   T   T   T
 24.2116387382008327 13.0801619249459620 29.0587319484416184   T   T   T
  3.5068212245016093  5.6829922201714673 27.6522016376668240   T   T   T
  9.3906499335393505  5.2352251064714883 22.6255141809112956   T   T   T
  8.8186765144036698  2.1391281825840318 40.5456914004325313   T   T   T
 11.7973693613150985 15.1053918720686227 34.4657167188926081   T   T   T
 -0.4504563906178615 -3.4989775008192385 31.9813710518193517   T   T   T
  9.7490817772256388 11.5822912609902531 28.1110038553201953   T   T   T
 19.5934402996419124  0.4548067217808890 21.6400001378248561   T   T   T
  4.1994247376583207  4.2191509946781522 22.2883001711711444   T   T   T
  4.7320549078006753 11.6589683377897479 37.0519435340758605   T   T   T
 18.5777506947548119  3.0432865731843641 34.1091639459592955   T   T   T
 16.9426630961183520  5.4916066916428576 28.3251703693430308   T   T   T
 17.0947755336681340  8.8949682582473493 28.5258648786697186   T   T   T
 10.1281389064571492 15.5420326165547955 22.6520983441478450   T   T   T
 10.5978042591186092  5.0916661911582572 28.3098579691653960   T   T   T
 22.2469586506812718  9.5380781014324825 37.0889908635845842   T   T   T
  1.1304153222207427 18.7059484061476837 25.6913610133908321   T   T   T
 17.4290693903404375 10.4819328519633075 24.7829477894393513   T   T   T
 18.6053157779418328 18.5426701054747731 19.1398885134791037   T   T   T
  4.2658189332515928  6.7850707602818332 19.5066721413996227   T   T   T
 16.0188148361285059 16.0586342228021195 28.5867998035222151   T   T   T
 -0.3762476933460797  8.3617368134468819 34.3095947828516188   T   T   T
 -0.4961233231854134 -1.1859702533818270 35.0629820391993405   T   T   T
 21.7715795877900362  9.0976310799332616 22.6546141155186369   T   T   T
 25.9164057767894818 -3.0579083163907832 26.1297255637894139   T   T   T
 14.9684974187332251  6.0449934429389645 24.3407026916597609   T   T   T
 14.6359514128732524 -1.7424143776165515 34.1627332477207375   T   T   T
  2.8626838306848699  5.4400404147874015 30.5751544392080739   T   T   T
  7.3856132754225499  1.2100333903878062 21.5562333047532775   T   T   T
 18.8734904772969614  5.5366125411576022 34.6379606283600907   T   T   T
 29.9325929663846750 -4.8245120346903949 23.4536240765128845   T   T   T
  9.1347353366757851  5.5186165856862406 26.1859824098479166   T   T   T
 14.5666671300979385 -2.0601308503638651 26.1145615876336556   T   T   T
 -2.9063116438797110 12.6706522021974770 40.5734643756789097   T   T   T
  7.5279431472154323 19.9899808745600218 35.2590859094029696   T   T   T
 16.9123862626936514  1.5464000281042283 31.6306308500291813   T   T   T
 18.0935874107947186  9.7761202414121371 10.7052185968509779   T   T   T
  2.0881827329412030  5.9865775715269702 22.9615325077647476   T   T   T
 25.5556090549662756  9.5958062550970631 28.6846044592238449   T   T   T
 23.1688448123785093  1.0062647696110427 37.6695946137376154   T   T   T
 -0.6643129746075395 -0.2728593679113954  2.2072082102653687   T   T   T
 10.4866194891547355  6.5362459917254396 -0.0103973219792082   T   T   T
 16.5315247048951264 -0.5060289903634252  5.4161599241730478   T   T   T
  3.8201207916418087  6.6063370691356678  6.3160654868862665   T   T   T
  8.3634691716130867 -0.3254312459878860 12.0534781561455109   T   T   T
 20.1178385759636384  7.4461649522362370 11.5114301685954672   T   T   T
 23.2756358917882622 10.9497978780792025  6.3001983605373706   T   T   T
  9.9581243881873842  3.6732450671046402  5.3422165676596327   T   T   T
 14.7726967446534125 10.6033895973992003 11.4677639955573198   T   T   T
  1.7149193832262510  3.3795232327047007 12.0896889147462954   T   T   T
 12.0679988747964266 10.6147853681943083  0.2402068133207320   T   T   T
 18.9692238709503798  3.9096024174958117 -0.0182521920667879   T   T   T
  4.4567818043166856 -0.4031278668680929  5.5035323847464461   T   T   T
 15.8162528482093787  6.9569659802773760  5.3504781001555388   T   T   T
 20.8471290372281572  0.4634346565608071 11.2407167955053140   T   T   T
  8.0280936189860892  7.3763228436590698 11.9602097728659906   T   T   T
 13.9850167997853845  0.9293393761273374 -0.5775069664721247   T   T   T
 -0.4273760726377661  6.8605835123942924  0.2977853530185918   T   T   T
 22.5207102160011274  3.2499287642348853  5.7287951618181214   T   T   T
  9.8086404342002567 10.7360469645034655  5.9170037192212934   T   T   T
 13.9549368355198737  3.4431627106636133 11.7000000764899479   T   T   T
  1.9465811994116891 10.4021809563203753 12.0920830045577663   T   T   T
  7.6613907897362399  3.7732627846269557  1.0985210813094199   T   T   T
 20.3613083395448626 13.1544169685485492 -0.8072652581224419   T   T   T
  7.7401622463776425  1.2031724152397441 18.6898223050378611   T   T   T
 20.1623854142164660  7.1990890190031696 17.7660737468726282   T   T   T
 25.7083349278618627 -0.4757330737174478 31.8204099130515914   T   T   T
 13.3471389074181523  7.2436435375450534 31.5478456513038807   T   T   T
 17.1744710555119227  0.0631990573130003 26.0304873811568704   T   T   T
  4.4569484791095162  6.9819181670870609 25.5098303799522697   T   T   T
  6.6104709979379619  3.6445786108163349 31.7430918961742137   T   T   T
 19.5592039650946248 11.1155869044216971 31.0891405325605348   T   T   T
 23.4330467039279497  3.3639029339422022 25.2199997243222782   T   T   T
 11.1372550622154787 10.3763265489414991 25.5876240756122151   T   T   T
 14.2240767674114075  4.5934900689621330 17.4085657528580562   T   T   T
  3.4306199172275380  9.3924615803813758 19.0206621067351485   T   T   T
 13.0375026428426786 -0.4755366839547891 31.2533503175839833   T   T   T
 25.7757517873120250  6.9381445576908023 31.5150957890287238   T   T   T
  4.6171397498784783 -0.3352525451200266 25.9615829416023836   T   T   T
 17.1313264136578098  7.0870173018056777 25.7455118064334805   T   T   T
 20.6710375919990241  0.0458346400469685 17.3556315423240157   T   T   T
  7.5348725312791602  6.0980255709000737 19.2862129680844774   T   T   T
  6.6991841279855757 10.9735337390062497 31.1460105905421436   T   T   T
 19.3278108308865697  3.4217998832790819 31.4085942624162442   T   T   T
 23.3721763538689942 10.7002973696219250 25.3514376952984222   T   T   T
 10.8264147233667565  3.3532078811614427 25.1619495105700643   T   T   T
 16.4307101090871654 14.8726781199042080 20.2223509976514677   T   T   T
  2.1636072164727835  4.4147439933415900 19.2693600341627480   T   T   T
  4.6274937890740562 -0.7220389455446841  7.6035225368330988   T   T   T
 17.0912867877493255  7.1222440766631090  6.7722908592755235   T   T   T
 18.7340305982048889  0.8093293134891409 10.5766394754466351   T   T   T
  8.2459292567422171  7.5300743449982619 13.9914851262379258   T   T   T
 13.5616301576615843 -3.6057354238441812  1.5795903540374654   T   T   T
  0.0278808256840858  8.1877492487690731  1.9401523332272330   T   T   T
 21.9593396819954449  2.1682345946994843 10.6481308932908849   T   T   T
  6.0387178507750567  7.0582300838905425 11.6218905827035481   T   T   T
 12.6015118448911849  0.1402677207321420 13.7931408744509856   T   T   T
  1.0755616561262251  9.4845817607720200 18.9210879481682532   T   T   T
  6.2328821422436445  0.4784020438517704  4.7409846025560229   T   T   T
 15.8420657145803467  8.5928045165329650  3.9043857461128151   T   T   T
 21.4351314903691375  9.0088177485437946 10.9067431811380811   T   T   T
  9.3705615702810352 12.7762655776451091 11.1008347910693477   T   T   T
 10.7371830371449715  5.9808498690383667 20.0604373321599745   T   T   T
 -0.8130617739032989 11.7226921444323153 16.6112905305550740   T   T   T
  4.7338213040843060  4.8188072763704453  5.8817375029044872   T   T   T
 17.8257739371679591 12.5470741178006264  5.0128573454978458   T   T   T
  6.4309109355475611 -0.6727440299642287 11.4477358861861678   T   T   T
 19.5704388277448302  7.5573864035705354 13.4767646618810719   T   T   T
 22.4256215258255764  0.2419161790179072 16.3544747157384300   T   T   T
 16.0780145325845325 14.0671319554680032 18.5257713180268482   T   T   T
 14.6962164221295524 -0.7239537276198261  4.6071604408720157   T   T   T
  2.0573507477851076  7.1320242905511977  5.7791758891264458   T   T   T
  2.1516859752703796  3.3842792662667094  7.9349010316657980   T   T   T
 14.4762923989477699 10.7130189928902304  7.0340450463539703   T   T   T
 18.0883598904792606  3.9917765874682378 13.0101320491704744   T   T   T
  5.9273515880401408 10.0929566480190367 14.0200325530376144   T   T   T
 12.3825522629751017  1.3088112417325102  0.7199720900120636   T   T   T
 22.1438853159239812 10.8753253397540703  1.7960704591188652   T   T   T
 23.2849442129618893  3.5514791718723036  7.7002240365524033   T   T   T
  9.6762084269149575 10.6484155119007262  7.9534252850662073   T   T   T
 14.0677711038603892  3.5577345368686131 13.6934718484772056   T   T   T
  1.4838303812309688 10.3594962836444076 14.0668208315049714   T   T   T
  9.4691598170340221  2.7868845093668368  1.0904114706114802   T   T   T
 19.4852819232636634 14.8229615336742668 -0.2846517325208446   T   T   T
  2.8811061774329811 12.2598941085932651 11.5982293218751398   T   T   T
 14.6770072008246864  5.2141093674953485 10.6553371052658790   T   T   T
 21.9532814761457402 14.6096878441812130 20.5756382190679759   T   T   T
  7.0271271153590300  5.5319201480660132 17.4518913673055209   T   T   T
 10.8629667525456650 12.5108237034083913  5.4414108493924767   T   T   T
 23.4741920842777390  4.5676385601809875  4.5417343812046287   T   T   T
  2.5092008443329283  1.4716391123807828 11.3217170525858677   T   T   T
 15.7723353568061828  9.0030959693476831 10.7059964397696810   T   T   T
 16.2532851454613336  3.7858940439601576 16.9434704905855398   T   T   T
 11.6526942034544483  8.3346909684588226 17.1404597132474521   T   T   T
 10.9116830403299829  1.7660830753957939  4.7484293007249114   T   T   T
 24.0147445278942584  9.1270142256178772  5.5477060297293521   T   T   T
 -0.2452215077313982  3.1923896935203828 11.4908758643100111   T   T   T
 12.6558248684133314 10.9767608936842009 10.9578552611792119   T   T   T
 14.6248578516067944 11.7991247379333757 20.5336708096086689   T   T   T
  3.5071093877946873 10.6327761783948702 20.7874533477713967   T   T   T
  6.3239846019058055  2.8165533803990641  2.3645095019081519   T   T   T
 21.5684544363784880 11.2610505128517886  5.3108897775116413   T   T   T
 -0.1674921844286299 -0.3842262627708748 13.6981420538810159   T   T   T
 12.4828456047524945  7.2582011796249519 13.3871109827135921   T   T   T
 15.9903908079259516  0.3969126353399535  0.4883629287653662   T   T   T
  4.5086150000328669  6.5776443991512572  1.3589157815063571   T   T   T
  8.3270767600268716  0.0695485516888315  7.6872426686886532   T   T   T
 20.9268082817963830  7.2675139196205345  7.1164348384567333   T   T   T
 26.1269784243569276 -1.5771200397892560  2.6339126599840359   T   T   T
  8.5369878973846927  7.5035192060352713 -0.7252653446741032   T   T   T
 16.2975447139417113 -0.2687599681818251  7.4916483225633996   T   T   T
  4.0495078267246427  7.1442371171963535  8.3802333880328224   T   T   T
  8.9824780693619797 -0.0601023775187351 14.0741783327670564   T   T   T
 18.4814616678027264  7.5897031361722798 10.2866016559325573   T   T   T
 21.2251980265633833  5.7794026864955814 11.4036234708387187   T   T   T
  9.0249874376809807  1.5570507251784824 11.4820504794120595   T   T   T
 10.5893131560807863 11.2746600128126460 20.1952056262079331   T   T   T
  2.8338601714447682  2.7985772362997983 20.3663050490933237   T   T   T
  5.0247546520940052  8.1567879387905755  5.3807154833698805   T   T   T
 17.3083030784844709  1.2683650111141342  4.7407983608100412   T   T   T