Li P  S  Cl
 1.0000000000000000
    25.1819793006824639    0.0000000000000000    0.0000000000000015
    -0.0000000000000009   14.5388225279766061    0.0000000000000009
     0.0000000000000000    0.0000000000000000   37.2126966544236950
 Li  P   S   Cl 
 288  48 240  48
Selective dynamics
Cartesian
  1.1751440106455184  2.2154996246863217  6.7591110738072722   T   T   T
 14.2135584767718033  9.4834386080343513  6.6805093354980896   T   T   T
 17.4380636241231244  5.5492689639156163 13.0023326304642914   T   T   T
  5.3853151445729610 10.8422888046803649 11.5185957002256014   T   T   T
  5.4737241465948800  5.6990501267587730 -2.6964153477360293   T   T   T
 19.9053375271295110  3.5711552459889284 -3.3964386270120013   T   T   T
  2.5794845499225576  2.5706957213346127  9.4636241162449526   T   T   T
 15.1140544300852575 13.5877337514377636  8.6623553996209512   T   T   T
 18.8108547000800286 -1.0170855481666763 18.6711461336131741   T   T   T
  6.8872060070216641  9.2500410797333608 13.9510206640095102   T   T   T
 10.7944850656900346  2.4341120053960954  2.7711196205855644   T   T   T
 23.5972942176447233  9.0213481003597344  2.5967604731599483   T   T   T
  0.8451530001963448  4.7486225918149634  8.8724439777968396   T   T   T
 12.6609620741765490 13.2233313417144096 14.9705523024416625   T   T   T
 21.7320706495280191  3.9164065391724199 12.8965470176854868   T   T   T
  8.9440740905715153 12.4473016266159995 14.3096039537706261   T   T   T
 11.9807355412224243  5.0272832081420198 -0.2833394454326956   T   T   T
 25.1762499050345383 15.4486433751752976  0.0856425769453740   T   T   T
 -0.6330755287519451  5.9158222141807695 12.3855823776135718   T   T   T
 13.8415002618725556 13.1432597773907602  6.0499382489105651   T   T   T
 19.4562645308015689  4.6725994453816337 11.2113110612336708   T   T   T
  6.0379337677833558 13.7305703848413891 12.2822753994659628   T   T   T
 11.6038840295884462  2.1887681921314472 -0.4287161828634870   T   T   T
 22.4792019237809768 12.3618352006663557  2.9210893573353340   T   T   T
  4.2852299498320816  5.3307015145251047  8.8102537651652302   T   T   T
 15.9762026251292557  9.9229384970627557  9.2935787095398368   T   T   T
 18.3504106489357497  2.1431950946834046 12.5195573157351152   T   T   T
  8.4735256806066221 11.2726655537951430 11.0126927445952347   T   T   T
 12.4550305518263968 -4.8724605405524102  0.6537709294844187   T   T   T
 25.1548754328935793 11.2153471654280281  3.2397458056844686   T   T   T
  1.8289114870838292  6.0505414119923326  6.6266337064338803   T   T   T
 17.0933632559004813 12.4104660923872743 14.5795111246461762   T   T   T
 19.7506913678850999  6.3617784233062409 14.1126114397259101   T   T   T
  8.9029709572418607 12.0496281948881681 18.5542077676735531   T   T   T
  8.5026950642441737  4.3486684731265619  2.6574576240673173   T   T   T
 22.0554880337954309 15.0912122570972862 -2.2076836792626064   T   T   T
 27.6692919996507563 10.2090288970658314 18.3242592447549129   T   T   T
 11.0303980987068080  6.8707323030519794 14.8765611606211365   T   T   T
 10.7408715165936695 13.2317344165308377  2.8858101360795114   T   T   T
  1.6859356803319705  8.7059223963175647 -2.0044990148120148   T   T   T
  7.9449528916964836 13.4827965859848895  5.4385011754019104   T   T   T
 20.0677300478566707  8.7449007021142542  8.8099693788813180   T   T   T
 26.4592589744383773 -1.3207293414891683 15.4041930139065499   T   T   T
 14.3275355290528275  6.1630153495134818 14.5779333542319058   T   T   T
 19.6064661393101964  1.4275921809031853  2.9529684210535883   T   T   T
  2.1589464899324580  8.8302867253101738  2.5426551828375432   T   T   T
  6.9221545073654660  1.3614860368628396  8.4347359932711239   T   T   T
 18.3870257233263672 13.2016546173816387 12.2406088947770009   T   T   T
  2.6888920248467159  1.3247489947908038 13.8975834936750058   T   T   T
 11.3518610053722213  9.5857280906571880 12.9807873269836698   T   T   T
 16.2303056154425995  6.3495877228292184  3.0543147964078465   T   T   T
  4.2856191400162373  5.5522731179421259  2.5135998883206945   T   T   T
 10.2436200927290226  1.4832294575237057  8.5710378020187914   T   T   T
 23.7957149141828950  8.6561777847843366  8.5394275479581676   T   T   T
  4.7192488272300563 -2.4031569964541419 14.1603754118050240   T   T   T
 15.0134959366130278  9.0091136711844300 13.6802911165784487   T   T   T
 16.3504290964229391  3.1506065917388817  0.0471583134818610   T   T   T
  6.7391244137502779  6.6826343427178081  8.2186651165485998   T   T   T
 10.7086034450726650  0.3149565166975348  6.0278229577743829   T   T   T
 22.0256163880270499  5.7986372186274897  8.6846281711173887   T   T   T
  6.1676093269192336 12.6652216881319397 17.7944304434662861   T   T   T
 12.0469206779573934  5.8510347293232563 12.1032810056247460   T   T   T
 16.6014595446260458 17.3212609977771770  2.9555218370367413   T   T   T
  4.6404036293056734  3.8366562135880571  6.4508712177846297   T   T   T
  8.5614925381211897 12.6788926816602370  8.2989381306876968   T   T   T
 20.3741083849675455  9.5677676858786285  6.2816771032720249   T   T   T
 24.3285180324796464  2.1708981787609432 13.0811339764391050   T   T   T
 13.1744144068484097  8.4408990956494030 10.9818206713949262   T   T   T
 16.0791028434610581  2.7825463614205579 -2.5642365147152715   T   T   T
  5.3408971791825444  8.9556088547538337  2.3271181182831295   T   T   T
  7.9825366389130297  1.7617184814801106  4.9620289063160641   T   T   T
 19.4583995147378843  6.2809495280700327  7.5273192693980997   T   T   T
  0.4998811378832548 12.1701297648627289  8.3371189062688824   T   T   T
 13.3417776756233177  3.7952003858922652  8.5289813072030736   T   T   T
 18.0387734333717553  9.3566104115331399 13.0574888712103014   T   T   T
  7.2184491133625066  0.3123738759763328 15.4108605696095484   T   T   T
  9.9594837889939516  9.5053717067232810 -0.1782925960255908   T   T   T
 19.1176847106699199  4.9682830446613435 -0.4155318310540912   T   T   T
 -0.6375716648865424 13.3536734745466035 12.7309678830739337   T   T   T
 15.8815310719543525  5.7979596165714522  8.6938771139103999   T   T   T
 20.8777134517428635 10.2170427747254422 15.2445486071114544   T   T   T
  8.9627981724303236  4.0475325206931521 12.9460275467747152   T   T   T
  7.9101189452335161  9.2086111574215472  5.8243172395157785   T   T   T
 19.1338632496139560  1.9229981904180848 -0.2540038035248553   T   T   T
  1.3391836010241225 10.1686208338440451  6.3408731087548027   T   T   T
 15.7615716528879446  2.4883394650573432  8.5462843658653487   T   T   T
 23.5623890138667598 10.6902664758827086 16.6171111667771854   T   T   T
 11.4329747642670601  4.9399208971333097 18.9109466226741105   T   T   T
 13.4629790130300808 11.1278672387382791  8.8051493857083436   T   T   T
 22.3908653088084648  7.1766781833549240  5.3345191474987379   T   T   T
  4.2329595147875638 11.3781854183493891  5.8127105035139914   T   T   T
 14.3409953463832114  2.5917443753286333  5.2377967342747525   T   T   T
 23.2545161827322389 14.6440506051558827 15.1792814651340855   T   T   T
  6.9258682026154492  4.0840454732972393 15.6976838297967198   T   T   T
 14.6125844912190619  8.0597286250719726 -0.1466267797217862   T   T   T
 23.1099416064126189  1.5230127917006469  3.3244636714172371   T   T   T
  4.4875306600573346 12.2815957192556908  9.1097160995422950   T   T   T
 11.8902083327301042 -1.6781529623392264 12.0683581185806261   T   T   T
 21.3382534229722260 11.1404507433390734 12.5470713627206685   T   T   T
  5.0491302885049407  2.8468266901784749 13.6848200797849380   T   T   T
 11.2858462942884827  6.0046657528169556  2.9910277602719142   T   T   T
 25.2778082613824466  3.1192364383638984  3.0862545134552364   T   T   T
  2.4378954795282719 13.8902166576135038  7.5310370749972675   T   T   T
 14.2566317475621318  5.5334948965246085  5.2246893409191451   T   T   T
 19.6458652490253414 13.2256026643227145 15.0502467251862040   T   T   T
  5.8324784729798234  6.0976207060776701 12.5633593233051304   T   T   T
 10.1079825708807824  9.8454155614319063  2.9370627131617177   T   T   T
 27.2135991535968991  6.3921947864632642  0.9378870929272238   T   T   T
 20.5186706950071454 13.7003924385999483  5.4842797626873878   T   T   T
  8.4614987070149326  9.1624894587916828  8.7015124880471557   T   T   T
 19.7259765573154411 17.4016085228142323 15.5592030528906786   T   T   T
 26.7700773609730831  5.9822172336764625 14.6437375903963574   T   T   T
  3.1917015694317974 12.1601946527458757  1.3583382762956366   T   T   T
 17.0775998588482558  4.0864864527862412  6.1686694866696632   T   T   T
 22.8912177253932931  0.3657359379295014  9.4391105757457385   T   T   T
  7.8610082055565238  5.9062143125415547  5.4828674082852960   T   T   T
 13.3263834649257973  1.6437854931125997 11.1871827439031115   T   T   T
 27.3053028054020821  8.8513215850516787 14.4773768184870963   T   T   T
  2.0101107188747256 -0.9324841540090669  3.4020024874592685   T   T   T
 15.4439435094955471  9.3472495497316110  3.5407971776149769   T   T   T
 21.5017558542212797 -1.8564024883616366  8.5939809698691167   T   T   T
  9.8522601945022945  5.5294596502033375  8.7182589454168316   T   T   T
 15.3663487816987807  0.9801031513609836 18.5936718507088194   T   T   T
  5.0151099945236606  8.1685881489992518 16.7550657253115247   T   T   T
  3.7363589757733422  2.0970790850425840  2.9558645455528505   T   T   T
 17.2405079174699196 11.2813967042466743  6.6407657590745250   T   T   T
 23.4241116425539175  0.1214324843123282  6.7194157539763122   T   T   T
 10.4137500989626837  7.6086035138216461  5.3356541658412135   T   T   T
 10.8914114220103393  1.5223979265986729 12.9618998703756549   T   T   T
 -0.8712097137813757  9.6758244914223859 12.8351718065175859   T   T   T
  6.5590934080676258 -0.7748688683755638  2.5095111752495161   T   T   T
 21.2328336246235203  6.2746538851986289  0.4489988715984967   T   T   T
 19.3563667642303905 15.6049909487061171  8.7550084472910648   T   T   T
  5.9042731438034366  3.8252391521452460 11.3154882855181107   T   T   T
 15.2778385424295511 14.3790594051095049 12.5370720439841303   T   T   T
  1.5586657446872729  7.5992340120897861 11.6379701101136597   T   T   T
  2.8670142672473906  9.3808046346232956  8.9737716137364600   T   T   T
 19.8843408573166585  5.3420051497186876  3.5439089596839892   T   T   T
 21.5010984720178726  2.5729381028459875  7.0738934429294167   T   T   T
 11.3894549039944497  8.5767994722444278  8.1246772375128486   T   T   T
 13.2387164267204120  2.7144159946174629 14.1473437527924855   T   T   T
 23.6964893400022163  6.7220383712401190 15.1937207872471713   T   T   T
  0.1571931057422467  3.9873343809845321  0.2794608345834145   T   T   T
 14.1088103194497574 13.8597322625233659  2.9365554767065398   T   T   T
 11.4088501737073198 12.2721589707774719 28.3998697099774624   T   T   T
 21.7987186507217530  5.8262195066936098 30.8628726396475876   T   T   T
  0.7946733801653993 11.6072770107051149 25.6580664175102093   T   T   T
 13.6773837149676538  5.7233077775467747 23.7535742515145465   T   T   T
 19.7867064087445286 12.1374877536197658 34.8084417048379464   T   T   T
  6.1899130296156146  6.6345971720317527 37.3341159803537295   T   T   T
  7.6407154456274871  9.0482946245591691 29.7294067246874043   T   T   T
 24.7257842920442066  4.8145427944878412 29.6476891426902398   T   T   T
 -0.2091841151175642  8.7097542905654315 24.2597334012370354   T   T   T
 12.2906717144736533  2.8152793043440298 22.2266039975477767   T   T   T
 15.3017018248483971 15.7338553326700712 31.8356101075288933   T   T   T
  3.0559261667150475  1.7469575047103389 35.6151864490007455   T   T   T
  4.9954836404375671  6.5050341272647536 31.6732023993136664   T   T   T
 20.4508313991943318  2.4849123203186383 28.9086559148091986   T   T   T
  1.6655071231821668  8.6986021911163327 22.2679661889008749   T   T   T
 18.0430303801678171  5.9824626467274751 23.5838266549020652   T   T   T
 19.1539654676040847  9.0156191885600236 34.4740667026068337   T   T   T
  6.3522971374744479  1.0534689783375206 34.6048060309263121   T   T   T
 11.7654020703127600  9.2399512278577909 28.2407942533829299   T   T   T
 23.5934960773234685  1.9542619830337846 28.6590552615816669   T   T   T
  2.7965651875799455 11.9132834198122168 22.5166397579277842   T   T   T
 16.1620306363824753  3.0154037385095287 23.3624980835111806   T   T   T
 18.1775340132428447  9.4352832954946813 39.9023237535014772   T   T   T
  7.3884153561882151  4.4801681084361480 35.0592447315804350   T   T   T
  8.7544323638303734 12.3534943192647333 30.6735394518063949   T   T   T
 22.1672114087460130  2.5722711333790649 31.5578306352477433   T   T   T
 -0.7747617766000521 12.0592908200571074 22.1827899550407857   T   T   T
  5.8983228329834860  8.4127762758489233 23.4824167026350601   T   T   T
 22.0399969978223709 11.6631896381199631 36.7011266334585429   T   T   T
  2.3402726768412254  4.5714710222197885 34.1690537456381236   T   T   T
 15.7129652880197384 12.3049622329635824 22.8197812017381025   T   T   T
 21.6109636013191491  5.6689549351870898 28.0826753678281911   T   T   T
  3.3131091548061660 10.0643417383492952 24.4950849377956743   T   T   T
 13.7102316631868870  1.0348788621655998 24.2279762670774197   T   T   T
 18.4381216454323251  8.2325327480485306 37.2435805833175380   T   T   T
  9.7703950219371656 -0.0172109884728496 34.5279143856260333   T   T   T
  8.4382461143374243 -0.3371595162015860 25.9807981662380278   T   T   T
 17.9609028856216106  9.5679741413339912 21.3132219882680900   T   T   T
 24.4644834682589121  1.5860768607228375 34.5045650649259699   T   T   T
 13.1686867234727671  8.5874911467056450 34.8187158093845284   T   T   T
 15.3046766694221095  3.6875930771384029 25.9650158874578167   T   T   T
  2.6485615572515151  8.0073756826109346 31.9594616436216157   T   T   T
  6.6618559610639059  0.8823164052982255 22.0430902443402985   T   T   T
 23.5922507176195460  0.9214538721938734 19.8470422305505316   T   T   T
 25.1885272701265563 -2.0964744198882572 37.2020166933582033   T   T   T
  8.8676342420881191  5.3635482400474839 30.7269585355768662   T   T   T
 14.9189063219091906 -1.6929626217030991 30.8006338577660195   T   T   T
  1.5846272229229794  6.7841107525383784 28.6679800049509907   T   T   T
  5.3412714562178571  3.4255585798624115 19.5327175894223934   T   T   T
 24.3882416748742656  9.4963237907365894 19.0717692569794863   T   T   T
  0.7565429083624616 14.1557350204172110 34.0061178504813881   T   T   T
  9.6925762287820874  6.8485431357539737 34.2426057995281781   T   T   T
 15.1173408568934455 12.8322298496831202 27.9798128620589317   T   T   T
  5.2431217069785898  6.0445079615023056 28.7740763796418690   T   T   T
  9.8419514915690272  0.7033190117118300 23.3327605537133103   T   T   T
 22.6572234073454801  7.2857769330538034 23.7819136138844343   T   T   T
  5.9052443537900086 -1.6435949445153415 36.6259169046123390   T   T   T
 15.8524507347287216 10.5259439217044743 38.1830948710786799   T   T   T
 17.6387052646306195 -0.2175200523187405 31.5272650260325875   T   T   T
 -0.1062781321210430  5.0344057519268057 24.5588285198479888   T   T   T
  6.2487732810167893  1.5928369591247977 24.8229184516951342   T   T   T
 19.9468456116904811  9.9202532148512823 23.7030711372290206   T   T   T
 -1.8164233197834061 -1.7832190609034526 33.8712324043635249   T   T   T
 16.0088323053114401 10.2638956005482100 34.9261323190306001   T   T   T
 17.9210953601357517  0.1930015246485865 28.3027968108198351   T   T   T
  3.7258128531046184  9.4850511652577083 29.1568472963561405   T   T   T
  7.6827896905645581 11.6911046252821436 22.5164440503911401   T   T   T
 22.1839238776502796  1.5296889313318389 23.6519460317903061   T   T   T
 16.4871471286761739 12.9132158850979906 40.4734728365377094   T   T   T
  9.2528590563904096  5.5849713896496382 37.1245439422780663   T   T   T
 14.6243412670830981 15.6968990299397646 28.4201678345604094   T   T   T
  2.5846523776475054  5.1745026467444566 30.8184722508608182   T   T   T
 11.2699343127642635  4.8358197254802269 28.4464277452019374   T   T   T
 21.6617800219152770  8.9831013349040845 31.4085228645270824   T   T   T
  2.1288953156442241  5.6468167167154197 22.4108774753966706   T   T   T
 11.9235300134549878 12.2741183828684228 22.5169274570483715   T   T   T
 14.0356214585937771  5.2627979404522094 34.4389240159981966   T   T   T
  7.9912305711716085 12.3209417874348226 34.6055721829994098   T   T   T
  7.9880190290761099  2.7502198481459237 28.4510182414337187   T   T   T
 24.0326253779990466  9.6990371285563732 28.0537867305172490   T   T   T
  2.4072797721664374  4.3789878557190933 26.2193079206248250   T   T   T
 12.5274264858708104 14.4880007570627498 20.5463340912506673   T   T   T
 18.5385482349285979  1.2531896875175339 34.3094500861937775   T   T   T
  3.0327074606403932 11.8755270144771465 34.6525707073058271   T   T   T
 10.7952293509664710  1.4013539245438560 28.6401482040769544   T   T   T
 20.4619706674054171  9.8517629986371880 28.4353200710402270   T   T   T
  3.4775218088393545  2.0954194061781304 23.3255996845679903   T   T   T
 14.0286341841225699  8.1597859127085997 21.8392094457235650   T   T   T
 20.1027566407195870 -1.0798897412092185 38.0906289564243821   T   T   T
 12.3330751507072200 10.6393654183064683 30.5888042276682839   T   T   T
 11.9450826178546361  3.4470067135731957 31.0385951007095180   T   T   T
 24.4260534958531217 10.6368785861189146 30.6827400926862843   T   T   T
 -0.0254336463038895  1.6020282696093495 24.4817194894193868   T   T   T
 15.3767842929082956  9.5871895904688778 24.2924222972616271   T   T   T
 17.9744873820691353  5.5928332900297564 34.4765659147288375   T   T   T
 12.6005642118331895 12.2101041369818049 37.1115323116102189   T   T   T
 12.2414153696343391  3.5436099814848943 26.0537059396296726   T   T   T
 21.2782995493479170 12.3733373098604709 31.1408880696804751   T   T   T
  1.7476031998308339  3.7627028732984495 19.2011043079414634   T   T   T
 14.1954868511530172 10.9094145098371911 20.3707846889853350   T   T   T
 16.9846809800080472  9.1959981421916552 28.5380215979201779   T   T   T
  8.6515092753848037 11.7853750825601331 28.0541876905730945   T   T   T
  8.9853131734896969  2.3352179237694788 31.8606277848437784   T   T   T
 23.0035862105466720 12.4876494786591898 28.4151617302741748   T   T   T
 -0.7108774037367108  3.2550606715012615 22.2510325690245416   T   T   T
  8.2631732768854285  8.4244275027503193 26.2863222004442214   T   T   T
 17.4814088714432678 -0.8250247784797715 37.4660319570697737   T   T   T
  7.1985761640260773  8.7989998016188729 34.4164119172186531   T   T   T
  3.5348508369445777  1.6994644834593808 28.3308969893865665   T   T   T
 15.1172026551992769  7.3004538368069261 28.2923536458918399   T   T   T
 19.3427563504351099  2.6289384506215905 24.7967220370923158   T   T   T
  5.3363923602186940 12.9369256535872701 23.9946814408049818   T   T   T
  8.7985539284655641  2.2089619808898724 36.8605316355611450   T   T   T
 22.2952760718873222  3.7473038257946998 37.0298117811942689   T   T   T
  4.4080410483729020 -1.6618592598269641 28.2861671733610116   T   T   T
 12.5262733395793333  9.6150192223827986 24.2566627050779111   T   T   T
 21.9696357578643493 -1.9622745344288062 19.3687625442748654   T   T   T
  6.3914916605695016  5.2525250745625582 24.7872023095821490   T   T   T
  9.2810481297364920 -4.7867055776863383 32.1270087227318868   T   T   T
 22.1401869684047590  7.1817807035192009 35.0289278844310132   T   T   T
  2.8600700406487891 15.9362914421992983 31.7130049681114663   T   T   T
 17.8955540288999124  5.6780272231533724 28.5495023315690766   T   T   T
 21.5384447983386167 13.7513863770390401 22.9342537031605715   T   T   T
  7.9708293437920439  5.5818544709496534 22.3971633769056950   T   T   T
 12.3020559837087315 11.8615697584228137 34.5829228932091866   T   T   T
 -0.7088830574626501  4.6425345794490900 34.7946508692969303   T   T   T
  3.9365689883483657 -1.3103189298022113 31.9086979474124526   T   T   T
 15.5165726233769234  8.6917265846792020 31.3407109727302249   T   T   T
 21.9495051450280982  0.2707008371127290 26.1001718544080639   T   T   T
  8.8671855862144522  8.6113695662601621 22.8534797762972985   T   T   T
 14.0892632306464662  1.4423990880613176 38.3060045625571348   T   T   T
 -0.0855885101893508  9.6301180938882922 37.4973482395387663   T   T   T
  1.4182449978898142 -1.0418141977361883 28.7760699940267664   T   T   T
 18.6358115248173917  7.2224387431388237 31.1152820302017794   T   T   T
 18.6089404026463860 -0.4346175835916039 22.6411267835959613   T   T   T
  6.0192899475843280  7.2348123454141557 19.9240710850444138   T   T   T
 13.6452030902881578  1.1724921334750402 34.8970908391006276   T   T   T
  3.8003461346807246  8.8312684003345332 36.3133976268293566   T   T   T
  5.8738653376325525 14.3234501208208655 30.2105625372903859   T   T   T
 15.3320039973979476  5.5502329092264864 31.2112757615656768   T   T   T
 19.7705482628530369 13.5343731889250343 25.8535695631952223   T   T   T
 10.1470278573391077  6.3670547188221134 24.4606872984994261   T   T   T
  9.3102751598560207 12.8438797908398676 37.4410063970210132   T   T   T
 22.4040974875720913  4.1519557175679180 39.7836664469484305   T   T   T
  3.7748064160014367  0.1988831391329295 -0.0868395684736108   T   T   T
 10.9899751510789372  7.4847549251429468  0.2507771175183798   T   T   T
 17.0301979607482075  0.4879900333824562  5.7018625969536192   T   T   T
  4.5127265579001765  7.6871310657533778  5.7609614003951046   T   T   T
  8.7542807912347200  0.3607470598196072 11.5058808275178563   T   T   T
 21.6813773026409891  7.7872869757393630 11.6769813379640670   T   T   T
 23.4369097627062963 11.2428662026563266  5.6073343712821799   T   T   T
 10.9064646595981447  3.8796127219775087  5.8084479711931607   T   T   T
 15.1373797764589391 11.1538704102905442 11.8515407663948462   T   T   T
  2.9001715769160556  4.0789309491668346 12.0907593874854946   T   T   T
  6.8990721587856783 10.3957191172479000  0.2927872224667167   T   T   T
 20.2849820158399794  3.2491437298507195  1.5869256555879945   T   T   T
  4.5709963268421836  0.4362740857498670  5.6679829096058958   T   T   T
 17.1536089081296481  7.7810276925180322  5.9017288992124524   T   T   T
 21.2414442513288328  0.5934589119519291 12.0637515766777881   T   T   T
  8.9004196074943707  7.5144444002387214 11.4995005323474331   T   T   T
 10.6992283762166949  0.1367283292637455  0.2056885533672536   T   T   T
 -0.0221842277249516  7.2017440783087130 -0.5690147928590574   T   T   T
 23.6679640775764426  3.9525865671848397  5.8614920814232816   T   T   T
 11.0289046968834263 11.0963955802401557  6.0968463518212550   T   T   T
 15.4532005684043252  3.7186761782476681 11.6247038118896864   T   T   T
  2.4678607830497228 11.2893810538240551 12.0610940389305075   T   T   T
  6.4150344530951857  2.8589037587453712  0.2893003662178505   T   T   T
 19.4009316014889990 10.5670097645906225  0.4137287859552655   T   T   T
  7.2005089557241355 -4.6005603632170793 19.6251933563986896   T   T   T
 21.4407123098566466  8.0417315499185165 18.2273426683102251   T   T   T
 24.2167993570662148 -0.3146979777398611 31.4250962355961363   T   T   T
 12.1285363418958063  7.2394090369459949 31.2241013643567342   T   T   T
 15.9828992413166606  0.0955308012149467 25.7172244408378674   T   T   T
  3.3703597904456770  7.3336963889404361 25.7539856522968194   T   T   T
  5.8695542079002205  3.3090078513744419 31.4543073559119861   T   T   T
 18.0754374773072506 10.9712381654571267 31.4552313710110028   T   T   T
 22.4636070613923344  3.8431356750711290 25.6468351107099544   T   T   T
  9.6292139208050891 10.9479456908324693 25.3217973942073584   T   T   T
 13.9864642539680162  6.0109484480233881 18.1756990544250350   T   T   T
  2.0088988517700690  6.7781947789985546 18.8597726548296016   T   T   T
 11.9996986296362635 -0.3123391946338836 31.5639527519294170   T   T   T
 24.7160642453711503  7.1291412668624803 31.7661578696948474   T   T   T
  3.1095910894708561 -0.4292945062117062 25.3785148202705209   T   T   T
 15.7094310145634033  7.0936563892970215 25.5377398781476082   T   T   T
 21.0704034173789054  1.2464904493694065 17.6502239679286106   T   T   T
  8.2505929185230169  4.6370636232763403 18.8392294932799267   T   T   T
  5.6446068367461528 10.6713712530721345 31.8019949355253111   T   T   T
 18.3372482305911220  3.5870440874496259 31.2773532335961519   T   T   T
 22.3689106255504946 10.9935967542023185 25.2434998605896155   T   T   T
  9.4175544477013773  3.3183904832168807 25.1338362032538960   T   T   T
 15.1034191319561675 13.1056335170341569 17.7514697594427666   T   T   T
  3.9905421114662416  1.6421491101659924 17.2505239711653644   T   T   T
  4.6614013725600234  0.3554829344633461  7.6911508729464781   T   T   T
 17.4049771941939113  7.6632837661592363  7.8875323850940013   T   T   T
 21.1013495875144841  0.8044674893276159 14.0696040437960477   T   T   T
  9.0602424045326746  7.8016248955007939 13.5296281474591069   T   T   T
 12.1244335560203851  0.3993662745408092  1.8927628113047339   T   T   T
  0.1193491573476747  7.7416988329160370  1.6707352755014060   T   T   T
 22.3331102014548115  2.1404586868899989 11.3070781241199736   T   T   T
 10.2065038236191228  8.8979918011782182 10.7231068182109688   T   T   T
 12.8617194599983335  5.9163237543700173 16.4621770247531458   T   T   T
  2.7236594589321377  7.2127793281026689 16.9714820774219781   T   T   T
  5.4139197289648067  2.0742290411890689  4.8752424881005325   T   T   T
 17.9642950259478340  9.4634632877231226  5.1395390697905956   T   T   T
 22.3189663357784305  5.9266988978433233 11.0281991868706832   T   T   T
  9.8683876308811929 13.1626601326070336 10.6636368863111084   T   T   T
 13.0951654126482406  6.4487360202773276 19.8705805638100550   T   T   T
  0.6546746741135718 11.5864707494478729 16.9873261711007473   T   T   T
  5.1800633386604344  5.8347207703560011  5.3122950501938853   T   T   T
 17.8559026964419196 13.2490999476847087  5.1576155933592442   T   T   T
  6.9342833156896857  1.0068370653698027 10.9092680966338200   T   T   T
 19.7572667137543405  7.7533116720052773 11.1501700223693909   T   T   T
 24.2870775202422067 -2.7104753994697091 19.8517239499886919   T   T   T
 11.8548659266662710 10.3944457173247748 19.1565656454020790   T   T   T
 15.0943837264004372  0.4723298598216633  4.9763690070579170   T   T   T
  2.4552612429258214  7.9040186046413385  5.2043575703227196   T   T   T
  2.7048964027417055  4.0052487435840360  7.5221629188976298   T   T   T
 15.1313129034419767 11.5033092155110346  7.5374905739024882   T   T   T
 19.4227848935465737  4.2887546344308340 13.4138601399332700   T   T   T
  6.7963981448235868 11.5704918360585118 13.0946109155846173   T   T   T
 10.1338543027875332  3.8439114006102280  1.2147398789799073   T   T   T
 23.6750308007082744 11.0757014256444357  1.4102030960593264   T   T   T
 23.4526075338069191  3.8949800455378401  7.8888326018505550   T   T   T
 11.0508686593874117 11.2519234280006444  8.2081184967011431   T   T   T
 15.4948763302593147  3.8433786620639805 13.6693483186835252   T   T   T
  2.3592686709976292 11.1686037210404194 14.2287079272710546   T   T   T
  6.1865270058530806  4.4082312015161493  1.6053355891291612   T   T   T
 18.4199192111301606 12.0542489895606231  1.7298016148013828   T   T   T
  3.7875871155795644 12.8217792914181565 11.6503326126185573   T   T   T
 16.8658371091423192  5.0929964576811271 10.7506748676596882   T   T   T
 19.3663804039096661 15.1125464521976305 16.8018456528389990   T   T   T
  7.9125810831350467  1.4045239156038805 18.4795900983339401   T   T   T
 11.7765417330908431 12.8035241922793475  5.2055792456736620   T   T   T
 24.6660121636273928  5.5996086597296220  5.2093480286756684   T   T   T
  3.7672268530406217  2.3118352176123245 11.5956614773967086   T   T   T
 16.0873685432291538  9.3621239377605114 11.4328043026882096   T   T   T
 21.2449975189863380  3.1464740266195097 17.1654851600746596   T   T   T
  9.3988640488243345  4.2345330325369606 17.2424519856905256   T   T   T
 11.8748851872937937  2.2694147364021093  5.0275311422862146   T   T   T
 24.3969072976300581  9.5985583806696440  4.8261602756873430   T   T   T
  1.0373063373019713  4.1155580717015372 11.0454291847584081   T   T   T
 13.1543496656694963 11.0253593711252442 11.1404040596957312   T   T   T
 15.7791908901854683  7.2247408094409247 17.5270685587528590   T   T   T
  6.4864909011699812  5.4286488541148756 18.2164720184174840   T   T   T
  8.9591912437990135  3.8932788605817801  5.1442999670135210   T   T   T
 21.5499443551011431 11.3108452299657998  4.8046045391586469   T   T   T
  0.4109540138564287  0.5437274121350479 14.0349020351303047   T   T   T
 13.0649347287582209  7.6835310163010240 13.4112741201863006   T   T   T
 16.0152376138578809  0.4283455085019854  1.7158860607146924   T   T   T
  4.0786422580117376  7.4383627053476609  1.0352448747138241   T   T   T
  8.7970947884659445  0.1145572672204056  7.2338804225441899   T   T   T
 21.4872697463050706  7.7190467908116771  7.3184584605068963   T   T   T
 27.0673204754136592 -0.1498094082550635  0.9584344770018841   T   T   T
 12.8973789583109468  7.3741387887723011  1.4287587313412125   T   T   T
 17.1342717963955415  0.6056236483611735  7.7584158720894214   T   T   T
  4.6746136452178852  7.7300108931830733  7.8453806462715434   T   T   T
  8.9635964576492722  0.2653783940726169 13.5237696261865796   T   T   T
 21.6787121230390945  7.8749876592045744 13.7856783576070026   T   T   T
 22.7991135149333068  9.3404527744654366 10.8596865911479643   T   T   T
  9.8239873900942136  2.0751650828591655 10.9967410384891053   T   T   T
 12.5963208146090810 10.6534022372467838 17.2912467162840073   T   T   T
  4.7910220479606576 -0.0364647954436429 14.8356649450626445   T   T   T