Cl48Li287P48S240 E=-2515.718711 eV
 1.0000000000000000
    25.1819793006824639    0.0000000000000000    0.0000000000000015
    -0.0000000000000009   14.5388225279766061    0.0000000000000009
     0.0000000000000000    0.0000000000000000   37.2126966544236950
 Li  P   S   Cl 
 287  48 240  48
Cartesian
  0.9020870989670283  1.6724581659253761  7.1251313178053337
 13.5632305930008528  8.9542648570526566  6.9100172062203100
 18.0152627765190232  1.7320731956731803 13.0367392526322856
  5.4427549668758513  9.1253314769239005 12.8710759829732435
  8.4858413826759787  2.4645811065411416  1.6380116745040052
 23.0802249825177377  8.5491146668591735  0.9826534007916544
  0.1944533989380598  3.6291667510810188  9.4010891942490424
 12.7378496316527574 10.8506270684174542  9.2926581133624708
 16.9003964560908138  2.4697519219199973 15.5058474915182529
  4.2574268136529954  9.9205187385619080 15.2842904892527347
  8.9314560100723739  4.5178385541299422  3.4778317242881878
 21.3334953843697583 11.0069160557986319  3.0990213561053417
  3.0912038508946411  5.2879444891537100  9.3596450661002315
 15.5570488001219083 12.5345239153106576  9.3230362030416938
 18.9183310679731562  5.9110010784759588 15.3888430659566691
  6.2048417426548443 13.1192283010499722 15.4460996715910124
 11.8731971770129991  5.2658907018176704  3.1975466592935899
 25.1354425578705403 12.1665204598001626  3.3549113125050001
  4.3106634589502866  3.6525759699169615  7.0005625649738308
 16.9662825739655965 10.8981498334536919  7.0069910654362157
 20.9371072651519974  3.7632851077613361 13.0030874601824564
  8.4089890212111289 11.1525079582045414 13.0088058404965761
 13.0776858286590105  2.8141808756469251  1.1364161022541066
 25.5774532214556061 11.3633757344023536  0.4719323934410305
  3.1233655260419870  2.0307976604440401  9.3697348958918987
 15.5717583577056988  9.2618922986240317  9.3284409477697743
 20.8648263663630331  2.4276554285580714 15.4529730757929631
  8.2107926912971152  9.7309351454899069 15.3385509193383669
 11.1573748523496956  1.7642843579991072  3.2213251537185559
 24.3469059238386230  9.3895813227672740  3.2818364093317940
  0.8898922834704729  5.5656344508770141  7.1629015034483476
 13.5588725459478159 12.8716885163909946  6.9815541764897926
 17.7636416595106112  5.2265351670265243 12.9377162726963544
  5.0902619970593816 12.6412452635574279 12.9629846185418298
  9.3848663582439400  5.3261661711572650  0.6021688001209634
 23.3500509023938676 13.5598554065284471  1.5891115749935105
 24.3176665989585103 12.6636492320858522 13.0450974279680203
 11.6943863956468217  5.3977741219582214 12.9199148443956382
 15.5439711370731430 12.3549323607357859  0.1326937305924530
  1.9837472358490169  5.9835577689408792  1.4523968269240379
  7.2460108973341892 12.6230701622374948  6.9075941879145084
 19.8840154927015789  5.2926957794506801  7.1430151136982296
 23.2009448716681383 -1.1820922826257620 15.5451893019341902
 10.5911523386512076  6.1514591199336977 15.3452748172714166
 15.2723495765512904  0.2833514420723624  3.2068034962406773
  2.4200307422811975  7.5197069943355084  3.6533967694408003
  6.5200146953201275  0.0129687145507958  9.3175319333317077
 19.0848943548204346  7.2892225274153359  9.3943919281148549
  0.0112255967751251  2.2714914485702926 15.4295758459083423
 12.8950414225796397  9.4456212347475503 15.3111118091201437
 18.5251779504734628  1.2835911824816206  3.5299760666441680
  5.2612607083108447  8.9208985078028196  3.1060499402590822
  9.3751524259619963  1.6593934832036223  9.3053780743866739
 21.9880301764077863  8.8892323953243295  9.3762538018927053
  2.0647231182226409  0.1525051002853731 13.0463716070078650
 14.5068111340067638  7.3997220556783097 12.7920489693394170
 19.5700518103582155  0.0349207222864556  0.8156816879906286
  6.9105220090274804  6.6579309909705078  0.4246683715045900
 10.6539490358978313  0.0173966938395764  6.9837731831209480
 23.1927888716848152  7.3064542365234812  7.0432456821344411
  2.0126077534939077 13.3683765953421130 15.5152541092963432
 14.5800293755509358  6.1850029040003180 15.4074621415204085
 17.6521043304767069 12.6499650018306475  3.1092094643213772
  5.0590575246175344  5.5412121649814337  3.1676755817289712
  9.3108285528375898 12.9058699359662210  9.2881439588783916
 22.0203332538018870  5.6481933167072276  9.3946160405265520
 24.0464947704477758  1.5999512682448798 12.9724757106820530
 11.3486086779875830  9.0044023714424579 13.0139295636518568
 17.0371174371657546  2.3281176976716962  1.5402455291460657
  1.9439561008698703  8.6497977552850180  1.3695804918945733
  7.2136429336982220  1.9625405292131946  6.9793541947315889
 19.8676069804466486  9.2337840505075626  7.0352763884473717
  0.8884017321391751  8.9769162742654185  7.1312064978837872
 13.6071401764236430  1.6846220214766179  6.9860085121174391
 17.9695268837595101  8.9958436580669510 13.0198624282229574
  5.4462594634663217  1.8499846545944971 12.8874663523630293
  8.4991500406338520  9.1751395142782588  0.3871059772811488
 21.9232069095209496  2.3410583720194782  0.5973168890538196
  0.1624623441108166 10.9293232556711750  9.3363344719630117
 12.8390317260842508  3.5735734490386126  9.3521341797781208
 16.8939904539004679  9.7244929926013750 15.4939701960334819
  4.2533257134733757  2.6254482634820491 15.3022619297448728
  8.5869536099308039 11.4124755606924211  3.1061224635546014
 21.1184485058879297  3.7728169338710300  3.3927950747424482
  3.0657619294360252 12.5756957588434339  9.3235108955148966
 15.6902910301671277  5.3147610673811547  9.3220417755700744
 19.0205332566054288 13.1434002745477247 15.3244412029153967
  6.2124891936866264  5.8535165616098492 15.4487747683562304
 11.8824805828532636 12.4586232167821009  3.3043534204143903
 24.3245172193885608  5.3285236507249154  3.4428653815300767
  4.3210804302680632 10.9439605035407830  6.9409636494185891
 17.0097937125885963  3.6686074212179745  7.1155676402394823
 20.8027845922794263 11.0451574907309258 12.8348150456858026
  8.3933786993834314  3.8686688526128163 12.9972727122077707
 12.7661223585933410 10.1955592413553582  1.3750560576169932
 24.9096798355582969  4.5001616242740621  0.6265690731598126
  3.1039056120676931  9.2923389914097285  9.3350427223623402
 15.6768919526877202  1.9621835502817855  9.3388944632996527
 20.8840804372275990  9.8796270479558110 15.4182303102385436
  8.2150269082589116  2.4553127576713165 15.3420820969950409
 10.8231511607840911  9.0772889765219613  3.1934704070536948
 24.0182613847663120  1.8922476890984228  3.1555322815973472
  0.8931920444325989 12.8628133747657998  7.0512072135294037
 13.5804829039357511  5.5995127510007041  7.0191786787029145
 17.6988692137292105 12.5518899135088695 12.9674816969523157
  5.0808542428681163  5.3704724284320502 12.9780816143397857
 10.4266299558558728 13.3469566551631704  1.0300341587377866
 22.2842424518870068  5.7233156531809808  1.0180460969121339
 19.8799818897850358 12.5411796198058099  7.0305924368886492
  7.2349028125895920  5.3371613596963314  7.0026557508091063
 11.7494310679124840 12.7177741236436077 12.8718243487487083
 24.3760945205432158  5.4718482622812790 12.9331553721796713
  2.1489652970905455 13.4418998319873850  1.5022817422108334
 16.5718899234230008  5.0442085546239985  0.8425284426122246
 19.0918266321443646 -0.1089807799080145  9.3945240419119695
  6.5613230532210469  7.2733190362374067  9.3436446611024699
 10.5961650394558102 -1.1033198705032947 15.3250930320047694
 23.1895553407740991  6.1201708345928321 15.3675584672786165
  2.3496371259569342  0.8939383080102368  3.4243887285634287
 14.9841378234144553  7.5050960014175168  3.1972798481024185
 21.9807219043742030  1.5847595455653449  9.3910564698756698
  9.3513112625022945  8.9210256591700894  9.3080594759175259
 12.7831889660999884  2.2735490791004160 15.2708017702607499
  0.0447444303250667  9.5498860529504501 15.4411562552151871
  5.3496149141044036  1.7401521708040624  3.1178067620496361
 18.2161430362485888  8.8432103877443851  3.1495274926709462
 23.2034229710042084 -0.0071011686105263  6.9757825270252400
 10.6597242945924275  7.3072184073557240  6.9700156398456681
 14.7120108815776938  0.1620613256107348 12.9910587805981041
  2.0706117773275228  7.4449439952176126 13.0407415571570127
  7.3914423548896400 -0.8600822853076496  0.3767900248593399
 19.1514453034801058  5.9594744281929373  1.7820838625924302
 22.0333531219998164 12.9175738078247200  9.3580478982832016
  9.3627618545281113  5.6488666852146157  9.2953927288596105
 14.5096081461932336 13.4365770564570646 15.4655312258396016
  2.0230376039668814  6.0922472359230158 15.5207273718833161
  4.9063458611823716 13.1319539923601916  3.0830932345369422
 16.9822801979758182  5.1164145968303911  3.5550827601514050
 19.8564939063575565  1.9728603703244905  7.1885195927019510
  7.2514064352552925  9.2592176827959491  6.9367828196619072
 11.4350385030155461  1.6565009409606890 12.8958921846180203
 24.0366969867272999  8.9513885335457566 13.0072988704255277
  2.0181579679947013  1.9218881902052982  0.5465599660079287
 15.7207485038176742  9.2156138419237230  0.8308621548071404
  9.3532014784701420  5.5466377221526741 30.3304270058477101
 21.7492103238634158 12.7507804364955959 30.1797231284806813
  1.0086973359395979  5.2909417647373527 24.4297508756554471
 13.5851245741447642 12.7203575108446429 24.3516061430263555
 18.3193259179455694  5.5126060264424597 35.9534695342313739
  5.1126774686562699 12.4596325345876018 36.2766416419127111
  8.6079113462392964  3.7201422439859515 27.9517194663470399
 21.0306016522553136 10.8343412387143641 27.9086761910737700
  0.2742161732743646  2.3799503658664385 21.8646111099476812
 12.8598810676682902  9.8205232528682149 22.0219774274278208
 16.5212660691208626  3.2937977525773143 34.0404791171173429
  3.8405458495349070 10.4830620471243599 34.0183887046381699
 11.4372747898183071  1.9723019223364613 27.9205806027886823
 23.8863390311580375  9.1730503100946397 27.8265212375360420
  3.7698737072310222  2.4065069155755348 21.9263285684000557
 16.6479207188612861  9.9222325258465069 21.9403232231384528
 19.6964375185881941  1.6382036518909193 33.8743859161419181
  7.5170417283901454  9.2626180868282475 33.9181799306468648
 12.7870516292735648  3.6290195848754370 30.0948794972823528
 25.3115121014326760 10.9268272051994764 29.9104318972551511
  4.2392327657731261  3.8561375745886677 24.2271649981101405
 16.6778408593553138 11.0672380639455543 24.5607619201982672
 20.6968942515037213  4.3278118303564588 35.9786255107396258
  8.2043744374837750 11.9270192227597516 35.6552939920115506
 11.4056586737755605  5.3180903951033756 27.9481115326626330
 23.8665357049777960 12.5092627802742840 27.7906854724494146
  1.9205207916669944  5.7982768480459148 21.8313913600383174
 14.3420117923421255 12.8761337466006740 21.6951050983491029
 20.0054080772705589  5.1902283510990221 33.5845103116690780
  6.5129658532965546 12.8704909067037949 33.7549552365803862
  9.3881010039134924  1.6628760848673545 30.2504971839168810
 21.7456723026476162  9.0393377747319992 30.2079216326327078
  1.3136356707330403  2.0008948513467906 24.5720538853218393
 13.8864465741683585  9.1174441325463889 24.4711632648808752
 18.4123809516504409  1.7373661958026265 36.1849317666406023
  6.1311349266264044  8.8932615300028424 36.1468434391500537
  7.3166758690458105  8.8904127098675172 24.3807736889553013
 20.0618043061225144  1.4803380208668815 24.7052948920109401
 24.7111147774880173  9.1584944827462991 35.7503541830222957
 11.7385079499540197  2.2326118695493169 35.9385456328049386
 15.7754743691196495  9.2659463616086324 30.2719498670114575
  3.1477455098787139  1.9686107703751494 30.0964121753919436
  6.5400084437196870  6.1452837739726958 21.8463642942294491
 19.0870930430649324 13.8448282742022464 21.9606210427158182
 23.0133672850338407  7.2076336443695013 33.4389355705321094
 10.1902048767064777 -0.5351139702861164 34.1868539232144428
 14.8908212153417221  7.5348009441872810 27.9641159812056870
  2.2797639199990982 14.3009134823780162 27.8078593922990649
 10.3858592780159693  6.1965969461502564 21.8734437565651305
 22.8445313259100793 13.4777013455994403 21.8307915273118383
  0.9666769724428518  5.0403997060276877 33.9259863833320310
 14.1408511717236802 13.1636097150623410 33.9545798424802783
 17.7255274072721640  5.6055464996498579 27.9466890705404154
  5.2906921378788203 12.9828914348785478 27.8297223777540772
 10.4837563952552983  7.4182644870303953 24.3342284539776337
 23.1844282201937766 14.6832117631897106 24.2217270125986808
  1.9749773320140043  7.6270813689646815 35.7764759639641383
 14.2191478601059558  1.1256254111539226 36.0917451282201327
 18.8409016275271242  7.3793781917111758 30.4666224856642884
  6.4620425505613319 14.6620075866994384 30.0599542125286199
  8.4188797313526713  9.4943243999106475 21.9028663924753069
 20.8020856020994174  2.2545938739540432 21.9551538243213571
  0.8090433845719329  8.9905336005537428 33.4303314826570315
 13.1423210537356905  1.9245593610248348 33.6839760355036688
 18.2644766088215640  8.6074390529803768 28.0150827048675417
  4.7018710381630102  1.9940248946298180 27.8308195937618379
  7.5299150196269000  5.2903557658632598 24.2025394852247082
 20.0984085342077066 12.6026278686100923 24.2322256845706647
 23.4393106145568950  5.9178632098865105 35.6629409075391521
 12.3432812677682282 12.3924775878314755 35.8433233230659312
 15.6410119647958794  5.2575563373969239 30.1243238905818309
  3.1107994765201235 12.5829751894606403 30.0596565921976584
  9.3977234836938806 12.8747914698082671 30.2473441133885714
 21.5714331719898134  5.4540427553901072 29.6754299497755518
  0.9275687242440815 12.6184629300787670 24.3504819697191763
 13.6120795960850600  5.4104525347929657 24.3963374246205369
 17.9856002041821448 13.2272066842480012 36.1180565468071677
  4.6590093217803945  4.9650757526604519 36.4446331108900807
  8.5826898684223760 10.9727660834570244 27.9621468944388489
  0.3161945309773151  9.6285178054783209 21.8035194587872851
 12.8560962841385802  2.5988918812285409 21.9868004688954493
 16.6015809628524913 10.5461438261575626 34.3641670723314334
  3.8556709100929316  3.0016974963914551 34.0203951214957527
 11.4742155508736783  9.2886604841366953 27.9438983604126747
 23.9091691768274899  2.0421506688577677 27.7384979719184663
  3.6918374708555026  9.6176504503327305 21.9453920855063380
 16.6040139368853943  2.7018114613334783 21.8429782913616357
 20.2777277064654697  8.6985203213712747 34.5406354226673145
  6.9346095811733610  1.4650287663529875 33.9875870629182799
 12.7618262156065558 10.8803291068287713 30.2563597118549055
 24.6858367191526220  3.6606317685342868 30.5055580410916214
  4.1191745620726952 11.0993195161270481 24.3296597814885764
 16.8557609125680763  3.8260791624427863 24.3183176715521547
 21.5094241515779352 11.2983870332891776 37.2364479819428453
  8.1612139718336074  3.3557687347436067 35.8745613347964323
 11.4257101389028790 12.5066953388090845 27.9375390293383923
 23.8548616381808003  5.1609645375652038 27.6663809256879745
  1.9617802715427934 13.0492281106387491 21.8229478012012486
 14.3349118032320195  5.6705941577912231 21.6868545974672671
 20.1046868664863716 12.4703697453788500 34.3781827395878921
  6.6364363600031995  5.7486206591227242 34.2641618925509235
  9.3775894158513839  8.8893872531261309 30.2296614284812257
 21.5496884002379403  1.7981738759496939 29.7151365495300617
  1.2303261886751968  9.2003388052738178 24.5153771034504615
 13.9207438731793225  1.9149867403665983 24.5068105861807624
 18.0888843907519110  8.4213114211751510 37.2018416820983404
  5.2359764628436185  1.3870790556034911 36.4977479569509171
  3.1426634583356599  9.2803865075920431 29.9515303238913084
 15.6562865945994538  1.9370368901327353 30.1079422550622517
 19.6785394121658470  9.0286559919866889 24.1588061496817339
  7.3821385537172484  1.4931203257021575 24.5379211431181830
 11.6741185806719319  9.1516764458716082 36.1552232419313526
 24.9675139436329161  1.8252965387322977 35.9378180291419866
  2.3270439763686537  7.3183856838495673 27.7994610482117572
 14.8794071340755654 14.3140205438710630 27.9404701301181042
 19.0520343998024799  6.1280364909109384 21.9300913631781107
  6.5469535836902804 13.4020766555735467 21.8522458907048680
 10.2253458507944028  6.7333129752645569 34.2937928861470738
 23.0730111299145193  0.0304731083398997 33.5699509463273174
  4.7324287920498618  5.2975438213804473 27.8648284640087525
 18.2781788658246427 13.1501105388493773 27.9894746406521477
 22.9204530910064825  6.1532632559587199 21.8805014876121753
 10.3946969634697837 13.4472637485008502 21.8667302555266438
 13.3366603759570985  5.2869049076529997 33.8259342631629210
  0.9189630435185335 12.4740132254787355 33.5951777868069001
  6.4561190759998199  7.1266192554164807 30.1634328151173214
 18.8788548656435289 -0.0909328168207789 30.4171055795935423
 22.9656563727658067  7.4717021824442558 24.2796484191823012
 10.5304331206599411 14.6765412247060283 24.3050873649046082
 14.6431941139297663  7.0847413727519548 35.9968254719273233
  1.9645471970450841  0.1781219275883137 35.7142580720187155
  5.3523559217692211  8.7396538040072311 27.7937531170348180
 17.5956472743755832  1.6222357631085775 27.8951057659973465
 20.9508725295151024  9.5002824174214755 21.8366030488872980
  8.3748347112831709  2.2330528191548371 21.9505002466226955
 13.4401010953800135  9.2872911657414186 33.9317680087520870
  0.9523967755428211  1.5943787340048896 33.4549528025808058
  3.1490575022240761  5.2993566564159575 30.1575112686006008
 15.7659297822681950 12.4765456815460567 30.2319202062182910
 20.1648177886089854  5.5519853987437822 24.4460006457129140
  7.5653136157150449 12.5317730390318456 24.1797793990174235
 12.3279326470624948  5.2858762725410990 36.2953046034134985
 24.3657553261583679 12.5745218029479311 35.7613523000624269
  0.1749735888869115 -0.1866240384542590  0.3269146303150896
 13.1444966273595476  7.8402646821503499  0.6177738057127126
 16.8359711544091155 -0.0356869183966461  6.3854182292117674
  4.1944773203993799  7.2731994280160084  6.4093878681480563
  8.3929808971477051  0.0313943055722249 12.4421418569800846
 20.9989004064643616  7.2589019931159502 12.5243268986716778
 23.0855900486949182 10.9059248194951781  6.2650128977335013
 10.5239422838357832  3.6476035516992344  6.3603300819250608
 14.6998164704836380 10.9006445795490201 12.4556029220669515
  2.0600392243944876  3.6304266233513927 12.4777222735206141
  6.8416509584741467 11.0715846627104568  0.5807736103646235
 18.8484226034633160  3.7379130621409340  0.5039139757263961
  4.1586782301295768  0.0502875156057742  6.3223864684413922
 16.8472020210784805  7.2907607895206192  6.3389656637236440
 21.0175628125114251 -0.0177007800305953 12.5025887191112410
  8.3851606162652228  7.2937105701586153 12.4505027792664560
 12.3677166974955011  0.3248349161673440  0.5889096836622756
 -0.0227276533122951  7.1763006267476870  0.2612607900499923
 23.0810521897990029  3.6129433648476446  6.4276441315612889
 10.4600213779783893 10.9217705390585476  6.2891100293502378
 14.7344703710622991  3.6465487054190335 12.4617721600446263
  2.0641946137144256 10.9135738240782594 12.4447319248589068
  6.7240356895515001  4.1283279455396018  0.5880631877523677
 17.8046398594351700 10.8997016407481961  0.1632684623065493
  8.4204762997562224  7.2241157803038734 18.5962387684570061
 20.7827642624798337 -0.2754659511336743 18.6146855427326017
 25.1181927376255985  7.1496670662683099 30.5150834108325348
 12.5711067654915443 14.4964501002078432 30.8770008269286933
 16.8338489056776233  7.3274145922837981 24.8173765473262904
  4.2252842400238029 14.5461962813128167 24.6846973810668224
  6.2218724115956601 10.8793300439848437 30.8499004846251310
 18.7395040629746710  3.5754240769457670 30.7863322903489625
 23.0399560908116925 10.8824547969623708 24.6999595760441082
 10.5231611265856522  3.6315605175381216 24.7910358153910764
 14.4414263115493711 10.8178305101219685 18.6550143030594491
  2.3336186195508168  3.5939551468505320 18.6049565486947905
 12.5587865894224517  7.2454628361421953 30.9412370543856063
 25.0628071617949892 14.5556588871485388 30.5493859052102970
  4.2260165511681862  7.2558841537980010 24.6996399600043439
 16.8549757456383702  0.0350508464663449 24.7702122737405332
 20.9899732864927202  7.2421514123899380 18.5955469476095487
  8.4167720408791080 -0.0441746167112637 18.5997482855373342
  6.2760791768256690  3.6266043273714748 31.0297067033191389
 18.8992560248428951 10.8601215657749020 31.2415732818595799
 23.0524674657433906  3.6457127308194242 24.5902390441794125
 10.5302753470624673 10.8913572406047034 24.8064823246311974
 14.4779553148893960  3.5761874053809994 18.6124563624460357
  2.3833905810225788 10.8717793091196153 18.5966565398808577
  4.2299922884853904  0.0361188719440280  8.4093282724500806
 16.8071417672942864  7.3518973704331962  8.4256334144456648
 21.0231752131786145 -0.0210990033032966 14.5453764058457935
  8.3842990481835376  7.2741778750967399 14.5053512216244602
 12.8760299234296980  0.1101607285026100  2.6938839840125399
  0.2021361858953681  7.3682088937900527  2.5757249052016689
 21.8845696018611129  1.7247699901040818 11.7929178163603527
  9.2397602062652329  9.0395758593977007 11.7412484918055906
 13.5598905780497567  2.0522152248756358 17.4737767529715242
  0.9753775543923959  9.3726286174919267 17.7182484696121207
  5.0924133028483123  1.7379627309040004  5.5885464853042235
 17.8062830724641543  8.9650910288888994  5.6114932858109325
 22.0760920552826541  5.6304768245088086 11.8330750841173877
  9.4737183432685779 12.9602109972093000 11.7158230448973875
 13.9185612827792404  5.5343003230579626 17.7156725060074614
  1.4255477381375907 12.8237539858657090 17.8611174445515495
  5.1177164440944143  5.6010172084689831  5.6492331293572482
 17.8148611727937514 12.8493033997694486  5.6362241297282543
  6.4472791922510115 -0.0858864323342122 11.7385874245486885
 19.0563336982311817  7.1294251781129585 11.8187542928005858
 22.9663777763143209 -0.3898372705803744 17.8909394003852036
 10.4277007538170192  6.8750750327311518 17.7664245293416734
 14.9252303237496733 -0.0006908277414676  5.6443807173748928
  2.1978209020240631  7.2501965848838328  5.9178531383101562
  2.0835230247508614  3.6354236458112861  8.0296405601078717
 14.6583255024635513 10.8963136628490584  7.9323055342307862
 18.9049147086576710  3.6019748103562375 14.3082939946823924
  6.3002061383742500 10.9314533516238033 14.2006357877928551
 10.6763197187712926  3.7155253203295815  1.8649477937195227
 23.3186056367383294 10.9480152648313638  1.6977054236018314
 23.0970347039945594  3.5857622769867077  8.5149211513852858
 10.4329828546761814 10.9151035506032628  8.3829205357436329
 14.7416606996970554  3.6697773211172846 14.5043530095586704
  2.0675322361287116 10.9180936000454540 14.4902808134384831
  6.6740999865475077  3.7407977748999404  2.7225119711920689
 19.1298259707149043 10.8954447552490201  1.9326428278379817
  2.9350253357105056 12.6569234649011566 11.7389996519722413
 15.6029599114603190  5.3889406630621828 11.7408351431559037
 20.0389055807451051 12.7070904075849072 17.3729075266572366
  7.1227260141337538  5.6452526373789143 17.7574510210925247
 11.4527299059840519 12.6084791155664178  5.6581313020299637
 24.0305412556651916  5.3286442738310944  5.8055905361347380
  3.1468381534511058  2.0047501761596935 11.7852748367339153
 15.7551063014622077  9.2574407072237666 11.7565211888762846
 20.1927197105918452  1.6964489619888490 17.7279219180820213
  7.7120897146831471  9.1298458504649780 17.7438172375013359
 11.4829727484263557  1.9782993791564063  5.6527930701578795
 24.0730833796250359  9.2140043073946405  5.6350167931409345
  0.1113297698112251  3.4907609426758976 11.7870115672138400
 12.7508320658108207 10.7720261399558161 11.7526903350462479
 16.6335064670646062  3.3517955379724520 17.7893491932211241
  4.1157317652907697 10.9771231765803119 17.3700161407089446
  8.5809042510450535  3.6542454764588674  5.6975222601254627
 21.1518125442235174 10.8895652128714318  5.5523280800576922
  0.0134726687712058 -0.0206745178962009 14.3324815857286545
 12.5710244559053095  7.2526734311629220 14.1896690741861740
 17.2968298865925405  0.0678325714235919  1.8719843773184683
  3.9671755081893836  7.2776135374252773  1.9196784924226595
  8.3882218936736681  0.0310896765737467  7.9233576184690033
 20.9843765336767945  7.2695597427688190  8.0368182940701871
 25.4170548463233530 -0.0813507327017556  2.6211417487385025
 12.6419695218734240  7.5166790894141036  2.6716394093695639
 16.8028458301962331 -0.0909674008102910  8.4728861551135779
  4.2917398171854853  7.2852873413170229  8.4908265443234221
  8.3811115260370936  0.0056395796930652 14.4973118827190088
 20.9962531585001955  7.2892612841724214 14.5748601981721908
 21.8770339578584938  8.9951884190033358 11.8052153940997187
  9.2573988828074896  1.7785779945963027 11.7436764773808129
 13.4980819449880798  9.2755969240845726 17.5659818121480704
  0.9232091642084659  2.1044997145804052 17.7227188810307901
  5.0942223689637727  8.9425133160889860  5.6152922651179962
 17.8138961130991120  1.6746660630017487  5.7933699343025946
 22.0858032854035926 12.8910398613149173 11.7916751587935984
  9.4578081737489192  5.6782424203546569 11.7220444141452180
 13.8435123409221994 12.7678553185487988 17.7386349329812951
  1.3842462995342384  5.5610268579810418 17.8557695149960658
  5.1012649929446470 12.9363500917392482  5.5553973967453594
 17.8407185804719788  5.6022884224521690  5.7368672016691935
  2.1998415270764395  0.0561619433659963  5.7050146617028021
 14.9226621563976742  7.2288941735315975  5.6086411830426552
 19.0652277717236878 -0.1438767595093082 11.8132410091619473
  6.4392782813105107  7.1725888565010614 11.7517407675037315
 10.4237937507399785 -0.3854531194964956 17.7680676919312681
 22.9999910538568670  6.8928583798127860 17.7461197016293113
  2.0839072751718213 10.9259494029386879  7.9823056012558284
 14.7274329659453613  3.6415451040689639  7.9859505321563118
 18.8666127961894041 10.8660964704206418 14.2359381382645385
  6.3030838410104124  3.6584520817671771 14.2141189601960196
 10.5957225546159410 11.0703591818827469  1.8291723054165281
 23.0926378039668698  3.8574377516094107  2.1022696422555507
 23.0468816957528304 10.9034552773589404  8.3508064972220915
 10.5541020733833868  3.6644099366350367  8.4479603118764821
 14.7223583771414948 10.9335688758765670 14.5016097931851942
  2.0653373954739371  3.6366209037796478 14.5203735997942562
  6.2006207253154368 11.1306896819087520  2.6185923163012359
 18.8032962192525090  3.7258697466125081  2.7886932533134883
 24.0650510341952533 12.5678144685847109  5.5598258569782546
 11.4644240305488871  5.3356224267415877  5.6328234019579364
 15.5721086023655726 12.6333126374046554 11.7301442270680543
  2.9151496184032859  5.3784724436455855 11.7655234015733399
  7.1226065251223600 12.9192716143581308 17.7519602817386613
 19.6670627009497885  5.6745786937727436 17.7767082680519160
 24.0619875932362461  1.9690679725680484  5.6800455411875017
 11.4241178282463736  9.2524651655055088  5.5852478147339841
 15.8065522622051482  2.0198670730761754 11.7609796810697489
  3.1490576818194080  9.2833554171863319 11.7582019068612862
  7.7125607805264789  1.8646692492977150 17.7512961064056434
 20.2869862417294904  9.1454950046312664 17.7403997149340036
  0.1179718255082250 10.7851763174229394 11.7472378515068723
 12.7823681899359638  3.5160939203601043 11.7669587950590468
 16.5568750573941479 10.5792926340724200 17.8095835715431399
  4.0703426423132809  3.6929386881010404 17.3814753919654201
  8.5404264695187475 10.9380288746797181  5.5464363864528163
 21.1310849990922414  3.6091274905950432  5.7907290275392995
 20.9849743926690273 -0.0256750119766397  8.0167549603039987
  8.4017194091177352  7.2906547715154586  7.9208091736364485
 12.5941010768151500 -0.0032082560620669 14.1961470900778242
 25.1939647826577016  7.2694190216771553 14.3111467179760794
  4.0452990395647834  0.4086422955308354  1.6468779229116137
 17.0263835816698332  7.2054591330432229  1.8970564239978558
 12.5421526273125217  7.2813673463177224 28.8516402091648487
 25.0711899957161464 14.5165811117286214 28.4792800214366082
  4.2092702671001474  7.2108941161153659 22.6503920376066112
 16.7988333720978389 14.5894502798238737 22.7331537326141522
 21.1792499616202221  6.6234010159276746 35.0873383740406055
  7.9314434292034663 -0.2886590494755114 35.2575006145134182
  5.2987044828434247  5.6687300912509473 25.4660370737323696
 17.9235209055515057 12.9469887430668376 25.4991648151747974
 22.3703762872475558  5.7654588837610135 19.4358877582298994
  9.7967730544520464 13.0153689679066531 19.4525216123067182
 13.5639087385059387  5.5306807947746117 31.4983687240818213
  0.8835699958657467 12.8893783068057033 31.2237018551392538
  5.0968354356211742  1.7522340071818288 25.3778493420542297
 17.7052453842130895  9.0338190600763912 25.6101201033315711
 21.3673291697119332  1.7206031322644706 19.4878575062564714
  9.0069835465715258  9.1600113181214411 19.4321526775155569
 13.5721564130444872  1.6803446270529550 31.4191622675264739
  0.9131414777925523  8.8704780734019693 31.1013602912103160
 14.8915218259948485  7.2057106602013539 25.5511093464665393
  2.2780661703944118 14.4559558892718645 25.4019431418002277
  6.4368061946351451  6.7792459264043927 19.4175768307742835
 18.9691197969704355 13.9715291235823216 19.6212395446493701
 23.1407834683206950  7.1374001271937964 31.0838537569778453
 10.6479745401483861 -0.0166764665408789 31.6112842899673403
 10.4999499829279799  3.6290806067671593 29.2966173505759713
 22.9912230657706509 10.8712423664930551 29.1932166940528539
  2.0974307245662103  3.6622108495800592 23.1176549035513830
 14.7273655181443122 10.9339670223603846 23.1941833420249779
 18.7595219408861595  3.5918653246992838 34.7295099903835762
  6.0359354084325636 10.8358396190174524 34.8887143594566567
  6.3716783592138047  3.6721195586186908 28.9582111495015084