Li P  S  Cl
 1.0000000000000000
    20.5609999999999999    0.0000000000000000    0.0000000000000013
     0.0000000000000033   20.5609999999999999    0.0000000000000013
     0.0000000000000000    0.0000000000000000   20.5609999999999999
 Li  P   S   Cl 
 190  32 160  32
Selective dynamics
Cartesian
  2.4061685536747484  4.6903094965232457  1.5196377089827999   T   T   T
  2.3333395547853355 10.3056995001796867  7.6280159702553370   T   T   T
 10.0912281130439485  8.6144618070989960  2.5903815272441784   T   T   T
  7.1764023809283790  5.3173365240189394  9.5457891338514997   T   T   T
  4.7505268393272146  9.2550678751658282  7.3237904007158674   T   T   T
  3.0935941788900769  2.5097017277966849  4.4811675035288969   T   T   T
  6.5074941617138640  3.2656167850880520  5.9892353146327588   T   T   T
  8.2307200041084254  7.9726371080841512  0.1331738419149640   T   T   T
  6.0978668851533842  0.3509025122434618  7.5881382941341800   T   T   T
  7.6055213827685790  5.2930245833487861  2.3097428782772478   T   T   T
  4.4379257307569810  2.4593152175693387  1.3271092037517609   T   T   T
  1.6501582743421408  8.6599121236463770  9.9334668559644168   T   T   T
  5.4455634987157273  7.2772484064890035  1.5603220192201170   T   T   T
  8.1433061855422384  2.0598937879516428 10.0322797775150416   T   T   T
  1.5002108731126040  4.3428347822214741  4.4328785339390491   T   T   T
  2.7662214217692394  7.6350139826117092  5.3316065299089628   T   T   T
  5.2314952469182048  3.5924883299135777  8.3579895873195280   T   T   T
  9.0664203798435281  6.3409874362641272  4.8939681783318276   T   T   T
  3.0607458459871721  6.2901555095189865  9.5549809196675035   T   T   T
  0.1114112162968823  2.6521855255942266  1.9253003281331751   T   T   T
 -5.1455164829846236 -8.0022594268224552 -2.4385743936082220   T   T   T
 -0.0183651530519671  7.5977331740255938  2.7543379135235635   T   T   T
  9.3224267562106284  3.5823709396661338  7.1562708066135396   T   T   T
  7.2173800015145115  9.5015408084343385  2.9985831710719055   T   T   T
  2.8382683443931578  2.6696468296720344 15.1408167135383529   T   T   T
  4.6839354863692133  8.4155947332910959 17.5927774168220594   T   T   T
  8.9088071824415689  8.1205670632377949 10.3775567050515036   T   T   T
  8.3295228185401538  1.2577434813862609 20.6073485627502109   T   T   T
  1.1566617347971828  5.0270803291486938 17.0975576077962828   T   T   T
  4.8686590154895573  3.2590888228325872 12.0701279884221400   T   T   T
  5.3435796196267917  2.7730255369570576 17.6342357064636133   T   T   T
  7.7127597412364262  5.6461612829069745 12.8171996914378159   T   T   T
  7.5064595958867564  0.4790867828186319 18.0166489045753337   T   T   T
 10.1847982726128752  7.2413894964054517 13.5466635591267046   T   T   T
  2.2669661158855434  0.5378188641327083 12.4617915985145160   T   T   T
  2.6746684291926570 12.8584614267168575 20.6095083512247186   T   T   T
  7.6433709842855828 10.0429921282406305 13.6941633781349701   T   T   T
  7.1867947916555490  5.0443348413910876 19.3562124094677941   T   T   T
  2.5848305636348829  2.8919029238449117 10.4655900211673618   T   T   T
  3.4815653555649453  5.5163238186226344 18.8873176747145024   T   T   T
  7.3845015527636990  1.9889755175008184 15.8257513464248483   T   T   T
  6.6034143856368690  7.6152182045368475 14.7718385410024222   T   T   T
  0.5529559577458624  8.5323105580460652 17.8274255333311231   T   T   T
  0.6352694633703608  4.0494761544670288 12.7214720523794860   T   T   T
  1.9915883735888649  8.9143324764830556 20.3768232725361003   T   T   T
  2.4568729652058727  8.0457157866877331 15.8371732608086369   T   T   T
 10.0901363421862271  2.7335301884345977 17.7144831443715915   T   T   T
  5.3891592425968371  7.4672661259682158 11.8477327613310184   T   T   T
  2.2509759752448866 15.0289374111551197  2.6762528601222058   T   T   T
  2.8684632880133005 19.9935859041878246  6.3063411797821596   T   T   T
  6.9644716628538115 15.5485824322364241  2.7722929028129042   T   T   T
  5.6130913250397212 12.3599471962231462  5.7470116210191584   T   T   T
  4.9968529875436669 17.2631809743543769  8.3853333511437089   T   T   T
  3.2233537299330175 10.4011222630935105  3.6920524453319317   T   T   T
  7.5801437574635617 10.0942738160452947  6.8660950070207702   T   T   T
  8.8101780177530884 20.0546415336032808  2.5454639567194284   T   T   T
  5.6364280774193372 13.8972247339595363  8.0838783981094640   T   T   T
  6.3722551425416087 21.6012503423644162  3.8313343710474115   T   T   T
  0.5975349540571493 11.5481522069728371  2.0108819280508956   T   T   T
  2.0092668861801308 19.7619469995635910  9.6889517058296466   T   T   T
  7.7910184611764439 18.2660875890562693  0.4691067152699012   T   T   T
  7.2182607634774136 18.2562100392117799  5.2728051235523843   T   T   T
  1.4842170681413771 13.3228568245000307  4.9679047223989601   T   T   T
  1.8481587761862879 17.3403546495220979  5.4970488925994019   T   T   T
  9.3970637105215680 12.2613626958223438  5.9523134304544767   T   T   T
  9.6468432404415037 17.1290107251820771  3.2745618347555672   T   T   T
  0.3191010210439728 18.4911317634881414  8.0230070414005787   T   T   T
  5.1124989599627639 18.0851118427715178  2.8298298086204872   T   T   T
  4.8625174944925567 12.9157200560480891  2.6991517343950964   T   T   T
  2.6638357777185915 15.6601081310697996  8.3381196126655723   T   T   T
  0.2065374645454505  7.5888326492799179  7.5316436935692712   T   T   T
 12.9768369330930522 17.7349923752874687 -0.1050580695351286   T   T   T
  0.4541791230639387 13.2944056074626626 14.6260889227196103   T   T   T
  2.0326187344370465 21.0258063605008303 22.7739794569384557   T   T   T
  9.0107003038726550 20.4223329520271690 12.9262760438598061   T   T   T
  7.5769104137511203 10.3903140290398923 17.7935183863342203   T   T   T
  4.6910339118095195 16.4638744812202518 18.2211420961384007   T   T   T
  3.6835421625807188 13.3916852492541896 15.0410754587683471   T   T   T
  8.8799543265092638 14.5586718476552992 16.9298461808171936   T   T   T
  8.2515305366811873 18.6641527760152073 10.8268574661707859   T   T   T
  8.1400316174378204 12.5721511296813411 20.5980175999846509   T   T   T
  9.1491527406203428 14.7434033093552266  7.5336749938913945   T   T   T
  4.2140976134217931 12.3153821616751653 11.6178595316040543   T   T   T
  0.6642614811437039 16.9276715416035231 17.4305046554680203   T   T   T
  8.5813701226308403 15.9594509487542116 12.2503708590335592   T   T   T
  7.0679870450114697 12.8637217461264832 15.9180401650663992   T   T   T
  2.8881353930558329 10.6325639312658868 13.4752711784570778   T   T   T
  0.4003036812124348 12.6656850188293024 11.6477388707560028   T   T   T
  5.5859690749903885 13.0485726381838347 18.5205104461285757   T   T   T
  2.8714897998492681 17.4490912189709775 15.5995990819086501   T   T   T
  6.6018798979495186 18.8206823840325512 14.9050876091255606   T   T   T
  2.6494271771709541 15.1795781677885078 12.5625713471093832   T   T   T
  2.8814359155763851 17.3169716548729724 20.2166078063035570   T   T   T
  3.9880316342955635 20.2868182841831697 17.2940461976131914   T   T   T
  5.5081734256258867 17.4957619638930097 12.1117221157284227   T   T   T
 13.2880155971363028  5.1863749949311959  2.2217006415025611   T   T   T
 17.8117415601434281  4.9729059842055845  2.8707064156132436   T   T   T
 17.0946687407992961  9.6402762525125141  2.2565825315257388   T   T   T
 18.5746479234516357  1.7547167301637354 10.2250574754389856   T   T   T
 14.0907969108898623  8.6960605554458077  5.7027148189695831   T   T   T
 13.4055318059396740 -2.9820755213354335 10.8133316502855408   T   T   T
 17.7216048436822078  0.6318943328473459  5.4731332866086255   T   T   T
 15.8702615719329430  6.7163760633271830  2.5043265056487507   T   T   T
 15.2200329899071942  2.5525211318580272  1.8146389371885321   T   T   T
 12.2463055535899379  9.5803906585146006  8.6891900780601130   T   T   T
 10.4226167328246309  2.2253158564703273  2.5110940816546155   T   T   T
 13.6905463171315063  7.4954757778999292 10.1100939377598653   T   T   T
 17.8714142818725072  7.2473541226005880  0.1336225505751125   T   T   T
 18.5441839476935719  3.7081774203162805  5.4505975888978950   T   T   T
 13.0930012862716225  0.1339231603116867  3.0860454663786681   T   T   T
 13.2655497071330153  5.2112432177575920  8.0597922007995404   T   T   T
 20.4358466196271067  2.3276359702350899  8.0636801666548390   T   T   T
 11.5359562995897562  7.1352879603948436  5.8744959372165333   T   T   T
 12.2910425276335555  1.0883810054025957 -0.3337429357500834   T   T   T
 12.5700371449399935  3.2441352083472821  4.8073730511042641   T   T   T
 17.7907900951667983 12.6320995240232392  5.3475130511157873   T   T   T
 15.7167602179851382  2.0432262287322263  7.2308430613757846   T   T   T
 17.8679232920146838  7.5059662919645049  4.7221425329208282   T   T   T
 12.7395396635598264  4.3124453464884818 14.7636951280226558   T   T   T
 10.1836527116174640  7.1840772424554737 17.6675066444371609   T   T   T
 17.9041953722661091  4.5832872526172572  8.0492267403677751   T   T   T
 20.5164319648113818  2.0073581960699922 18.3527840431283238   T   T   T
 12.8959866675556380  8.1785293761511966 20.2515336042679763   T   T   T
 15.3186570078048749  3.1322668164587322 12.8112859195736313   T   T   T
 19.0396590031692376 -0.6891481258169364 18.8097479703840733   T   T   T
 17.9997773171705369  5.7979325071150134 12.1034725660607698   T   T   T
 21.9684656460789576 -0.7057808231987657 18.5479199133237955   T   T   T
 20.3583692215392382  7.3852251816294352 13.0632943390276886   T   T   T
 13.6695075846291960  0.3353192523711629 14.5355709379606122   T   T   T
 13.2705637529984646  5.1169394569789901 18.8638607481433098   T   T   T
 15.9659364236458039  7.7432184520443501 11.9750836611230724   T   T   T
 16.1300193904739793  2.2673274528548726 17.6810791941151066   T   T   T
 10.7406573628824997  3.2223439279635522 12.5923264271467001   T   T   T
 12.5112305814708940  7.2160539929725331 15.8837419336253465   T   T   T
 17.1940145678510028  4.2131664860460081 19.6246066116650013   T   T   T
 16.7914455771502489  8.6057252625058922 14.8458337726441520   T   T   T
 15.2923152725030835  7.1453319140739620 18.3958587431420213   T   T   T
 15.5294987731188634  7.6436907738388014  8.3414553355059180   T   T   T
 12.8243578905068958  1.6402770841541399 10.7065781410056911   T   T   T
 13.7032306445476397  9.9468516190952165 17.2910642637451417   T   T   T
 18.2530200720031210  2.3169901697946051 15.8593336988124811   T   T   T
 18.2651424654626808  8.2544316835289813 10.5250348621836753   T   T   T
 15.2951816403004841 14.1376625651681049  2.6437897660243852   T   T   T
 14.8077399379944463 18.1341873059836800  8.2377749659172927   T   T   T
 18.0346761037133732 20.1237679658987929  2.1936110437503205   T   T   T
 13.0129942241657961 13.1552233774908309 10.0637586393927254   T   T   T
  9.6175690786663424 17.2871041220234289 14.3983249223717511   T   T   T
 11.7825093897708104 14.7828635017592784  2.5883617507229455   T   T   T
 18.4394027570381951 11.3603584497934538  8.9932825540337493   T   T   T
 15.5458796195708473 17.4730343499272394  2.2372083723504788   T   T   T
 17.9478308812984153 14.5311051616030067  9.3857232044363830   T   T   T
 17.3580706018282349 18.7017758517512362  5.0279401634010465   T   T   T
 13.1675572441451223 12.5545842787483224  0.7282603096139276   T   T   T
 13.5464171463885474 18.9428798419819415  5.8019938152892241   T   T   T
 17.5785828954434038 17.4352712642678682  0.4537871082820253   T   T   T
 16.2446803145884502 11.8425450657709135  7.6627472122925244   T   T   T
 13.8672599026833367 10.7226396472002392  3.3004154909928327   T   T   T
 10.3033306126810515 18.8970952874235536  8.9032065790547499   T   T   T
 18.0189775154728302 14.8767006683370671  6.2665091917360298   T   T   T
 12.7514051678514342 20.4292855364555450  7.8543184694410080   T   T   T
 13.7002893110940160 25.2637860323739076 11.8066712728304104   T   T   T
 11.1325525354511381 11.3860056779831069  2.1496586439513146   T   T   T
 13.3541787502077121 12.5340326558687849  5.5907467023019768   T   T   T
 11.6372083584635089 16.1818030001780642  7.1382700392386091   T   T   T
 20.3585408789572888 13.6718781326879011  7.2307573818110775   T   T   T
 19.7360026945180920 16.8839923779079228  3.0303008411271932   T   T   T
  7.5915869698512859 12.5664538568849622  9.6919595764887028   T   T   T
 10.1802602851712027 11.8986801835595220 18.6795005969074737   T   T   T
 18.0541794965596836 18.1900769220798963 10.3980744134784633   T   T   T
 18.6243665291169549 14.9020244253770286 17.7943062611365903   T   T   T
 15.2513556929067509 17.0656262286502738 18.4134972357676219   T   T   T
 14.3082040599780242 14.4255746930827584 12.2699298410393709   T   T   T
 13.2487265654017232 20.1348192207313730 17.7801835056509177   T   T   T
 18.0207108026506155 17.5385528000410602 15.3454991569366328   T   T   T
 21.0068032557489524 12.4599413157192220 18.6927524691874751   T   T   T
 17.7220600709120824 20.4337508634499656 13.5571775057309889   T   T   T
 12.2230813841716355 13.4161695500728708 14.9900350919485668   T   T   T
 12.7060891534313356 17.3344725781003319 15.8225479962751798   T   T   T
 16.0247617725105691 18.2532431840952825 13.8482429341324984   T   T   T
 17.5591158839896195 14.0399777413386619 20.5145227794694023   T   T   T
 10.5740629590414468 12.2012780021255747 11.8353610983255582   T   T   T
 18.4463496367797184 25.2649483805739123 16.7176505418484069   T   T   T
 17.9671003048535773 11.5461268995167678 16.2593536412832620   T   T   T
 17.7917655316303360 15.6882629592539367 12.8262201926943931   T   T   T
 12.0712457215989684 15.5324613733500936 17.5308724460024550   T   T   T
 14.5558471486385095 11.9775525878617017 14.0347671538700798   T   T   T
 12.6228357518383003 10.4728432699148133 11.9138705068702233   T   T   T
 10.2178082190798349 18.0780691315252753 18.7280175753142331   T   T   T
 18.5613525019961969 11.0513393194772043 19.7505891166422245   T   T   T
 20.3160600864883243 17.9188948284570415 13.4639989482914313   T   T   T
  0.0858681790905803  0.2055879816728824  5.0901470384180598   T   T   T
  4.8963408853946939 -0.2721841276954515  0.0788855823293288   T   T   T
 -0.1057094194392110  5.3707086500025722 -0.3131129346178333   T   T   T
  4.9846237883188875  5.0600326302917642  5.0376992152545137   T   T   T
  0.2310109535408615 -0.0420442844535695 15.4376345566828235   T   T   T
  5.1945642473257951  0.0456863434416503 10.3483932554122848   T   T   T
 -0.2844015267505689  5.4185607145733572 10.2011492197218416   T   T   T
  5.4599024117354231  5.1519222880646751 15.5731874769535548   T   T   T
 -0.0974760263170309 10.4258232881982433  5.1803149618295503   T   T   T
  5.3176069754143676 10.0872347257741026  0.1343899086950821   T   T   T
 -0.1217730671989884 15.2395783418272845  0.1744868752928980   T   T   T
  4.7998706199463257 15.2482133694984778  5.0311915613846256   T   T   T
  0.0806079453831036 10.4678699896901577 15.1372230872693230   T   T   T
  5.2856079663272419 10.2537438842906568  9.9311297200649271   T   T   T
  0.0288554596332798 15.7227212303354591 10.2634272469870798   T   T   T
  5.6554953634547438 15.6965246200073381 15.0980937268554882   T   T   T
 10.1005593948348871 -0.0776306563047344  5.2880487928488433   T   T   T
 15.3755612370910661 -0.1215336128167158  0.0592872481812545   T   T   T
 10.3498372894370210  4.9246560891260387 -0.0067822008221318   T   T   T
 15.5177477342694718  4.9730590957632055  5.1106509180363879   T   T   T
 10.4764368700859620  0.0294324643026927 15.5575426760955580   T   T   T
 15.6519282845970320 -0.1262477458420007 10.6282726737654816   T   T   T
 10.3742621434966757  5.2300043986995961 10.0317852087903550   T   T   T
 15.5769951797688915  4.9795016224843112 15.2545487730848990   T   T   T
 10.5288385745049506  9.9822202936589584  5.1034594815875733   T   T   T
 15.3868095543820154  9.9754462609438228  0.3074797885158480   T   T   T
 10.1107690713066187 15.3458881454107861 -0.0868581596904743   T   T   T
 15.2073880975599316 15.5837284823935036  5.5296270908275043   T   T   T
 10.4632139110483706 10.2641697081788958 15.2460299911600003   T   T   T
 15.5922920777532692 10.3356899532215749 10.0942240767982518   T   T   T
 10.0673658680123310 15.2931543797506873 10.2194308986783096   T   T   T
 15.4305571504216292 15.2553664233111661 15.4541539290547174   T   T   T
  1.4323987949158119  1.3411242160359911  6.3164238240646711   T   T   T
  1.2410538576104115  8.9881514782493621  4.1204647715616796   T   T   T
  9.2631407322255175  8.6372419007696415  6.0235564726467565   T   T   T
  8.9515373917030470  1.2875111849785266  3.9552524860607190   T   T   T
  6.3029720021901703  0.6773214948343609  1.2949314949881685   T   T   T
  4.1247266903238620  1.3100389402548289  8.8645203826214090   T   T   T
  6.6041475113799883  8.9369829081059002  8.9559452275850155   T   T   T
  4.1188809331368246  9.1980577006209856  1.5597358737808196   T   T   T
  1.1197017196320014  6.5293638109171690  0.9920432714934374   T   T   T
  9.0430247781428914  3.7896648140510703  0.9842870549472678   T   T   T
  9.3884880701055611  6.5061594688133093  8.7500272467322997   T   T   T
  1.3466431154748382  4.3787099677640455  8.9831994632168097   T   T   T
  6.4595392861858691  6.0218297417416018  5.8835671897693764   T   T   T
  5.7633552994765678  3.6672627592428513  3.7583243516399150   T   T   T
  3.9068666685758422  3.9808940134657997  6.3959474781924044   T   T   T
  3.4844323555137886  6.2675440274537753  4.0072892286398014   T   T   T
  2.3721401594585987  2.6202832982817306  2.4675934232528292   T   T   T
  2.6275600910925401  8.0199891912315131  7.8614043884019864   T   T   T
  8.2043753433361690  7.3669278088197405  2.5790959700082152   T   T   T
  7.4526233689741366  2.7817752775276738  7.9672999758192677   T   T   T
  1.5106979437107255  1.1230044676309614 16.6457047855931961   T   T   T
  1.1936359476565421  9.1224923096339339 14.0854764621408428   T   T   T
  9.4643021300465691  8.9847654073905794 16.3350898243685378   T   T   T
  9.2465485108554457  1.4498358370243565 14.4755407057181849   T   T   T
  6.3653483727333739  1.0289410043717733 11.6928733943183687   T   T   T
  4.0148674932539112  1.0214403163924712 19.4761263096717911   T   T   T
  6.4059261012464424  8.6998635616151994 19.4463706843642399   T   T   T
  4.1128707665614934  9.0555394313628295 11.1431997530358160   T   T   T
  1.1106548455234226  6.3732546899682747 11.3599668687276267   T   T   T
  8.8309827400533472  4.3001404369196337 11.1747883684488620   T   T   T
  9.1360753996231079  6.1308829898940269 19.3805597319596004   T   T   T
  1.2660333807300224  4.1103293332069324 19.4775808343667833   T   T   T
  6.8935566623902540  6.1191650994556603 16.8063581194699552   T   T   T
  6.7670892091767740  4.1025419261687306 14.3871338462550700   T   T   T
  3.9675969705795588  4.2769422878136618 16.7573492601058973   T   T   T
  4.6035855753840620  6.6698633752253462 14.4733829310578663   T   T   T
  2.7732240156658094  2.9326287689498094 12.7668632199411238   T   T   T
  2.6936532497375989  7.5798670906791807 17.9897786850858452   T   T   T
  7.9629792437088849  7.8489091757142155 12.5021633329608495   T   T   T
  7.6249980751982074  2.8386730165114509 18.3526088522290607   T   T   T
  1.3654541482216200 11.5584234645941866  6.3279368072444973   T   T   T
  1.1936176978207329 19.2411070106209863  3.9164524671380927   T   T   T
  9.0606943607831667 19.2679932563275642  6.4922383830388410   T   T   T
  9.3068478724646511 11.0546393360803084  3.6223029478684925   T   T   T
  6.5437133551560578 11.3908130308948738  1.1251700173432784   T   T   T
  4.5343242819071330 11.4659599739324012  8.5409516992313996   T   T   T
  6.1925526219967022 19.0485851580932319  9.1548720520245084   T   T   T
  3.2404923976407840 19.4240355946641046  1.2588900776313410   T   T   T
  0.9674289325394296 16.7234676851074298  1.1885750371506407   T   T   T
  8.9814044016742738 14.2716678905978949  1.4131272285972007   T   T   T
  9.0536189072433366 16.8236773408272100  9.1450091249347665   T   T   T
  1.0438755473743817 14.2003478625776545  9.2933085784418310   T   T   T
  5.6209066318492429 16.6342312260323766  6.2119698293836363   T   T   T
  6.3205740945984390 14.1667047302625502  4.2233909856144045   T   T   T
  3.7075181292894563 13.9391762630479992  6.1897604833259585   T   T   T
  3.6209006315785537 16.4256350026895248  3.6605486641610097   T   T   T
  2.5203511537248655 12.6408432101055137  2.4297287888117989   T   T   T
  2.5014317577370973 18.0150149888160058  7.8829613880748344   T   T   T
  7.4308232490702446 18.1392632520531194  2.9569932221791411   T   T   T
  7.6348256620562065 12.7688013525546982  7.4688286978583243   T   T   T
  1.2990748983160896 11.5412313568129115 16.3404131194214770   T   T   T
  1.6809918308854581 19.4953006514068434 14.3462641640901865   T   T   T
  8.9857973605492809 19.6983014362920628 17.0311128162098271   T   T   T
  9.1338272752609768 11.5588409624291160 14.4081311646069796   T   T   T
  6.4192495786210939 11.4242835287815367 11.3755213349786892   T   T   T
  4.2752088458068815 11.2447230514805021 19.2801215830681301   T   T   T
  6.0002202354951715 18.9965127305691652 19.3185815479139364   T   T   T
  3.7108612662576359 19.5490248446447623 11.4327332323033239   T   T   T
  1.3830145626187627 16.9416839257096328 11.1391732296964090   T   T   T
  8.7414267925028621 14.0569734784017655 11.1274858305341908   T   T   T
  8.6433526337374875 16.0911401900982511 19.2195302800699181   T   T   T
  1.1944416584046951 14.5137211881397761 19.1856929099288038   T   T   T
  6.7773239645541130 16.8905242989383595 16.2457801048230124   T   T   T
  6.8009599115157036 14.5660749538164485 14.0316534624986371   T   T   T
  4.7699826423698752 14.4032956786746986 16.6797293475683261   T   T   T
  4.0366389731384391 16.3531699280935570 13.8500439886383955   T   T   T
  2.2532763463392582 13.0205914818262229 13.0241118995257636   T   T   T
  2.6619428988193103 17.9542235972818105 17.9762514811769165   T   T   T
  7.6924572566295693 18.1709816543710687 12.7956535897708381   T   T   T
  7.9847369830211852 12.5024703355174847 18.1319177891243086   T   T   T
 11.1765377557484271  1.3275120878023710  6.4240912281199263   T   T   T
 12.1192672575921634  8.7613906189120101  4.1265734205496045   T   T   T
 19.2290017614127926  9.1979908535793768  6.1432231682714011   T   T   T
 19.2872746663451196  1.2485347174180459  3.7328203992194817   T   T   T
 16.5397898257591116  0.9595138123191252  1.1661379321355976   T   T   T
 14.4231336513172632  1.2390486323992660  9.3129189297325716   T   T   T
 16.8782626069447339  9.2908181535651018  8.7607133355373499   T   T   T
 14.4702768950647229  8.3783948318953883  1.1804564789561272   T   T   T
 11.3964731750477331  6.3487762845782285  1.2214262054801719   T   T   T
 18.9967227963154848  4.3531921886167924  0.6804023959505840   T   T   T
 19.1453884478602880  6.6107265636971695  9.0577901085455252   T   T   T
 11.5360941581882255  3.7464759342794918  9.1168215787604634   T   T   T
 16.9807827232633386  5.8974699096191756  6.3292325082070571   T   T   T
 16.4638222175512325  3.4959339612256453  3.9029857795539016   T   T   T
 14.3907553332209890  3.8236704528353056  6.2681643761435746   T   T   T
 14.4586053793388203  6.2366326646397336  4.1117794944287986   T   T   T
 12.9532110073940547  2.3647386576930840  2.3658911651233288   T   T   T
 13.3486328006927621  7.5947333161714079  7.5607838724096617   T   T   T
 17.9445033857382619  7.6257766476903921  2.5586620892093284   T   T   T
 17.9956053967204532  2.3393205274618967  7.5021671825671863   T   T   T
 11.8390904246506476  1.1053224554181946 16.6092109746986196   T   T   T
 11.7254190257385709  9.3452011079269806 13.8614780253314240   T   T   T
 19.4201648110883553  9.3744632735278834 16.3824321252866625   T   T   T
 19.6522674248806659  1.1179069539085946 14.2519282186376994   T   T   T
 16.8107495611668156  1.0564349879159236 11.6758949920817017   T   T   T
 14.2905787212839037  1.2601877995391921 19.2758697324018797   T   T   T
 16.9039671051452309  9.0593454501859156 19.7135409706927973   T   T   T
 14.4401489785204991  9.1698006928248592 11.2414643459990859   T   T   T
 11.6179271112223770  5.9714824950499610 11.3728571530945874   T   T   T
 19.3003700754323262  4.1158441410419941 11.3612343067494397   T   T   T
 19.5137236092322581  6.5742455205032551 18.9650915791743131   T   T   T
 11.4724634468502344  3.4184558056971328 19.6024565193104650   T   T   T
 16.6315284458148760  6.3938166977943363 16.3430254268623827   T   T   T
 17.0160327998795893  3.8998762429663842 14.2113975899899518   T   T   T
 14.3882799331439788  3.9893672646793079 16.7533010252571941   T   T   T
 14.3766891914333463  5.9902776296230256 14.0766504293691774   T   T   T
 13.1085382900866882  2.7377883564787311 13.0784837184797098   T   T   T
 12.8001321702834812  7.2897846969907913 18.1166001934318004   T   T   T
 18.1966396004783952  8.0211819662958312 12.6985315669396002   T   T   T
 18.1904521303244344  2.7171283816792799 17.8786146577887308   T   T   T
 11.2293251814548096 11.0216709714004697  6.6635338192546891   T   T   T
 11.0970599731403929 19.1983682019861277  4.0493365153246526   T   T   T
 19.2504592804028327 19.4636419623763572  6.2482789742577323   T   T   T
 19.4639103060422300 11.3858343526283647  3.6168817091164094   T   T   T
 15.8778994108800227 11.4567631458161419  1.5934776547362324   T   T   T
 14.3859115400048054 11.3990151681386624  8.8602037905402593   T   T   T
 16.8267018878090298 19.4766352860945986  9.3295700960136489   T   T   T
 14.1605016949973823 19.4503531722494358  1.3617787750209527   T   T   T
 11.2040698101969021 16.5862323083014616  1.1569884038791389   T   T   T
 19.4971562017567912 13.9072368899450289  1.4043934742319273   T   T   T
 19.5189403333224156 16.8772832066196088  8.8239543864611143   T   T   T
 11.3095412649808562 14.5161786075708559  8.8192972631061544   T   T   T
 16.2702941790136215 17.0337848514701093  6.6082564563722244   T   T   T
 16.6877956993695165 14.5281280494623974  4.3554021846605186   T   T   T
 14.2649581142149735 14.3852417576733984  6.9762051459429868   T   T   T
 14.0407291279975777 16.3109424806687571  4.0474220768362912   T   T   T
 13.0318050677357320 12.7089444304454471  3.1127931309981793   T   T   T
 12.6179101293076066 18.0925490429263078  7.8018124991142432   T   T   T
 17.6338259620140860 17.8334906842394290  2.7900885794147103   T   T   T
 18.0700535096230688 13.0885441313441309  7.4185014307935884   T   T   T
 11.5658078798825787 11.7144487210124471 16.4002234064661323   T   T   T
 11.4551533138349235 19.2263921056371743 14.5408503093294819   T   T   T
 19.5252128453419722 19.4001305632604044 16.5939342399141765   T   T   T
 19.4610536943168704 11.6434536621553555 13.8597807164393281   T   T   T
 16.4976117719097992 11.6723568478053021 11.3057380270150318   T   T   T
 13.8856970209522732 10.6533709843926392 19.5066988234356700   T   T   T
 16.2725097003007306 19.1843283108458991 19.3572088090315049   T   T   T
 14.2742992302166716 19.4638606375685228 11.9297722908513713   T   T   T
 10.9015331802277906 16.5915976473201141 11.6909604722489036   T   T   T
 19.4917665139041638 14.5936782194618733 11.6123428799781472   T   T   T
 18.9964429486067559 16.2320708752658405 19.7212273781470415   T   T   T
 11.3939563916297626 14.0980188576058438 19.5204965414796376   T   T   T
 16.5858293907881595 16.2843177085283202 16.8628931822730266   T   T   T
 16.6866192922160792 13.8808313457344443 14.5208895940384988   T   T   T
 13.9066731130976926 14.0084866454208861 16.5906541938631733   T   T   T
 14.4178907945572909 16.6473641858956753 14.1381371266452049   T   T   T
 12.7622051379172081 12.9153362561289242 12.6014284400824135   T   T   T
 12.8975664531881300 17.7656156711968549 18.1369114733710006   T   T   T
 18.0025849573017176 18.0160672677279550 13.0106353859100601   T   T   T
 17.9338417994567578 12.7645109471597351 18.5163355058756878   T   T   T
 -0.0770156866754400  0.0520412282565184 -0.3031143435888514   T   T   T
  5.1640850674745433  5.4533158722877726  0.1041677117781583   T   T   T
  5.1226096952304543  0.4238515468193587  5.4620051587038816   T   T   T
 -0.6607463219429515  5.2747617709466867  4.3515053364797405   T   T   T
  0.1682457866508347  0.8074334615306744  9.7264610773005860   T   T   T
  5.0321042969536345  5.1871052459376221 10.7433073103206684   T   T   T
  5.5132752990275042  0.5847732041945521 15.7054644992746013   T   T   T
 -0.1674235283720812  5.5489390961253449 14.9469455930537887   T   T   T
  0.6244704693878449 10.7443388797288648 -0.1361715545044841   T   T   T
  4.2076281984886919 15.1101727623499347 -0.6024216933742256   T   T   T
  5.2066941394312281 10.0983915982285790  5.2637879777479375   T   T   T
  0.3521430589992243 15.5947784057697927  5.2250072788556157   T   T   T
  0.1663181341258969 10.3577095237328294 10.0834635485769351   T   T   T
  4.9647644039193430 15.0486540690151305  9.8363250318744111   T   T   T
  5.8604047459653330  9.8301797497689520 15.8850185273696614   T   T   T
 -0.5104099836450944 15.7800811711472377 15.4226079056546066   T   T   T
  9.7954368425340075 -0.8822992827618953  0.0929477796231191   T   T   T
 15.3995030348741935  5.2210269168487269  0.0150546901987933   T   T   T
 15.4483541777747639 -0.2575197612180652  5.7245956006914591   T   T   T
 11.0642149638590048  5.1597219711631368  5.3366314604020308   T   T   T
  9.7985806573644627 -0.1045049535715319 10.3064072949716721   T   T   T
 15.3443782036230072  5.8150317198147548 10.4752210857841632   T   T   T
 15.6390947363620967 -0.4912334399303576 15.2881452312358626   T   T   T
 10.8491923708362670  5.6582857882629201 15.3188134488768828   T   T   T