Li P  S  Cl
 1.0000000000000000
    25.1819793006824639    0.0000000000000000    0.0000000000000015
    -0.0000000000000009   14.5388225279766061    0.0000000000000009
     0.0000000000000000    0.0000000000000000   37.2126966544236950
 Li  P   S   Cl 
 288  48 240  48
Cartesian
  1.0300294085652775  1.6579593156602459  6.9879671013966060
 13.5491419776747897  9.0475087809189549  6.7667262550579856
 17.7621145657328512  2.1684876487993781 12.7259226583711342
  5.0930597163074607  9.2799510844669317 12.8239251920304014
  9.8081954614996611  1.5582277236761877  0.3309982460043080
 22.6632705893376851  8.7921380440124928  0.7405441225813912
  0.2959181254159602  3.8452056364873353  9.0207701138042768
 12.6028106363554873 10.9673379627651340  9.0440249744891936
 16.9291471958045499  4.4663956849063924 15.2777097534368789
  4.0934470261324707 12.1636018523937022 15.1389947428504534
  8.7889244745175237  4.2462139568318538  3.0866168865079389
 21.4269705336676921 11.6130170618166186  3.0342596097956442
  2.6408176184121666  5.3426973006188714  9.2123172677452612
 15.1046957477637456 12.8200757227147601  9.2901627221297165
 20.6829225757748993  4.9381531172609838 15.4377496222541257
  8.1915891286881095 12.5441509054638018 15.3943052445325659
 11.7223085770580742  5.1591334644411333  3.1776292100592252
 24.3392515367292965 12.5637065161859116  3.1827369742892118
  4.4950369016666025  3.6678860130443045  6.9854402632274120
 16.8667920855564120 10.5855226068986745  7.0497319428107836
 21.2134100183019108  3.2213919796455079 13.2262661695248447
  8.1019969022646343 10.5823009180563581 12.9746520404015317
 12.8200156442239379  2.6894983367238452  0.9794928357172406
 25.4321157414186843 10.2602703241596238  0.9049558015712357
  2.9584948057312195  2.1049496052593542  9.4497236709325030
 15.5149030868396629  9.2474559162378309  9.0397569232434822
 18.4156743405295735  2.2603369688136916 16.0282142119833395
  6.2995703435475257  9.4835474198602778 15.7902322609536832
 10.9184292486127337  2.1486244867101840  3.1870898358049629
 23.5744759373812478  9.2066575515841649  3.2131486370694975
  1.2445745462052067  5.6276875870700049  6.7231171488027703
 13.7423900251313569 12.7732228536997408  6.9447370014903349
 17.9911054379820996  5.6273402546919025 12.8114367482006752
  5.2719687405095987 12.8118808260800332 12.9533677941607781
 10.0334265912062062  5.9966728982649080  0.5352643284228942
 22.7654453154948015 13.3650529288155209  0.7454019798065801
 24.2021301154121105 13.1443238184608546 12.9269679631342207
 11.3805404597156112  5.7517679673181838 12.7847604497083793
 16.2376963939345131 12.4650854979156236  0.4312295516135674
  3.5647530027486094  5.0357396137482944  0.2282668873511431
  7.3189784973453538 12.7745322905449665  6.7165614355144170
 19.9524233213781130  5.4023852291977414  6.9897835117931137
 23.0967536857134768  1.1028484296756944 15.5962994926014034
 10.6003300592427312  8.5381878474752106 15.4120747883719869
 14.8894058093003601  0.5337258962904402  3.2733836279939972
  2.4160229025426134  7.7854573232502577  3.0307907585279903
  6.4975778393387147  0.1300935962129792  9.3780844048935439
 18.8774524839326006  7.4495756755773277  9.1462824478044897
  1.9913403118760722  1.5018409258025016 15.4461364338857372
 14.6531867990793998  8.7064949833050012 15.0906620760034063
 18.2545458912334198  1.6836683136942610  3.2014480054805241
  5.4647644450639588  9.0263033510558692  3.0327755100504574
  9.0427599847917950  1.8551236040450354  9.2313536789796888
 21.5396124704846237  9.0753156230030623  9.1971089233778507
  2.1281759794968713 -0.0907621078992013 12.9588754062803542
 14.6309093576490312  7.1978628240875819 12.8040349612879325
 18.8623391871682173 -0.6586146947660541  1.1656823022080094
  6.4639139292427261  6.4895336657912441  1.0533117831702041
 10.5926537687395648  0.0441695843077033  7.3181734355963259
 23.3302680948642838  7.3316974016989356  7.1794459291095469
 -0.4617190264493259 13.3683517860811136 15.8558702469057007
 12.3329760653616383  5.9919009783364343 15.7572930271967131
 17.4841727862126639 12.9525957476984175  3.2400959296971741
  4.8345795069248840  5.5501586031553787  3.2439787695420872
  9.1400626357049948 12.6549109706592287  9.6447334538107459
 21.9263538928645190  5.7475856334609983  9.3141631112730785
 24.2366282811290255  2.1138329005658725 12.7520862551187477
 11.7186863633791454  9.3250637006973811 12.9443734488289461
 16.4075710591224002  2.4319709450957117  0.8935820643807649
  3.9655619346268187  9.7402714080415311  0.5626311520936672
  7.3179765450179781  1.8166227082753852  6.8438192204031827
 19.8550811868747630  9.1653274254061259  6.6643741131186358
  0.7735775838081062  9.0229342967238200  6.9229105182813964
 13.6048373687172930  1.6875786849314207  6.7230242714785531
 17.9076325301694865  9.4801841412528152 12.7289134245202238
  5.2757837045627900  1.9008601210642502 13.2930186196033766
 10.0058400243699097  8.8001463121497405  0.2936191259128021
 22.2530538826518480  1.6846005041672258  0.4306887221779565
  0.0864147124645317 11.1295812988646219  9.3182520850361978
 12.7889065605282841  3.6403029028956846  9.2456024990875481
 16.8030016656383303 12.0471348597349763 15.0570406470726592
  4.3007650512806599  4.7454885515840166 15.3793021627976021
  8.8705725911961153 11.6039315288342824  2.9157255192088676
 21.4052145585030402  4.0016408570372421  3.2928770630404092
  2.5056859595455845 13.0899144591626531  9.0912453347184705
 15.2583668537994868  5.5758137500801057  9.0085149331416794
 20.6230970050956408 12.3159037195284196 15.2480512081453696
  8.2118015416753760  5.2835301006075115 15.3368411807530709
 12.0390327823572658 12.3950945225824558  3.1025559920066836
 24.3582732928199377  5.1575340456566927  3.1012566503251886
  4.3521898413481859 10.9225289793473355  6.9806346419588490
 16.9231248287153342  3.4120604592765318  7.1143865908904322
 20.8285682483105958 10.8995279044194397 13.0265842694124672
  8.3432617445853783  3.3667919980630825 13.0269819310458779
 12.8019058733777360  9.8348631183324802  0.8855883536655855
 25.1417436700832901  3.1533597880581907  0.7852099261707792
  2.7548260322993907  9.2627917202742349  9.4127167713954965
 15.1883385933357520  1.9851464500952201  9.3079296620538958
 18.4203600199383324  9.6456393870702080 15.9044714224445176
  5.9659609978317842  2.2692143900638593 15.9599732530406602
 10.9418271275822825  9.4476136819665300  3.4587452547209345
 23.6669539391702024  2.1212629032913370  3.2995273629183273
  1.1351969329661693 12.7662061918357566  6.9794365977255248
 13.5347969505964354  5.7089121450768738  6.8587229406830410
 17.8766227891692395 13.0682566849359674 12.7868760222822004
  5.2428305678643374  5.8857842972043306 12.9985326465296982
 10.0135025779806046 13.4413464904066338  0.6174548448262928
 22.7268062089096397  6.2458763081686630  0.5186147694673766
 19.9234576743257321 12.6957537191518988  6.8378753366873646
  7.3472775811944535  5.1441997373851800  6.9540600648985205
 11.4794184120268472 12.9928632139157596 12.9455097037476126
 23.9694359405848978  5.7034709319419115 12.8130645654221205
  3.6355232103686177 12.5944012598142248  0.6072196677278608
 16.1281975595919569  5.2124870879598886  0.6646940569435711
 19.2531895326480544  0.1868931396377206  9.1093248082196983
  6.1865524779651686  7.6814597965439164  9.4319062544357131
 10.5541637284232728  1.2323584349608010 15.5202476390927071
 23.1319656210087246  8.7437939314502540 15.2430936807005111
  2.5527093532735794  0.5230715893656388  3.2138524608274524
 14.9992605594100983  7.6881837360700436  3.2108964965937155
 21.6055217950615237  2.1554010642663570  9.0342890176101065
  9.1150318449058751  8.9669056632599613  9.2740196598661679
 14.6868503116101579  1.4537040090917477 14.9845548210106969
  1.7179050022759677  8.6610557910956487 15.2093295920137646
  5.6070572081032157  1.6729712879090739  2.9957761388421522
 18.0360594351651429  9.0910087269174298  3.2905495003750107
 23.0632339872805368  0.0390111478504349  7.2297016045258991
 10.6850601151807627  7.1890177238997168  7.2868326975239928
 14.5699038266252998  0.0070411570408299 13.0084763693864272
  2.4516866154834087  7.2538290996217034 13.0050853998104916
  6.4794333833798321 -0.6866775122196521  1.0149238994155640
 19.0005112029064627  6.2147779395181590  0.8277852369423359
 21.9283795795748908 13.0737330771058655  9.2878923278946015
  9.0886688980113597  5.5787025765724190  9.3822268406072187
 12.0842896749886766 12.9417293011603718 15.9109102939548155
 -0.4024992167468188  5.9888331620301631 16.0474257829069451
  4.8256587462128264 12.9022183141400504  3.3704224284926325
 17.4354810487315461  5.8091529417357428  3.3175856818535423
 19.6173292396830092  1.8435515186135449  6.8222210102361194
  7.3872464154994217  9.3219329018504080  6.9774185553928234
 11.3767457896629072  2.1908976136182887 12.6707458885467261
 24.2241873510831240  9.2489220118807118 13.0001217296559961
  3.9332439437540558  2.3655494117691442  0.7111291827557967
 16.4217213840668101  9.8203489711920948  0.5893979193463189
  4.9840568841638939  1.7761631820406960 30.1588691112388254
 17.5488592600260311  8.9943316941648526 30.1102313954589427
 21.9477779236473971  2.0456111959004311 23.6894054259753091
  9.4754701596894719  9.2131541316502403 23.9578583628008133
 12.5402440756281628  1.2368928024269790 36.0146243749789150
 -0.0046395002751753  8.4091400738908781 35.8722208966787548
  4.6825691158521598 14.4394979218632500 27.6482162023300617
 17.3446438681368456  7.2009415289310423 27.6932240775927276
 21.5946665308698584 13.5144188376442180 21.5426307559159831
  8.6501764056580104  6.1186070854190495 21.8120306666286794
 12.6198727073449657 14.0114485631592576 33.8137917295615082
 -0.0309455468914672  6.7896005036526788 33.8105240993461678
  7.5005934124588727 12.8200159404454705 27.8995940190251162
 20.3451817591701740  5.7090989819244440 27.9815187740806017
 24.5184279809599559 13.0961424375054047 21.8518011128329341
 11.6915952308538369  5.5133870388732475 22.1525304104183256
 15.6682786456219922 12.7167940801930666 34.2251953412425891
  3.0679124831817060  5.2461515307859399 34.1921357699741861
  8.5282765926807294  0.0659101944863962 30.3057404821880496
 21.0351567660975611  7.2633179486022996 30.5412851702844215
 25.3390698144494912 14.5323701156702150 24.2140311638288672
 12.7486172513292093  7.1846119337691885 24.4963919703802055
 16.6922509792360323 14.7976694410190781 36.3488826745112590
  3.8825873977408585  7.3306238377070718 36.3840302677987708
  7.5791520953581459  1.2914442917997517 27.8528719397561382
 20.0120418078437829  8.8595522925412578 27.7587288183860217
 23.7511978850416448  1.4100614083747727 21.7230549308752465
 11.6385594748128796  8.3950966673143608 21.7717008375662573
 15.6787845837866602  1.9074532630118197 34.0596727046754850
  3.0531848433101181  9.1369856768883686 34.1544902642502493
  5.3557949721602123 12.6282310806030225 30.1839211432187220
 17.4861123410375576  5.3469252129661928 30.1032588546342446
 21.7263770919642631 12.5137349509748343 24.4190940270553476
  9.4553750091772120  5.5073081969700857 24.2205247479707211
 13.0511290429399640 13.2996339268258836 36.4483882957252519
  0.2256379459513453  5.7217305929303235 36.4178416487652683
  3.1170926159326937  5.4585117736152906 24.0322460760600904
 15.4908197831705294 12.8807024460905790 23.8207877425911612
 18.9713276172218528  4.8411168286312041 35.8081458275299411
  6.6226097819346457 11.8867173977636487 35.8685668443321646
 11.3381863846482105  5.4346275426693742 30.2320065423446565
 23.9191029862007980 12.8956866660955463 30.1716193727274806
  2.4698296274888851  2.8773692183704558 21.8381469689457113
 15.3791669300112481 10.0529261030401020 21.7325154693929683
 18.9411996768233983  2.9099095407871776 33.9618315811566234
  6.4356415148562371 10.4238263546863905 33.8044158685307679
 10.7239095056906795  3.6346626203695802 27.9754078291815560
 23.5313123247777050 10.9134156640189950 27.8670858686634588
  5.4623504794232929  2.0619772153382776 22.0254104206266632
 18.1300033834659686  9.1375639151935371 21.9672247065853696
 22.1842160719748271  1.9151834423695877 34.1942803924616427
  9.3840998470476649  9.0093101543703114 34.3008588272963877
 13.6064522046092353  2.0570796343809108 28.2636464315833109
  1.1208212373718294  9.7353825690863154 27.8782851982281166
  6.4717378699762476  3.7707202733933278 24.1157557812750767
 19.0673209255620719 11.1291176115435437 24.2966541921870842
 22.6999997953943549  4.0566613809106187 36.3729571565585843
 10.2265929974622427 11.2305237599677774 36.3209391155216821
 14.6583758624395450  3.5589037513282769 30.3977101323810075
  2.2727496760066228 10.9975190305236499 30.6978272290888512
  5.1717363936068557  5.0169094897260154 21.7221662119446819
 17.9309970282432154 12.6112066252267709 21.7465558837119382
 21.8828039750521732  5.4121836021590477 33.8365628484244994
  9.1995329184004220 12.8184208965722437 34.1511187205849751
 14.1507523554130508  5.0627701125944924 28.0441681613727134
  1.2224400328380758 12.3946404291357535 28.1468193497804045
  3.3368989051510320  1.7029840492232959 24.2522650045650003
 15.6662435362261494  9.2179576503571621 24.2674167141192605
 19.2627015262779153  2.5420454195363771 36.5137887113071073
  6.7164817896322866  9.4143580162265561 36.4210963823241656
 11.4284201225772861  1.6578377527066490 30.3660581447442297
 23.8518488268584363  8.7682138211265066 30.1726581243072722
  5.1766413748576019  9.3858982763445891 30.0200493686517298
 17.8227314201616593  2.0976651623920515 29.9726217420360470
 21.6768181299410330  9.3184515247904685 23.9882503144824391
  9.1772209136046587  1.8693174893108833 24.0159707059132366
 12.6101499209805716  8.3134317296468048 35.8308458921749562
  0.1126118727638798  1.2476356050042392 35.8793652216260028
  4.4342604915029282  7.1924590946316194 27.8095438162705761
 17.1493433007345111 14.2127432783186425 27.6802831267299929
 21.6922726540717115  6.1802109000828267 21.8088756102490997
  8.9444036781954299 13.3542417485220675 21.6532037735656502
 12.5048583506778836  6.8175887772138939 33.8355184667937365
  0.0763613767877876 13.9465408066064604 33.5829555148166463
  7.5609325033850707  5.8269200686406410 28.1750307432519307
 20.2243797215292709 12.8352881770665732 27.9255741338258119
 24.5104033535269181  5.6174526374946394 22.2335178312289443
 12.0272310357710115 13.1163964725300328 21.9905197506012016
 16.0032234827519311  5.1238554588401302 33.9451791275683092
  3.0922727392934268 12.6383934388535426 34.1430149423284846
  8.4764662495007226  7.2840590236725546 30.3434081243721998
 20.9300951009278187 14.6788835101913069 30.2097861052407133
 25.4221996096362197  7.0671876356452614 24.3705799132383198
 12.6308643867240455 14.5804889296609552 24.3948782789217908
 16.7393212423826689  7.4111412189120722 36.4248874162199527
  4.1186363260199039 15.1714538504874881 36.1942887093024055
  7.7620453940039518  8.6886330298613448 27.8626832811118099
 20.0482672979291436  1.5504699771938877 27.9785080566638911
 24.0707917320356586  8.8260175672348691 21.8642837780493515
 11.6347648539605242  1.5836628409509632 21.6167266167323504
 15.5828816795628420  8.9739202002335450 33.9617038488147855
  2.9301166674993584  1.7571981842139914 33.8795039007015006
  4.9299521575625018  5.4367426223053856 30.4349638372721252
 17.6902181156574727 12.7623866384184126 30.2393750187441945
 22.1090570449549055  5.3760855413459057 24.3204360083830871
  9.2940670029136836 12.7313270264679996 24.3272965752037891
 12.7667830517958514  5.7142712687334285 36.5286467151999119
  0.3328533429961336 13.0152873902626300 36.3578151209676292
 24.0063416886057652  5.6412212474523074 30.1356494232707597
 11.4659242349237385 12.9667684368075626 30.0492150352891336
 15.6346016502972773  5.5615073906293455 24.2100379591385817
  2.9275672314628149 12.8160783016867086 23.9847082267754814
  6.3997275612553324  4.8819555607117211 35.8453342453797461
 18.9719490312036498 12.2392158786798397 35.7798953079609490
 23.3293647431425129  3.6576800903168416 27.9651725112759344
 10.6480237749504330 10.9276527261098000 27.7414514218941726
 15.0400490012961736  2.9720738245737621 21.7778457705868185
  2.5989001819530335  9.7378718105664426 21.6490628469626927
  6.3605124203658159  3.0928086812476301 33.8838809742704115
 18.8090640031182339 10.2659234116522669 33.6495869253437760
  0.9818877089570627  2.2503045380563909 27.7577308331385346
 13.8058183195706974  9.4554486251781817 28.1410464373405205
 18.2644370369834448  2.1581773399185691 22.1077823982073838
  5.4348402324617693  9.5052509361655666 22.0395697928437073
  9.3144597112103558  1.5500384298907384 34.2452942937060953
 22.2294454493174314  8.8963032571876060 34.1537140290440462
  2.3563865377630231  3.5756664144477601 30.3606160690433136
 14.5857631232998397 10.9426856666739045 30.2521091095836283
 18.9370687238431827  3.7214720794824170 24.3170753677849589
  6.3545535491594132 11.0536761521449325 24.2834509225675177
 10.2554963946354167  3.9577872290833875 36.3207098366951797
 22.9581830095321600 11.5513619652841992 36.1483328302485134
  1.4542459653756987  5.0225392548526813 28.1524443512997742
 13.8470278212327944 12.6450043157129368 28.1220895085075249
 17.7102028031436944  5.1809026179370763 21.7648463081029497
  5.1680320443055781 12.5719685681889253 21.9495784663351650
  9.3806782064386294  5.2238303435028683 34.1593282033784789
 21.7999108820276568 12.7652966859521051 34.1442747405242812
 23.9709867606519538  1.9029122926384392 30.0915261526082212
 11.3222482119535606  9.0847320461765726 30.1554183116283383
 15.8207549341583285  1.4978344464330482 24.2495846574015133
  3.2568318145381152  9.1652718605375778 24.7380602927706654
  6.5042975988251550  2.3352932677551084 36.6070696978434640
 19.3130162167375836  9.4799872283873423 36.4283683509806764
 -0.3049524774528192  0.1077001477907664  0.8553088702959579
 12.0089860433378739  7.3948689700296208  0.9628236346157597
 16.7675972881794344  0.0380750943585895  6.3194234720975038
  4.1726177837126777  7.3215549268933477  6.2705921592184808
  8.3682885426343692  0.0733472063912623 12.3280405628090222
 20.9563378031694256  7.3693574197802265 12.3809415203101079
 23.1195650619043001 10.8780671893361518  6.3527811540227326
 10.3988271166024369  3.5446629030584256  6.4300726546333955
 14.7157566238800559 11.1099165141920544 12.3179298521551956
  2.1069732030394039  3.7344187384961969 12.3678451181812541
  5.8621554613129137 11.0266740811195412  0.7447655365937279
 18.3750003869566498  3.8322566341689668  0.7471439964021241
  4.1723045228372850  0.0789391795395693  6.3992296534877253
 16.8841217718124739  7.2556033762345225  6.2784215813454169
 20.8670260167109909  0.1213220605387312 12.3698516115480572
  8.3975366454605904  7.4111797832362960 12.3076395142823163
 12.0054989295119103  0.2767031448485374  0.8186680363019684
 -0.4406409090193102  7.4317387910102353  0.8098277682739110
 23.0993377321550462  3.6360413115605588  6.4033609693419127
 10.4624208584967153 10.9796756885316888  6.3033645046663871
 14.6246729428847200  3.8596437720012178 12.3416188196432266
  1.9689323147758522 11.0512592823923583 12.3686871017493871
  5.8684322769135697  3.9700680405004602  0.9274822888565417
 18.4113697916805386 11.0220268980822826  0.8753319070990652
  3.9794012375448826  3.0496200398727056 18.9535237231634319
 16.5456346112277650 10.4313857221382023 18.9596505206792934
 21.0483865001613353  3.6009952547675654 30.9151437798990898
  8.4593528796285113 10.8460815899742080 30.8836556179246067
 12.7192340843205756  3.5015425916017828 24.8193056403805983
 25.3635269006240982 10.9339408928834736 24.8705087648856171
  2.1691980494901597  7.2374712262290890 30.8505114412069261
 14.8619243270976309 14.5223326251079285 30.8886417450322170
 19.0434924389301550  7.1977232246466052 24.8483209435761445
  6.3132129335696101 14.4964721473401941 24.7711582676074542
 10.3717692362397962  6.7867189809636139 18.9484497685497502
 22.9372684889495773 13.9908887276295157 18.8994366077847715
  8.4370908676446437  3.6945336163702742 30.9197223084367714
 21.0236540343405878 10.9184467006134955 30.9405496599340779
 25.2463116265777856  3.5447031802420867 24.8219272702236466
 12.6498868986196111 10.9111003565451554 24.8444426858258289
 16.7270760721228697  3.1924222718066062 18.8601141714173401
  4.0047339912763293 10.3094051076219877 18.9523441087451623
  2.1748133176445021 -0.0398147110974992 30.9346476138890587
 14.7195314541410713  7.3335315746013796 30.8962071108116696
 19.0061749514447946 14.5696963106516844 24.7991158670190615
  6.3349820608609049  7.2230683829238185 24.7988974902963975
 10.3495586572548675 13.9721381575524397 18.8653995512430512
 22.9678941214231926  6.8419860530619738 19.0142993133948899
  4.1708060869895549  0.1150008679532340  8.4349297941132448
 16.7276731340835454  7.4618496253381856  8.2934673378352990
 20.8047305669468798  0.2754712122674441 14.3573772723925028
  8.3990426276382966  7.4649412007093954 14.4728848874043567
 12.6980391104582235  0.2904875120597502  3.0022484783712646
  0.0859377974398180  7.4729100059111380  2.9874842464964364
 22.0489795503448569  1.6844546680356989 11.6472222280935913
  9.3718039561994413  8.9624088899972225 11.5660442989027796
 13.7111985529428893  0.8409857397333259 18.4098924354955180
  1.1119211710944070  7.9382451813767601 18.4377793946953581
  5.2136906637120628  1.6512360805636586  5.6812169286671566
 17.7692318802288121  8.9382741476955765  5.4115627562624171
 21.8693822625089886  5.6489192406070226 11.7008972383136420
  9.2728183762424905 12.8080554301568306 11.8467603014949745
 13.9076823866889292  6.2717594936270009 17.6890282901362248
  1.2945296680783565 13.4912723851856224 17.7327269974641588
  5.2629554142956678  5.6263336787447962  5.7330463195271948
 17.6384744962539308 12.9456589688945609  5.6085482593657794
  6.3767371294769735  0.1944584435440155 11.6419044685178754
 19.0626534421511913  7.5298431268952903 11.4751428554073129
 22.7136859137941975 -0.8193930764738675 16.8587137236533628
 10.1688038654725812  6.5373547227904822 16.9586997857784993
 14.9998611681392973 -0.0392612918355826  5.4498881328358548
  2.2300461478121361  7.2865978634244595  5.4720467150389158
  2.1257315652063857  3.6230469035670776  7.8945806943808412
 14.7386419574381602 11.0045380412084661  7.9008646052874267
 18.8437398621367187  3.8909485496023448 14.0065597634283598
  6.3073864839230387 11.1762400689364707 14.1116702294620744
 10.4404609585594876  3.5982601850281513  1.6039538360722478
 23.1745146525452910 10.9320620097228982  1.5987014602538219
 23.0358883861048227  3.6940069512924354  8.4707684056510679
 10.5688721352261226 10.9024929246743145  8.3627416366680976
 14.6055452436475051  3.7630715766704310 14.3384164853895797
  1.8242349729601635 11.1348792533549865 14.3382781293093320
  6.4407676755827277  4.0297940874584723  3.0057410582731343
 19.0162072376284286 11.1167741123786392  2.7815740771600175
  2.9595539920284817 12.6669373032343007 11.5559076685850481
 15.6937162783125910  5.3926305152802918 11.6558180882361864
 19.9920717091627722 11.6477396154047508 18.3818301912285271
  7.3020030211802114  4.3013494769302989 18.4412639812397217
 11.5009344429215243 12.6428832345723219  5.6266130289170082
 23.9636019897733874  5.2210350855557257  5.5809304125350767
  2.9728696242272878  2.0153154049894018 11.7085664129612912
 15.5771342762207414  9.2311793155947655 11.7430110393080991
 20.2239799574457670  2.6331147938479895 17.5448862170515127
  7.6704428249717784  9.9233164685396158 17.5526948155304581
 11.4497300234161496  1.9672831090428748  5.7860306130135495
 24.0520257298980695  9.1814542494465545  5.7135811333175628
  0.1728944137858477  3.8542610243471205 11.6554787330846175
 12.6751673829262703 11.1056853524705659 11.6256501557643581
 16.4227758660335326  2.8896826866348242 16.9722534809764696
  3.7660962893315029 10.2237759735451483 16.8934381134415084
  8.5445757410112329  3.6600390535351313  5.6578317678034535
 21.3095530136161813 10.9383846097067696  5.5173917094344578
 -0.0555910486693702  0.2730560313822036 14.1689595470499388
 12.5638928424687446  7.5125980387125049 14.0363273460364866
 16.9656947367009998  0.1971149763773302  1.6541388350011392
  4.1154156322392268  7.3942697644441271  1.7075062863030159
  8.3300002297890838  0.0383369968854387  7.8271446113310059
 21.0502166573588170  7.3161023053999958  7.8447842407803714
 25.1460311054661290  0.2956532741551006  2.9218948261654014
 12.8296478554771003  7.6608146588748705  2.8104111550987496
 16.7204762720363753  0.2091235335806857  8.3342680044770479
  4.1571452388771055  7.3457119549927059  8.4693321424147534
  8.3111379094695792  0.2052883574654069 14.3577701151168142
 20.9041470528355156  7.3358678307444647 14.4659766433334838
 21.9079041269986305  9.1135191575355066 11.7300596611267043
  9.4701377137035010  1.6928836607486266 11.6011205911564215
 13.7783689913463636  8.0215947251174171 18.4587644992713606
  1.1402497636809545  0.8201295583905495 18.3258214728824314
  5.0839240361481091  8.9141701841005982  5.6073263737707162
 17.7432540849185969  1.7024397402186486  5.4987403440566451
 21.7905650429156488 12.9227301952744380 11.6568150542977662
  9.2481514196929329  5.4671179492602064 11.7033160956925730
 14.0717859133666749 13.6517042940203464 17.5891392759162493
  1.3289956318681613  6.2313912990856748 17.5781005225154026
  5.2694688192092194 12.9908417762210089  5.6879689754303842
 17.8171596753153345  5.6516095877721337  5.5960655711224678
  2.3094621715438608 -0.0025030864947324  5.4921299313406235
 14.9109440223426581  7.2439349465065961  5.6100194987183079
 18.9603956872893313  0.2594984298736023 11.5393743881501365
  6.4693838634165850  7.5439928142767450 11.6334324489499270
 10.1320771176599571 -0.8106471894220706 16.8769541582532447
 22.8831943499136550  6.4436092762684174 17.0285362703607710
  2.2282219259628588 10.9153929340449274  7.8892519684595293
 14.6416486855547312  3.6939820999038617  8.0006416922199985
 18.8241106885367984 11.1877422023175903 14.1225514539113277
  6.1238617045487382  3.9173490421937225 14.2757589676482599
 10.6071226461644699 11.0804395439319698  1.5447098908289467
 23.1209944619312964  3.8231523093858280  1.7583006995496109
 22.8955728889416399 11.1298927097004494  8.3727830619163157
 10.4637265452059403  3.5490999881599246  8.4785349597943718
 14.7033599914316451 10.9875333203223828 14.3663570929777666
  2.0287912627587019  3.7849761385989145 14.3506580064497324
  6.3044834415844786 11.2610893512583221  2.9248479685485043
 18.8621782238216653  3.9735419500786797  2.7631972968131402
 24.0429023326889890 12.5477368457581058  5.5196531350650870
 11.4083499718381010  5.2872809467196973  5.6343975627213663
 15.6946832278778512 12.7124163710181008 11.6292804806975578
  3.2011411966042398  5.2336444148510273 11.6929410646919152
  7.2868155323350106 11.7364840901327145 18.2334601166622363
 19.9525086944091079  4.3249539621327289 18.4750620303356037
 23.9352571058177261  1.9010829330285202  5.7872865976000405
 11.4308858202900510  9.2632259468585136  5.7174649457575866
 15.3606615981172521  1.9608933263638928 11.8647536992592091
  3.0106491116762544  9.3446147564818389 11.8150743901009108
  7.7006985915175781  2.5515866188298646 17.7503278607844557
 20.1672037534772137  9.8297038101550473 17.7506999519613800
  0.1564453922724258 11.0715315190670864 11.5790745110637499
 12.7852101241957641  3.8863955281773395 11.5555966882163244
 16.4307767331709513 10.1293730413213403 16.9932326416245623
  3.8212820625797512  2.8546132528024550 16.8149501408328028
  8.5914836660173002 10.8619284635045652  5.4734634013226291
 21.3019437315882882  3.6541470907281384  5.5193220068569904
 20.9698336497269899  0.1053574013447103  7.8628730246411473
  8.3816647400409838  7.3150868060557164  7.8189535893157593
 12.6538725398195062  0.3620292422743607 14.2728957491640767
 25.3000727950879423  7.4848637851428554 14.1451012259008309
  4.3266524615784476  0.1475890089783869  1.7101580707454382
 16.8815251412028040  7.4163884719270756  1.7490791252547524
  8.6642873550253814  3.5790938370441956 28.8428627091371510
 21.1219707749643284 10.9416927798129056 28.8463881147609662
 25.3890769566257291  3.5236105574829590 22.6767477162234030
 12.8302055349094939 10.7705495046656630 22.8220770644797248
 16.8583955947890338  3.4055037317848118 35.1260785934781907
  4.4164008238448664 10.7954754140831035 35.2289832059091026
  1.1427903474723333  1.8845528302050654 25.4662877405034251
 13.6356945697250360  9.3799940053562096 25.6959854978187927
 17.2807176834273974  1.5237778655025269 19.9382390328389505
  4.6098341992149177  8.6413708899517481 19.8364586800969001
  9.2661664844684513  1.9699279791123603 31.6651130531768779
 21.9928129220105610  9.3455478738950060 31.7296946381930169
  1.0114173224864818 12.6992920713247344 25.5963163043970106
 13.6375442944880518  5.2326883893692422 25.4687763062717920
 17.9520215002287493 12.0773548664396344 19.0319896887198041
  5.5322363624324469  4.7190650443315763 19.1217163008330395
  9.4028935357576895 12.5523849556566844 31.7074646693519711
 21.8623737234969475  5.3046678125296811 31.4637704596244880
 10.6809864352809640  3.6675508678875794 25.5357807996245363
 23.4316263909751896 10.6315325993330223 25.5319818677109751
  2.4657789091120463  4.0761821573863664 19.7550176297953826
 15.0098331722715752 11.4724382350825351 19.7228722639634491
 19.1495588729003430  3.5719661924969635 31.4930896881893823
  6.4947729148580411 10.8721285805823644 31.4237252568751799
  6.2674706443681476  0.0168406299646644 29.3436641653183550
 18.8382440075948914  7.2206831559965110 29.2684282268216549
 23.0782348346485229 14.5133347622342992 23.3458526304047673
 10.5904896666594404  7.2988321898812716 23.2231258697359380
 14.5703591838427773 14.2717724579702168 35.2397944969335626
  2.0524306424627650  7.0080027619224312 35.2458232249415957
  2.2836539321502372 14.4465567220450311 28.9654741770523856