Cl48Li286P48S240 E=-2511.941693 eV
 1.0000000000000000
    25.1819793006824639    0.0000000000000000    0.0000000000000015
    -0.0000000000000009   14.5388225279766061    0.0000000000000009
     0.0000000000000000    0.0000000000000000   37.2126966544236950
 Li  P   S   Cl 
 286  48 240  48
Cartesian
  1.0173727059643194  1.6275753034385221  7.0859183287296545
 13.5376113760599672  9.0945864855943892  6.9126924303759143
 18.0053278469841516  1.7484400689704300 12.9572623914172418
  5.4264229733438514  9.0661148571890635 12.9940691638871435
  8.4415338496484100  2.6069347706702541  1.5794276738955690
 21.0865810150570887  9.2673902175877956  1.0127107812978562
  0.3128875301214166  3.6219498172613522  9.4046781803052699
 12.7191410593407745 10.2840898251529236  9.3229976532985415
 16.8332629914515621  2.4706142201377301 15.3567806425388031
  4.2730769794238714  9.7546861824027395 15.4786220091504791
  8.5456640087166154  4.5116735862405450  3.5362940784539134
 21.2185626597033163 11.2201973083792517  3.3396145407825117
  3.1863355834786349  5.2730148613206396  9.3220927103432363
 15.5220878077283064 12.6128063150493599  9.3476478220812442
 18.9372856196335348  5.9349146610517485 15.3164392329667542
  6.2862534150743441 13.2124019712831373 15.3760429851883238
 11.9155570038744258  4.9587712426575301  3.8041472697770753
 24.2164217170354874 12.2004803385229810  3.2147985046606875
  4.3447744401351969  3.6716341640186552  6.9545746571481386
 16.9086342524423507 10.9003304163679111  7.0362444615749196
 20.6955621866749482  3.7891837400095270 12.7194435325920256
  8.4010978523716684 11.1518834697953846 12.9931447121267230
 12.6551139083882891  4.4635959103231171  1.1538451123774847
 25.2310327593574328  9.7365995699983614  1.5576289362004678
  3.3497973757489032  2.0839074939232995  9.3372545570105281
 15.8089895975164758  9.3985408572437699  9.3673364814482500
 20.8980314294265987  2.6674641868838118 15.3782233105020136
  8.2664508201136826  9.7726001083792013 15.3454332209325006
 11.1244387508797082  1.9417525351825877  3.2784237021748210
 23.4662746265395050  8.7629251729422162  3.4343207034954233
  1.0042418234605404  5.5794844953546541  7.0601855733778009
 13.3400243853583760 12.7677886104965701  7.1114185863958301
 17.6678125602066025  5.2563899430884788 12.8916772835398490
  5.1897057053278131 12.5233487589056978 12.8694280277834689
 10.5684917547643948  6.2601125776323707  1.7526663184451121
 22.1270767685138523 13.8391332009176828  0.3142424571814380
 24.3830781072663179 12.6750057782792140 12.9581984014284171
 11.7224150554148263  5.4246989131948853 12.9210764092288635
 14.5491201810547075 13.2794328156628314  1.9777569710384195
  2.0558096472482967  6.0505204880232162  1.5880881964013636
  7.3457951168680298 12.5439965319422733  6.9367438712239702
 19.8882775672186867  5.3735279890130556  7.0716820169977614
 23.1882344528557276 -1.1223420996497582 15.3455115758098568
 10.5801533230279610  6.1316691467574840 15.3687371627785243
 14.9048146815785927  1.0906043629921907  3.4214802356841418
  2.4502760032498929  8.2447221479658026  3.4255206393518622
  6.5253228096254903 -0.4054759811943538  9.2923781066701423
 19.0729641798354912  7.4023554589105194  9.3869150418640146
  0.0442596114932936  2.3387590184317961 15.3432693798443438
 12.9199485264248075  9.4335718450431969 15.3039861017178751
 18.1090119807576038  1.4420771721442149  3.4061375910752649
  5.5686771219823470  8.7258462771991141  3.1720745807947535
  9.1664717750515159  1.6524578320455303  9.3624282050697509
 22.0040443030057702  8.8762943034290487  9.3560961052116518
  2.0809770066573430  0.1398434513374303 12.9559959367159205
 14.4663101870596549  7.3920079592169694 12.7375201046975342
 18.8709394697213888 -1.1582893118170228  1.8132895079469822
  7.1598118131321682  7.4335517007600043  0.2951544173087713
 10.4817418440407479  0.0777084935051925  6.7861217331144159
 23.2762444402938229  7.1730831788556930  7.1644269375023244
  1.9856736440556810 13.3354494250088553 15.4183151772963996
 14.6427030001548957  6.1300083429708749 15.3262143505038892
 17.0112580801105615 12.6664296950749193  3.6130014515774085
  4.9044676361239965  5.5086985346139006  3.2328879659717429
  9.9642153472612485 13.2474693607347955  9.1960966186176627
 21.4855489194882310  5.3095897243950683  9.3629390704232289
 24.0699665316846811  1.5944253346983912 12.8850385114241774
 11.3813219322244787  8.9684580895610093 13.0025041831939063
 16.8244768084006999  2.0686136383650706  0.7519828626369844
  3.5221829113200855  9.2645098603287277  0.8295380516194084
  7.2023759702855283  1.9650392376685866  7.0748259039395327
 19.8094613576236824  9.1915680954547554  7.0470277833645554
  0.9942498663483219  8.8957495018819088  7.0492153082822453
 13.4155530512877572  1.5347838476267999  7.1796056867267151
 18.0148708874182049  8.9880163411698231 13.0687601231819759
  5.5029741947858914  1.8344378274033057 12.9059292272407653
 10.4671505939484852  8.8513998891202146  0.5417883659048768
 20.9435698310426339  2.0897097320763480  1.0515310403078417
  0.2284281386728196 10.9169416737469085  9.3064741214084830
 12.8150113544821771  3.6285186915830838  9.4839210448382101
 16.9199960387017256  9.6856261083629391 15.5335838799057608
  4.3046424932249776  2.5098760357305570 15.3361484885406956
  8.7279562414379246 10.5557003092360144  2.9804570980643694
 21.0827858467573570  3.1788941235274089  3.6365088804670855
  3.0762852318078155 12.5236309489009727  9.2761094117655905
 18.9094117922307952 13.2065891506893376 15.3574256292919245
  6.3108272508046355  5.9584270957186094 15.3754785573088153
 11.5755751212793232 12.5135429419913216  3.1768902837992985
 24.2633603076281616  5.0109492040020855  3.2637258839185468
  4.3390749119946577 10.9207363023672226  6.8874473060268917
 16.4784835003077212  3.6394055720283154  6.7943077188578131
 20.9205144634692530 11.0547984337892355 12.9790365765079958
  8.3631866299435060  3.8165232557160040 13.0365203215868135
 13.0026342721657393 11.4834179231701476  0.2687596244197772
 24.9458586882487339  2.5926133890378105  1.1822884700418688
  3.1507326307123038  9.2833783829012066  9.2874423062400524
 15.8066333747520744  2.2192164898762008  9.4808370624344107
 20.8928259524603526  9.6917049232469203 15.4345925922457177
  8.3724467557495412  2.4328811040927709 15.5032347181828953
 12.0227534061690609  9.4713092635690295  3.0554001586508113
 23.4956035534494134  1.5495461110176656  3.3972718932242478
  0.9666117251668743 12.8167517115900029  6.9562810328853333
 13.7642695687953580  5.3783722109296024  7.0961331165936254
 17.7460534600922450 12.4535734848985591 12.9413248838754615
  5.1592037421237604  5.2890635728279696 12.9356196028367272
  9.7546900399769729 13.2475213024274865  0.8515554552225990
 20.8381637243421949  4.9282127628556642  1.6969707642850147
 19.9273119599072892 12.5562455008119702  7.1056520638926361
  7.1828055524693895  5.3845979362451439  7.1749027446143394
 11.7024590289410533 12.6475117623670368 12.9093672347850053
 24.2558746828468124  5.4173906481114509 12.9541056575078741
  3.2295820752485391 11.9793103429307024  0.5944838535837547
 15.4619723940608225  5.2783134262450417  1.0871345823283456
 19.0869620746005886 -0.2876950100126385  9.4111386210778960
  6.5657525294007524  7.6049918250202859  9.4088915172394714
 10.5345908088740217 -1.1214541104859783 15.2976158954309334
 23.1219633802547015  6.0610315353110602 15.4984630448952370
  2.2526979358449104  0.2287657192854749  3.2037452747158479
 14.8653691962311889  7.1281035121242429  3.5950397596186114
 21.4796670998624926  1.9946214326192260  9.3630124926452147
  9.8183959357083470  8.7370882860586327  9.3374257898149047
 12.4920477060988997  2.2207040717134547 15.3461211301286546
  0.0447059689356869  9.5726661693528801 15.2825945477560730
  5.5177048990204618  1.4497939355964760  3.3627082053778228
 17.8717342887639710  8.8232459878164633  3.1596270235859580
 23.2344041721552479  0.0235108830318855  7.0717538002284925
 10.5538708270725685  7.4930187766249325  6.9697117637704693
 14.5428405969147434  0.1154905549670279 12.8483200821340233
  1.8639763003515650  7.4355662521682797 12.7400064203865586
  6.2929756353153010  0.5570858877156291  0.7383821565224385
 18.4588620843949727  6.2220436742486687  0.8698193553123208
 22.2293214145662077 13.0899903628918874  9.4133365461055298
  9.2895330558643341  5.6193357386426577  9.3700805836994157
 14.6122070122978851 13.3522139231823136 15.3681516343177798
  1.9916257045956653  6.3147334744410317 15.3743493367269419
  5.0877127650045484 12.8503502131084151  3.1298595813533296
 17.6444512499038098  5.5360217807576433  3.5448744584611407
 19.8412065623086029  1.9139940887876699  7.1226396793340570
  7.3264587869897486  9.2945482277412612  7.0202262106971336
 11.4794968084571511  1.4801366325056802 12.7654891758747056
 23.9995608667117928  8.9065193640304514 12.8839566695892582
  3.8486810982562947  2.4674515194178550  1.2110192632006616
 14.8276819033692906  8.5584120689171108  0.9651530576498880
  9.3820029177587987 12.8630902204523974 30.0980761559148249
 22.0062307530391479  5.6200914455823900 30.0810993453388669
  1.1774740334485985 12.4004439768330883 24.7080182855082278
 13.4752767770908317  5.3419942927884536 24.2492376665281206
 17.7396138747918890 12.5660331050975547 36.4055294289190670
  4.3754689099875028  4.6418206893429117 36.1544243414455195
  8.5955615596814710 10.9156089698351639 27.7802377802575684
 21.2860140527113657  3.8046783101981871 27.8319204371491971
  0.2174064933706783 10.2042702311097244 21.9391972965097928
 12.7775795057221888  2.5042757982885346 21.8455678012677019
 16.5783527004556603 10.6587192578147416 34.1450081575366156
  4.1660807388321457  3.8254079925882905 33.5633552465990022
 11.6070658255456873  9.4659684383483231 27.7553143603255315
 24.2541095280209902  1.9824833751838817 27.9617397032956916
  3.9837895512954780  9.9027864146040034 21.7909709116952151
 16.6846045701335974  2.5759514322967774 21.9162494589984256
 19.9855921032478854  9.4037533742441575 33.7136516305436942
  7.7959929041539811  1.7624553954923508 34.0549168924956547
 12.7919418303749932 11.0798083526568263 29.9860226886459671
 25.1590928128274882  3.6541678444047396 30.4376731463770795
  4.3024915063248388 11.0658239178529687 24.2409415127547092
 16.5974985986513275  3.7671834243648870 24.4694036469065459
 21.1278636708568648 10.6027916395653801 35.7314610322039741
  8.1492822535571925  3.9979339923991777 36.1141881629488353
 11.0209005483357423 12.9646699437473316 27.8505814502424194
 24.6352175466024477  4.9674901787729926 27.9817349426583881
  1.9218494621494919 13.1687815342385246 21.9541669871939362
 14.6555141920603003  5.8408218246125667 21.8515056350862977
 19.7080735350132343 13.1708948185106092 34.1168541538441517
  6.7493397818978975  5.7955898953023022 33.9832588570233014
  9.4036664437586186  8.9273182144600902 29.9459308777789985
 22.0101098520498546  1.5967733663172048 30.0823069575447946
  1.2415881886389089  8.9988538948510683 24.2472903329534084
 13.7761150657223244  1.7116907377585957 24.2439523182306118
 18.8972876627407480  8.9480648080033571 36.1732858291129133
  4.5588335844999719  1.9236771013765213 35.3954519618309575
  7.3370519286384708  1.5414113529065649 24.5157561745423074
 20.0458137250613326  8.8094417801852689 24.6906260422411066
 23.5043880598598065  1.5010617089487728 35.8812338572344629
 12.6044468029350618  9.0900137761829143 35.8961382952712853
 15.6469339397251286  1.9622298152894426 30.1956378713376665
  2.9526449711208480  9.1918427708664154 30.1528311404097025
  6.5955724803475730 -1.2438254566321643 21.8220580538884832
 19.1299101964863070  6.5481446155148157 21.9684680239838848
 23.1324737152236253 -0.5345756417233538 34.0632401980335544
 10.3809589543045089  7.8450885939335269 33.9913866632926300
 14.9821465453036389  0.1482578422678408 27.8754820748433048
  2.2698764305505081  7.2874471394656366 27.8538176676798983
 10.2302665769623040 13.4438762106391501 21.8508001104771346
 22.9332344952786151  6.2871736251418939 21.8766025365873169
  1.8869667817639215 12.9494845971180350 34.2081504405226156
 13.7388880818855483  5.3597433241795853 33.5005841575484169
 17.6812026191976592 12.9351938955063339 27.8643795854563052
  5.2496083729674448  5.6415745198130249 27.8653962254761574
 10.5271435361618675  0.1915153830663945 24.2300606434150545
 23.0934933897775743  7.3861017527446897 24.4812573429572637
  1.7987832510058177  0.9887116847142807 36.2907133964102400
 14.4643802562835919  6.3609380000871818 35.8001722859058020
 19.1167625128198857 -0.0485819505125126 30.1213488007435686
  6.3939521050841588  7.1921289561603334 30.1170762860794810
  8.2315813146621597  2.1753841089093973 21.8545943195211514
 20.7929375829393166  9.4605963161077984 21.8957081346085971
  1.2294524134985869  1.7399219569983444 33.8520633144165402
 13.7492592721060483  8.9762514433615728 33.6232806998150409
 17.7362953229536124  1.7593126519023858 27.9241989211123176
  5.1834765829437135  8.9066514862639252 27.8715149513585025
  7.5922050413011961 12.8450543670026693 24.4866043780537694
 20.1619105609142721  5.3127244558075226 24.2336982870882167
 24.8867987812725566 12.6019276055119551 36.3195959758833880
 11.4810214903042773  5.5498521062021364 35.9157810446486536
 15.7192447922044298 12.6281688726958574 30.1981188439844672
  2.9312270003901135  5.3387567759796974 30.1361854780660465
  9.3285505619913849  5.5558718489023935 30.1883872536263524
 21.9739225678055305 12.8206459817785259 30.2799254258702319
  0.8529505184531876  5.3884505894866326 24.1769269958067561
 13.6921207741634365 12.4962559892481284 24.5771662122865671
 17.3055022334329429  4.7797372852082791 35.8377742954683853
  4.7973400695105282 12.0639584369719230 35.7300012580755322
  8.6025994259915155  3.9423743488321739 27.8088999268763750
 21.2044778881513309 10.9568566382220709 27.9392427364829743
  0.2240755613110934  2.4560672870550841 21.9154927075282302
 12.8654569635744469  9.8741994314193722 21.9834419930355516
 16.8960919949097459  3.3496878533780379 33.7387633310246429
  4.1917623147061187 10.4872435060879976 33.6492949982943514
 10.9423966001590287  1.6812190244902534 27.8491000531794377
 24.6592009890779060  9.6085818485115855 27.9956283958446512
  4.0724224089344698  2.5358441653914774 21.8827967856324221
 16.6563002930311406  9.9640855023791026 21.8493822557154189
 20.5759062592350936  2.1721862224637771 33.6667932299990653
  7.5546624154135449  9.2090030164154371 33.5038959160046730
 12.7580026867668703  3.4515469215057810 29.9750815024713191
 25.2087901916742219 10.9459657318460195 30.4387709617786619
  4.1430835474619716  3.8510855739762668 24.2949165560900084
 16.8182405495362559 11.0861130518601421 24.3473529183816311
 20.9080516790834814  3.9332403879410149 36.0971347987667244
  7.9860156247848879  9.9465528119453026 36.0964152330789290
 11.5369422306242821  5.1769031057634800 27.8219018613398710
 23.9409916935773843 12.6480453505493777 27.9635799196387893
  2.0874916009434492  5.8696393164364054 21.8443002935305302
 14.3370701493918133 12.9651660753783453 21.7383968458331722
 19.4857120679475102  5.9231357427623683 33.9919552388745103
  7.7394888789950738 12.6203155918771515 33.8307817453139563
  9.3042277787889649  1.7187616062373212 30.1090875215841045
 22.0233450747825579  8.8825925286714806 30.0215012980944067
  1.3392556673861138  1.9677804364260367 24.5011740554990709
 13.9083847561391867  9.1442143584304851 24.4568717415978192
 19.0534393553481465  1.5544299804156798 35.9058152511137791
  5.8088951135503386  8.6196932269469144 35.4930823473037833
  2.6692119534583543  1.7682884524618498 29.7777751135633117
 15.7226688059622450  9.3011844859136250 30.0686360814930680
 19.7745522451239495  1.7614794852664619 24.2025305010289031
  7.2989092480141498  8.8596736798404425 24.3803564660806806
 10.8633748468767948  1.0325783170378002 36.2686206322295845
 23.5277368249213907  8.8758611723960836 36.3288754459419962
 14.8586705591785702  7.3750120341384457 27.8404730668266147
 19.0800664533750890 -1.1108381278195385 21.9017285962026662
  6.5130010569068197  6.1128790412675373 21.8453964524995072
 10.7518998371974401  0.4974117914673885 33.6734891789677064
 22.9282568158269093  7.4889578679240483 33.9402892380324204
  5.0481569512647804 13.0007319001033963 27.7992118818814724
 17.8973075040404019  5.7691990354490397 27.7858875579237186
 22.9428355430592710 13.4955381662930520 21.8506064223245531
 10.3879539238713932  6.1902895447159390 21.8446526288546394
 13.5434168208584662 12.5406327709654732 33.8796845249382343
  1.0265925987987359  5.3302210767801590 34.1938108793374838
  5.8344032218949815  0.0215843635788379 30.7322484438631776
 19.0346438632961501  7.2548484843254029 30.1164644140962032
 23.0761484806777055  0.1796150415012548 24.2973089511824192
 10.4322158699918823  7.4197830185443339 24.3128936679921956
 14.5548580824031539 -0.5685635260904242 36.2744678007986252
  2.1558020076572322  8.1225653337370129 35.7171295074715474
  5.0526528025820436  1.6152700707107841 27.8157260077134154
 17.8247585030906137  8.9679757318711939 27.8792220503472912
 21.0042160248746512  2.2226035142122478 21.8607201032723957
  8.3116116077308462  9.5198041568526381 21.8497903566326670
 13.7911089532788420  2.0519949353056379 34.3290941831180376
  0.5346744286971555  9.6210783230829282 34.1285922221306208
  2.6750262569306540 12.7844835775539760 29.8238913019459986
 15.6839195427153015  5.2854018661376676 29.9488487154731651
 20.1808373120956048 12.7880914465549846 24.3922779079051715
  7.5628019009984859  5.4513877713340051 24.3027292903413787
 10.7730814406480917 12.7741657719515480 35.2343125581941266
 24.1949599545048351  5.7875532220447132 36.5008779057404382
 -0.5270233858251331  0.1412363891527697  0.5949915730088472
 12.6770940898246156  7.0652689012970180  0.4668932546560624
 16.7288027755798261  0.0512418819467272  6.5052384247416404
  4.2633585211457037  7.2848452426046979  6.3279052127916220
  8.3832938859599757  0.0030171221204302 12.4276642133629647
 20.9841811698898901  7.2583715064074434 12.4750615852144815
 23.0713266254997613 10.8664754872361051  6.4004826376169257
 10.4853345763095671  3.7138623093769758  6.5489245319776010
 14.7157870425600734 10.8903099827007157 12.4776580142276217
  2.1305764540872296  3.6452083885675060 12.5020807024804697
  5.8055600755239878 10.4707365844368550  0.4422530474959377
 18.9068945557323609  3.6298909723355641  0.4564764162741519
  4.2099569615460481 -0.0077813002918984  6.3156940519475651
 16.7814711913236536  7.2993195343023212  6.5533649165910512
 21.0030997152700323  0.0019285307405253 12.5374881657809780
  8.4019010220220327  7.2930720921389058 12.4906927020383751
 12.4177083415987184 -0.4756140730894323  0.6789797967438402
  0.3808449023448927  7.5876861077460234  0.5101783118916234
 23.1474323567951146  3.6242669538438577  6.4669231032470122
 10.4614230570044029 10.9375559733540584  6.2263771870090237
 14.6725294922099643  3.6342631978377660 12.5820178390317263
  2.1321854982785848 10.9024993000566575 12.4368539512986889
  6.2446099804520863  3.1919855032940156  0.3951546681369975
 19.2949183323375415 11.1824295676678673  0.6466198129429799
  8.6094625151104545 -0.1057303699670694 18.5813022248961595
 20.7948713164815189  7.0188848617287229 18.6027709275275619
 25.1451552296433007 -0.0472095484468682 30.9751034617973460
 12.5327883910068341  7.3098526448813050 30.6531501683232825
 16.8220530217023523  0.0326274604908231 24.7334358251816333
  4.2275878631931283  7.2729499153461727 24.7098925877493940
  6.2433005432024817  3.5897044149701163 30.7744803657261130
 18.8592620184526112 10.9445500711250201 30.9071897474306496
 23.1516904307176681  3.6321374720206911 24.7766186998651499
 10.5140358140622396 10.9274309246271706 24.6659708149784223
 14.6621226892768082  3.6618383016388805 18.5908516761502440
  1.8290408401809515 10.6807756282288828 18.5968103153737410
 12.6540911282078259  0.0654950272758947 30.8331115274286063
 25.1818351760339212  7.2817540153610611 30.9987852342231207
  4.1891874144307373  0.0309437349739974 24.6274234251136619
 16.8231163593208990  7.2902912481962110 24.7060402437204623
 20.9935470002445577  0.0203664801986462 18.5936325760883001
  8.4016727202306836  7.3050058140069094 18.6003231423855127
  6.2558893265432971 10.9735331087703258 30.6447888494676413
 18.9388574135116805  3.7168233919441311 30.7854033965897251
 23.1452998394946725 10.9317118049311617 24.7848151047453555
 10.4848552428499282  3.6213697297045813 24.6938873398549603
 14.5630794320956092 10.7161022894819276 18.6252192159093859
  2.1462979721883797  3.6461590680710492 18.5867758791511157
  4.2257221562080360 -0.0408385283129180  8.4002359329824401
 16.7979910637097554  7.3462514848342009  8.5837516484500913
 20.9981518986212237  0.0359429021360388 14.5910072860421209
  8.4021232933720853  7.2968804907004552 14.5520722778415212
 12.6866512876129800  0.0806810482608141  2.7619758375120766
  0.1060869804100865  7.3004643180656794  2.6892219718461039
 21.8565654577688910  1.7407787345076016 11.8141248629819646
  9.2518917937190075  9.0225146086998862 11.7596026926074622
 13.3481180360004323  2.1087764108008149 17.7744410104133799
  1.0922232957122766  9.1399825313558161 17.3391508187586325
  5.1601722547176205  1.7055819390168265  5.6775120082284918
 17.7080237847271711  8.9086047189011097  5.6542959386466931
 22.0397534988069204  5.6293028039652082 11.7584348127984697
  9.4837088328802199 12.9624173074775317 11.6725121222507671
 13.9820668690282677  5.5660250394807020 17.7255069894910235
  1.2578133340828053 12.6666028959047576 17.7121399174768648
  5.2343220685334533  5.5994203641903635  5.6412585801004713
 17.7631504564522800 12.9417519337039746  5.8372345265350214
  6.4370812949390777 -0.1178730673628926 11.7166848399293020
 19.0333838182523287  7.1363962882621061 11.7939211565875954
 22.9955087404028831 -0.3577623214455416 17.7480171783865792
 10.3982119398728603  6.9279968625484010 17.7629700253791825
 14.8135281791337086 -0.0139459466899522  5.7622418500912831
  2.3196879421367931  7.2600908257800567  5.6713579173138866
  2.1661673869207023  3.6195485196122696  8.0007458637604216
 14.6477461002459446 10.9200810769382155  8.0062581774055115
 18.8360211347209905  3.6084516555398443 14.2171053196730135
  6.3015374671607596 10.9177660721719629 14.2683965475269847
 10.4589117992055378  3.9327075019787614  2.1768189967897715
 22.9950594649197555 10.5272559480228427  1.9072782160280326
 23.2336546526804000  3.6584897161839440  8.5296965710700317
 10.4121178794560478 10.9667294364289187  8.2936112026117588
 14.6364657632555311  3.5997794860705863 14.6452963512551158
  2.1175719506352046 10.9027082764024570 14.4830220961399334
  6.3647090017676078  3.6373502847103039  2.5807016329117518
 18.8163159849406334 11.0719101542107712  2.7578600454059221
  3.0018539512931546 12.6406367153003831 11.7168072494410698
 15.4907854314485807  5.3271773228828261 11.8107493484763122
 19.6576074164196584 13.0134453522382980 17.7682295474508720
  7.0767001850191500  5.7497892069304832 17.7687560691239739
 11.4104151496276689 12.6367007000104365  5.5439971561161210
 24.0814216281926505  5.2899245990388613  5.6943914057718130
  3.2084641566969387  2.0194709050796602 11.8030229085709077
 15.7930181714769979  9.2658001097449354 11.7906045330718356
 20.3250261864130906  1.9358465463549597 17.7482528863481477
  7.7192127858945874  9.2179219283073301 17.7590322412870094
 11.4554994993433734  2.1037879458562641  5.6951830192236308
 24.0263997133916369  9.1649097275096132  5.7536738777288914
  0.1836898949436329  3.5118018080371325 11.8170631636112109
 12.7703666668579796 10.7507522996925022 11.7830737418722222
 16.6591937434301798  3.2836402510404517 17.7614104327833289
  4.0165033701218622 10.5374584149842825 17.8504260019286463
  8.5596204381715744  3.7781581602555270  5.8357720586928510
 21.1240455105825831 10.8558200621166634  5.7266164234541312
  0.0391067176202731 -0.0064244705117873 14.2702768309708041
 12.5840793795670436  7.2374074589546726 14.2236015056682241
 16.6885774382364964 -0.0361475083620094  2.1345130832609951
  4.1400519851993680  7.2807788255703025  1.9386648057919460
  8.3686123661451166  0.0048239346188947  7.9213198389020354
 20.9770172231152650  7.2668050126072101  8.0308291667797569
 25.0809530946324521 -0.1167993678012185  2.6970139415378296
 12.6336081717932949  7.0369162213631480  2.7495710910841518
 16.7535813075260016  0.0747332177488500  8.5858646241820704
  4.3071094172229873  7.2857903500729320  8.4177490536286506
  8.3692565231437559 -0.0255389428847950 14.4744648412910326
 21.0002364124218133  7.2590989533330923 14.5226495073936466
 21.8344257203323231  9.0125926657152178 11.7609146832504301
  9.2394962117296640  1.7736206211586139 11.7727645847074438
 13.6663456067076119  9.1634028840539088 17.5036273596176173
  0.8257710673938585  2.0910225695827553 17.7514214493185847
  5.2226387938775671  8.9496430951305541  5.5973574303048270
 17.6947150512129632  1.7493150676917972  5.8035293443843230
 22.0956030093852789 12.9228207612191230 11.8462929317227861
  9.4641486480590995  5.6533108603019429 11.8020575442224480
 14.0363563160714140 12.6625670502312619 17.7259054087003598
  1.4494739639640219  5.5510058057471925 17.7475919972961940
  5.2000537617388423 12.8943773879999899  5.5686388134713187
 17.7080665323734756  5.5517847090436794  5.9166251839037995
  2.2686238202718401  0.0028516589277711  5.6411086006987974
 14.8037835938045266  7.2263587622855878  5.9234789374120123
 19.0566865695410925 -0.1685984891049634 11.8431103837047242
  6.4526580854373261  7.1601507928975492 11.8019804119364267
 10.3391858076554914  0.0005446847252364 17.3617149373523638
 22.9571166873198642  6.8920401937263476 17.8691542195580020
  2.1172187111442247 10.8804435098320411  7.9219807437411829
 14.5415804792870418  3.4188441641428731  7.9977129561397637
 18.9148888231711858 10.8738969662468676 14.3265175439274088
  6.3052087558425436  3.6528917371988401 14.2972670969174729
 10.6720930974003103 11.0094995267225819  1.6047498477192026
 22.7973338341279614  3.4448094096059885  2.0436152001793921
 23.0859546763155770 10.9207684850489457  8.4860982910047920
 10.4582210192118072  3.5755938211100617  8.6174681736022549
 14.7497581767040202 10.9185375347647398 14.5268887506109596
  2.1400304724850754  3.6892576694313037 14.5548742263424522
  6.3615644488659902 10.9121284466759114  2.4532603511422071
 18.9331840296070020  3.6431238075276675  2.7550334999548038
 24.0064763147019455 12.5295629637056720  5.6388221842830459
 11.5134860469427931  5.4302312136855901  6.0503587625234116
 15.5862520731802121 12.6334660800810319 11.7637665344188598
  2.9949845783488493  5.3814818424946536 11.7665011316712071
  7.1910334526506485 12.9505180150601582 17.6737537969762748
 20.0448232092911773  5.4744010941139898 17.3544683566949338
 24.0734210128944213  1.9413720280010005  5.7256379409663127
 11.4847309625866902  9.2940717404746067  5.5013205358014643
 15.7453990983230145  1.9907248143685039 11.8861633465288179
  3.2004350336034069  9.2691863252027940 11.7372160812732833
  7.6706517270451284  1.8898770845188191 17.8212900268066861
 20.2073150601721174  8.9921675929900555 17.7335603762686880
  0.1821359397945443 10.7724762025023431 11.7395209177716993
 12.7160592085101403  3.4529908986760791 11.8866916043695419
 16.6991661213678348 10.5047497776568193 17.8781592544614227
  4.1512116408990680  3.2906333282734672 17.7361791887975855
  8.5436593090835924 10.8772528356965879  5.4787313043682149
 21.1680178307917899  3.6240930381462024  5.8833404576276163
 20.9832343448360668  0.0026983213658763  8.0638341674685901
  8.3962074429083344  7.3225817252223004  8.0189810391545659
 12.5952501197473534 -0.0611810974324646 14.2031958950594444
 25.1502108875494592  7.2625126549001395 14.1998179474821828
  4.1867030495165976  0.1032542365032325  1.8038170153176545
 16.5710584774972212  7.1066784160090979  2.0454145531118462
 12.7336570056932583  0.1098222084340745 28.7638682541931132
 25.2089883068696743  7.2713182125256033 28.9172034747729754
  4.2496335153093341 -0.0012985940935690 22.5647974685389308
 16.7967674876452158  7.3461463323716991 22.6587845413301316
 21.2278080897557011  0.4058359084641487 35.4087128653874927
  7.9851661828095981  7.5457895373536150 35.2205557566731997
  5.2983973397122561 12.9711789200223109 25.3833183097097788
 17.8929952146415339  5.6476251102178123 25.3715501295913626
 22.3493278414765832 13.0630001358862753 19.4385997753533992
  9.7573386026304227  5.7832846694282791 19.4376625507026404
 13.6016082574254487 12.8855347857847971 31.4795692191831833
  0.9624624207332825  5.5855252420163275 31.7005147990762488
  5.1081392293917345  8.9987932411215183 25.4434453616754759
 17.6790275242385100  1.7613209547448603 25.4855696707885784
 21.4082006735406836  9.0174977571493606 19.4729046014298568
  8.9681700699199620  1.8787995152449286 19.4879845372563736
 13.5524161910698275  8.9945077973308827 31.2610973139730568
  0.9383525758214445  1.6908695854511571 31.5398825052320753
 14.8877789125606803 -0.0867001657316743 25.4732705216221476
  2.2927081667986542  7.1328093512045863 25.4274491294682612
  6.5551638737689624 -0.5394009859936227 19.3965683911076106
 18.9941162904262022  6.7350553436222604 19.6410560178797589
 23.1956079476356365 -0.0331325469467927 31.6695199358746038
 10.6103649309420547  7.3391516961974377 31.4060960900187567
 10.4984662334056118 10.9687674801752664 29.1194495520288825
 23.1047430997540992  3.6070989159660565 29.2433205741204922
  2.1704301184290817 10.9333113099361210 23.1347370455020815
 14.6889004692583480  3.6257160740965024 23.0310347561762860
 18.8203213686952502 11.0820051880004389 34.9226941578506143
  6.2397434195458148  3.5822962347464600 34.8010110095262846
  6.2702990475758353 11.0048335987520627 28.5616731256478715
 18.9646273758566331  3.7532981845186306 28.6991501925885508