Li P  S  Cl
 1.0000000000000000
    20.5609999999999999    0.0000000000000000    0.0000000000000013
     0.0000000000000033   20.5609999999999999    0.0000000000000013
     0.0000000000000000    0.0000000000000000   20.5609999999999999
 Li  P   S   Cl 
 191  32 160  32
Selective dynamics
Cartesian
  0.1145700522260811  2.9280117818379301  2.5861242137307019   T   T   T
  2.3066959033817924 10.0900376567886614  8.2191463799913311   T   T   T
 10.2671776816999856  7.7856688536596463  2.8732846704333972   T   T   T
  8.8447189596440730  0.8467110963765399  8.8802077573427329   T   T   T
  4.1708326798700917  7.4819889322256898  9.8387107043248161   T   T   T
  1.6011468655977317  0.5905932821675567  1.8036385338966128   T   T   T
  7.4952637706931187  5.0426476766488433  7.3727353134349904   T   T   T
  8.1548347301898634 10.3216851436333936  2.2368746353449782   T   T   T
  6.1409307199134888  2.6842460259444865  9.6248201965956355   T   T   T
  6.0333049437222748  7.4476321477982808  1.0692847763784701   T   T   T
  2.9814101406355071  0.6850747475586312  4.0076369434604322   T   T   T
  3.7696368844014274  5.8744921740207250  7.7412554041004791   T   T   T
  8.6519978166949461  5.5079552705121451  2.8262956949941982   T   T   T
  9.9816108734102471  2.6341365639495584  6.9162406360794924   T   T   T
  4.9779630134796449  2.6186219683005514  3.2877501727359375   T   T   T
  1.6816732379858104  5.9033878056596265  6.2583684647624187   T   T   T
  5.7465738312465708  2.6431794147745507  6.5396824117032013   T   T   T
  7.2249276028351401  8.1489246320218029  4.8339053860986070   T   T   T
  2.8175459991136580  8.8928817432764919  5.6080840000643937   T   T   T
  2.2272298216291495  4.0055252840361817  4.3333774903045219   T   T   T
  2.9623113200492783  3.7383739176491222  0.7614320424910551   T   T   T
  0.3561032796407092  7.8906596080251985  9.1824361205950886   T   T   T
  7.5035476366132334  0.7730671110855575  5.9959410073955555   T   T   T
  8.8986959836859540  8.1697642644481459  0.4519264622524304   T   T   T
  3.0798195158435417  2.3704521623060204 15.0938924264437393   T   T   T
  2.8161247841355221  7.3109309611867701 20.3220175443506790   T   T   T
 10.3622563758944874  7.1077352595486660 13.0134454762706220   T   T   T
  7.2186648753749614  0.6643558248403225 16.4186965424543345   T   T   T
 -0.0317320046447650  8.6204105508389599 18.6798224405611961   T   T   T
  0.6418334823373569  3.6687271098863445 13.2873694783441323   T   T   T
  7.4446140499114772  4.1609975671282928 16.3912025717545689   T   T   T
  8.2704222077306557  9.9948290598930125 12.5992353543526203   T   T   T
  8.1315126414620558  1.4600493539129922 19.9746216689178411   T   T   T
  5.8171957134691379  7.6030619282338181 12.5061653627961746   T   T   T
  4.9098899193144501  2.2371254595094752 12.9803846233193436   T   T   T
  0.9488726165362505  5.7186192724884437 17.9933625066846261   T   T   T
 10.3601874448355904  8.2432420609973640  9.5617114151147611   T   T   T
  9.8228424335698303  2.1265018553957287 17.8038831876113832   T   T   T
  2.7991254709494955  4.9134193295733981 14.2336661727423586   T   T   T
  4.3671056105278838  6.1094103158217390 18.0498386310421139   T   T   T
  7.4735131806443595  4.4905785937203673 19.3232508686875448   T   T   T
  7.1491669086593612  8.3277384924052225 14.9948690984376274   T   T   T
  3.3867222323718806 10.0711092122839805 17.6828960303788918   T   T   T
  1.7352286884689916  0.8401187017771689 12.1976051415995475   T   T   T
  2.5360975092168134  3.6761971531070183 10.3805430863366652   T   T   T
  2.1735030278564147  7.4237003048898904 15.8636800196709231   T   T   T
  5.2587748848799070  2.3505484141793751 17.7482316079779210   T   T   T
  8.0533237097443102  5.5914872082228522 13.1442573621697392   T   T   T
  3.2014028335744737 14.5694220308359217  2.0401295205764240   T   T   T
  4.7643116977353070 17.2514637873947869  8.7778824972914276   T   T   T
  6.1774386430508104 19.2194334795590223  2.3049493455780361   T   T   T
  7.1990243636315085 15.2072110765571029  8.3394957060753736   T   T   T
  4.3076420817662857 19.5740955660612883  7.5146543337211682   T   T   T
  2.7229148476128695 10.3269110770410908  2.6729277693941991   T   T   T
  7.1277324655978536 10.4234255919628058  8.0711173099951381   T   T   T
  5.9493635033242462 15.8157667204165033  2.6165405452420512   T   T   T
 10.1018451662326036 12.3772049516563918  8.3273485528409648   T   T   T
  7.9909000898297240 17.5511978583070309 -0.0536819122679413   T   T   T
  0.4323798543769011 14.8771666762502530  3.4991601439965678   T   T   T
  1.9718466279743851 18.1286990284923313 10.0293074968478386   T   T   T
  8.8292670547008534 15.1085294502494953  2.6498166506748433   T   T   T
  5.2974765693030488 12.7873138501931223  7.8748201740747312   T   T   T
  5.2654703080024783 12.0420281036385717  3.6080955676757456   T   T   T
  1.4745905815457758 20.1712122113351704  8.2689468572445239   T   T   T
  7.8442823847806764 12.9618045131701169  5.3607765922671664   T   T   T
 10.0150552106946247 18.0698327803405014  2.1946637029253901   T   T   T
  1.6973652978821163 15.7742375721347265  7.9035232114902794   T   T   T
  2.5900477467606233 11.9805905618003532  5.1377801731019677   T   T   T
  0.8660125883917594 12.4175746246528789  0.7384185660712828   T   T   T
  1.3713369273542917 17.6411717958872885  5.6501211162609826   T   T   T
  7.2855500465149632 13.0752731397042812 10.3491031574475230   T   T   T
  7.6761484944411587 17.6517882365030587  5.1584662304386946   T   T   T
  0.2033798822827940 13.7398341497945431 13.7911439959967232   T   T   T
  3.4574309317328549 20.2114306653162394 17.9295731951169088   T   T   T
  9.8774735530975857 17.6771847913763231 12.7533923284375739   T   T   T
  5.1771255374915341 12.2344702190509622 17.7348592113759693   T   T   T
  0.2515667872912134 18.7276484081536445 18.8309812361494409   T   T   T
  1.3879051435880301 10.9876314032623377 12.6099818283810201   T   T   T
  7.3899059568911811 10.4721625697656382 17.9498030245249822   T   T   T
  8.3167377878900197 20.5026963435783216 12.4236467586295820   T   T   T
  9.4516475291891471 13.9644197527194844 18.4584393481231501   T   T   T
  5.4613862796900818 18.2287435811674285 13.4556947900168211   T   T   T
  5.2072573969118929 15.1762909566257420 12.4695241035662328   T   T   T
  3.1252390608734477 17.9607915117278303 20.7280566250688949   T   T   T
  7.3636037681402335 17.8285815120975641 10.6098952213276938   T   T   T
  6.6277694130142413 14.6616199111346468 18.9143245329337120   T   T   T
  2.8454939164422002 13.0254600297875989 10.6377268768729181   T   T   T
  4.8327938816711997 17.6684477368480302 18.6697570687865380   T   T   T
  8.1509202031932730 13.1170127485868413 15.7966879851284272   T   T   T
  1.9483456515882895 15.6293754186484524 17.7836212324223766   T   T   T
  2.4976122389992410 13.7071292038370061 15.1931820120457690   T   T   T
  4.4757301457299583 12.2647684062083648 14.1767567241930834   T   T   T
  2.6001721880906801 18.2754012460719437 15.8656804449352542   T   T   T
  8.0057896825445063 11.6392621983929736 20.1369648265964400   T   T   T
  7.9955697574683873 17.2099004089020191 15.1606698970918039   T   T   T
 12.4863303012767997  2.8477261996557326  4.8741467738524715   T   T   T
 13.8535238009188237  6.9103788875924890  9.9941539482680426   T   T   T
 18.3023187859707654  9.9047715485729295  1.3097598896881939   T   T   T
 17.9770137679731334  3.0190985901975171  5.0452695444646700   T   T   T
 10.7726714886831374  6.9390875251263111  6.9076636518782868   T   T   T
 10.0865696531284765  2.4430083057947742  2.7153517319814515   T   T   T
 15.8163019094174615  3.5913378168297876  8.0606355858108394   T   T   T
 15.5597832932830524  8.3349575123468842  3.0428115503016935   T   T   T
 18.5591630902280720  2.5181614417446387  9.6437840465433755   T   T   T
 20.3825601065466699  8.1252498623575775  1.6909585662911877   T   T   T
 11.8929550716547592  1.9644697751379230  0.2636153968204102   T   T   T
 13.1032583998196781  5.1980606220724743  7.8172706366049542   T   T   T
 17.0690889774438261  7.0088021629986477  0.2393810321696885   T   T   T
 16.7181768431012436  0.5093877775978322  7.1205272341903338   T   T   T
 14.5871164708534256  2.9460068663811012  1.3409239730898632   T   T   T
 12.7120336839906738 10.0608307551487304  8.5448968985601308   T   T   T
 19.2997606422084687  5.4942259945745713  7.4891547395986597   T   T   T
 17.9535938951526539  8.7161946001007617  4.6964299454797320   T   T   T
 15.1266555034033594  8.2733883525292367  6.8730524124558841   T   T   T
 12.3223774504037333  4.9688401021765367  3.1975676834540723   T   T   T
 12.6616644967296832  0.3084212076331129  2.9533314371528387   T   T   T
 13.0381012792507516  8.1772884540454083  5.4681594668613229   T   T   T
 20.2663303642131041  2.4215891833066885  7.1267994952600047   T   T   T
 17.9383943566645492  5.6237925885048492  3.0284262980191223   T   T   T
 13.0157596515502760  2.8098159758925814 10.1670188691532370   T   T   T
 11.7156916957453898  9.6210396691902620 17.8641763375826130   T   T   T
 17.5595968571376915  8.3394001463033511 11.0177970681979485   T   T   T
 17.2591074197604115  2.9279672819225020 20.0560151114981196   T   T   T
 14.6295060502277874  8.1988856025871755 18.2655842546187230   T   T   T
 11.2630560903753647  4.1722866866688024 13.0201952124302913   T   T   T
 15.2492993089193973  2.0737660579196526 17.5451890139696474   T   T   T
 19.3468079442104752  7.1347245808682027 15.1666780827916448   T   T   T
 20.1775147934806753  2.5767860592662890 17.6947731611188317   T   T   T
 15.6963688194294200  8.1801394135078365 13.2750831755267065   T   T   T
 14.6483191848172485  0.6325133601817496 12.7280991240455084   T   T   T
 13.1970560090552276  5.3322179264108929 18.5982953843751559   T   T   T
 20.0298713799711408  8.7096166872737903 12.1995816501579171   T   T   T
 17.0281195852320550  5.0054647073896685 18.3126217073938093   T   T   T
 14.5717592860183291  4.6125362168428508 12.5126336161943907   T   T   T
 12.7232084215542187  7.3949958811638821 15.7285506531952137   T   T   T
 17.9081694264530142  2.7167882153619063 15.5022268247958621   T   T   T
 17.6418445368744443  5.7707794721584289 12.6324004459820927   T   T   T
 12.4848088582284742  8.1294549965555252 20.2034783779069684   T   T   T
 11.0503696997760095  1.3217954653335393 12.3385053460459524   T   T   T
 13.2314404873325948  2.6887039243212465 14.9614822684532704   T   T   T
 10.5496003873448743  5.5792802902168628 17.5002640425540434   T   T   T
 17.3544862956226602  0.0619276282958609 17.7610057315791110   T   T   T
 17.7104696172986813 10.2811563207186438 13.4164863407247665   T   T   T
 15.6932822031952472 13.1682124926842636  2.2265114700203141   T   T   T
 10.2970450328673984 17.8800510714218923  7.4457240420730351   T   T   T
 17.9488397366326886 18.3517436360828405  4.9415636772798708   T   T   T
 18.0132832388076487 10.5046717422024578  7.4597289748168523   T   T   T
 13.5397269857038047 16.3593334236152366  9.1160206068650513   T   T   T
 12.1358691337217994 13.0241860545172727  4.6442646523891993   T   T   T
 15.6287881551637842 13.7142510145097383  8.2386536539658337   T   T   T
 20.1566491202125277 18.3914474005241537  2.0204418064823697   T   T   T
 17.3996864458919269 12.6518903477164191  5.6393256756502241   T   T   T
 17.2921631634323596 15.7464095095906735  2.2378126123232942   T   T   T
 12.5631600712023879 15.1496643451153830  2.7303895892204793   T   T   T
 14.9471409385514384 18.7651207645062748  6.9826012148907424   T   T   T
 17.6981097452994867 18.1952604740243657  0.2652994887770300   T   T   T
 17.8776103998512461 15.2488692353372670  7.5263966100494759   T   T   T
 13.8291900140623998 10.8017337203475261  2.8870812357609128   T   T   T
 12.9793689855264667 19.4835698027145199  5.6971597465924431   T   T   T
 20.4234451092130307 13.4067470182938262  7.0404621084148387   T   T   T
 15.4576470026456914 18.8387903148109892  2.9965305528421600   T   T   T
 12.4182027187553032 19.1224193271468152  9.7190224787502704   T   T   T
 12.8312947023508013 12.7681162062499318 -0.0394371097627861   T   T   T
 11.1530420096579803 12.1236581308807381  2.0492461549322898   T   T   T
 12.1132854693756098 15.6493542954821141  6.6258000980027703   T   T   T
 18.7931055852069449 12.8288689440359196  9.9144648436612837   T   T   T
 18.1324226638127293 20.1565507631035850  2.2173802187410385   T   T   T
 12.7399663799793004 10.7760056855654955 12.8818540170153870   T   T   T
 12.8657885021904050 19.7823289835557290 15.6733524010155065   T   T   T
 18.7270312534339745 20.5814871622218725 12.3017666556453911   T   T   T
 15.6353925347500819 12.9538329152842469 18.5265759819461096   T   T   T
 13.5161862327786633 17.0256440530788780 19.7178758434605044   T   T   T
 12.0351493179484041 12.6579365795186476 10.6680676917230155   T   T   T
 17.6239245490027194 10.5861657300268277 17.3726303866888827   T   T   T
 18.6003351061373614 18.3094251823080718 10.3554808861887011   T   T   T
 18.3940101672737555 12.9793856606682585 20.2721893334805117   T   T   T
 20.4642661561442694 17.8419977364575182 12.7746433883068331   T   T   T
 14.4243874089136721 12.4808728819346175 14.5573100717454640   T   T   T
 11.6049464270417140 19.7728909906063919 18.8345925145961530   T   T   T
 18.7933620969242945 15.6742252941627171 13.5441780661651894   T   T   T
 20.5802135659561536 13.5226341066494982 17.3150618625373625   T   T   T
 11.1137070299835141 13.0782473340627732 14.0821773771597591   T   T   T
 15.1597615289881986 18.0551487048135968 16.7778803915628814   T   T   T
 17.5319240954891384 15.1205675601611595 18.8911868709292321   T   T   T
 17.5278072422602875 18.4617283909219516 14.6585370650156825   T   T   T
 12.7732557654882246 15.9099560506141966 16.6214763973528363   T   T   T
 13.0094818485867894 15.2234954470346828 12.8682431503260926   T   T   T
 15.2698247565346144 13.4630327322764369 11.5310167600899067   T   T   T
 10.2752739279761762 17.6754800290878862 17.0511488422219699   T   T   T
 17.3991970207577182 12.4552444631401400 15.6712846155470658   T   T   T
 16.2171863183184648 16.4534721322598436 12.2802212356554374   T   T   T
  0.0005864274929811 -0.1374911158162802  5.0970137576182664   T   T   T
  5.0283654629827126  0.5235694227530517  0.3208451834472726   T   T   T
 -0.1553848485354136  4.9855458218059896  0.0252036845290943   T   T   T
  5.1326840916047480  5.6812516054508650  4.8736518087898455   T   T   T
  0.0796902167765914  0.0185668977317437 15.3018872598708491   T   T   T
  5.1799304224337641 -0.0408967721076295 10.1535570418151622   T   T   T
 -0.2138804875668786  5.1376393130531870 10.5099048990309498   T   T   T
  5.3380870544357135  5.2982678975523276 15.1897118272671268   T   T   T
 -0.3549317642326397  9.9866945763938695  5.5639199358778155   T   T   T
  4.9772976157142965 10.3045208013647880  0.0395186703842583   T   T   T
 -0.0653948446622044 15.3546508081941599  0.4134265249557306   T   T   T
  5.0541779176101516 15.1933374884177965  5.2927578386740191   T   T   T
  0.1324399581382090 10.4295926995463137 15.6165588231157919   T   T   T
  5.1639219089503392 10.2429291501263791 10.7635922977218108   T   T   T
  0.0001550435082330 15.2975130893670794 10.6013052719432022   T   T   T
  4.9986513074681618 15.3729607567644635 15.7144227518417026   T   T   T
 10.0613494292180512 -0.0783508433685971  5.1917995727536219   T   T   T
 14.9434353118885994 -0.2857898106287319 -0.3441102023637184   T   T   T
 10.1485932612582008  5.0266173291911862 -0.1025404827226771   T   T   T
 15.3411704352536233  5.2819086737397809  5.0331110693845194   T   T   T
  9.9918104375522176  0.0555601566258840 15.2602061911990106   T   T   T
 15.7073625965382959  0.0404697105818877 10.0139804017908585   T   T   T
 10.2300484441790456  5.0880666567362365  9.8414043283310413   T   T   T
 15.5005328844569039  5.3950243049739868 15.4662838075406057   T   T   T
 10.5122971493215029 10.3986475706031563  5.1987659529177854   T   T   T
 15.1998429809844637 10.2444766530446074 -0.2696348960940252   T   T   T
 10.6024999374994362 15.5345356927092286 -0.2806075089948059   T   T   T
 15.3566930213103969 15.5535582299433237  5.0202331505646187   T   T   T
 10.3190360749280181 10.2385311624830813 15.4801033852871761   T   T   T
 15.3205455099913177 10.3511072469905177 10.4287449633931306   T   T   T
 10.3581550139227101 15.4870532342663392 10.0240634444381627   T   T   T
 15.8026008762619448 15.5694121459758659 15.2674160432691810   T   T   T
  1.4473820927415109  1.0016831043446637  6.1150877974022748   T   T   T
  0.7712285562606724  9.1278455870986797  4.1043524217755341   T   T   T
  9.3457398203801461  9.1232543611407344  6.3208788309847002   T   T   T
  8.8047068136799247  0.9941055429466723  3.9541909278439054   T   T   T
  6.3414136453465479  1.4916996305927397  1.4909476598238793   T   T   T
  4.0906287716196505  1.4224544097413447  9.1392963304127317   T   T   T
  6.1704051992902356  8.8469607402741453  9.5831386962391232   T   T   T
  3.9925112403067988  8.9800424140083113  1.3114975233919519   T   T   T
  1.0840646112467196  6.2710569376519461  0.9588456108960639   T   T   T
  8.8300324797136227  3.9434700189034060  1.1537299445785105   T   T   T
  8.7479563800839735  6.1597088098619981  8.7261146307916100   T   T   T
  0.7332219355503921  4.2295636364159623  8.8185984901956527   T   T   T
  6.1685702676331564  6.6866369133951817  6.3118743275444436   T   T   T
  6.3601708828381911  4.3513286620133940  3.9480426573536835   T   T   T
  3.9865311376455468  4.2194393836379174  6.1355723140915606   T   T   T
  3.9762925677354146  6.7684568876630289  3.6247281158039510   T   T   T
  2.5692648045276552  2.5871220329123958  2.5779734200905255   T   T   T
  2.4988116043303559  7.7216897307002750  7.6138100236052795   T   T   T
  8.0006016873113968  7.7242726629279970  2.5133594480268435   T   T   T
  7.7832920741362175  2.5899273226784816  7.6043071551572687   T   T   T
  1.2357482602691283  1.1569631037282782 16.5899916281422932   T   T   T
  0.9576223724739693  9.0853292739063019 14.2703422219439151   T   T   T
  9.1637853096603479  8.8718295394495286 16.5329531688849727   T   T   T
  9.0571632608527466  1.4782072016466064 14.0485145015819306   T   T   T
  6.4197476265431854  1.1077653278615345 11.4444844499827898   T   T   T
  3.8590437812776144  1.7611722626111419 19.6955675585451502   T   T   T
  6.0933494056969399  8.9729645303655587 19.4104453853585852   T   T   T
  3.9397303214564428  9.0840440590391616 11.9044170540913186   T   T   T
  1.1771332834803150  5.9736083753781202 11.6424478133022884   T   T   T
  9.3637152024837693  3.8510139580400686 11.0782453294013497   T   T   T
  9.0354668730328527  6.3036998075217072 19.3011161118806243   T   T   T
  0.8010684706140477  3.4807413731257943 19.5782080570948693   T   T   T
  6.6771530519856359  6.2858331463040722 16.4461445406948101   T   T   T
  6.3299486905564759  3.9298495889110812 13.9860079782887841   T   T   T
  4.0648203170771966  4.2407085185712665 16.4052973438369563   T   T   T
  4.3040815166286341  6.7280442126177942 14.3081250074691813   T   T   T
  2.8122660451075165  2.9292955025512439 12.8000722085002998   T   T   T
  2.6176897953741256  7.5512046925346530 18.0168336568470409   T   T   T
  8.0231071022486038  7.7370684339956108 12.6815633863514083   T   T   T
  7.7379289844827310  2.5649083173521321 18.0562415243845109   T   T   T
  0.9794532258154072 11.2337441003656302  6.5828712424405467   T   T   T
  1.1006129082473766 19.2329606907867223  3.7521295502265595   T   T   T
  8.8258168056482820 19.2770419049522452  6.3923905677634298   T   T   T
  9.3105925691322060 11.6481068997828530  4.1266735732230577   T   T   T
  6.1671744830946533 11.4823128000570129  1.2328985165946749   T   T   T
  4.0399299846551786 11.5845065731168457  9.4952579098404577   T   T   T
  6.2355674911163774 19.4165765235623375  8.7330495398682970   T   T   T
  3.7162446011885590 19.9622292166927124  1.4448041000227094   T   T   T
  1.1327617670259966 16.4099543845086728  1.7602777675698491   T   T   T
  9.5144042666059203 13.9645892217889234  0.7454848432434169   T   T   T
  9.0068143987499081 16.7374616477688747  8.9615473370845500   T   T   T
  0.8559484669403966 13.8755806674081814  9.4804453576197893   T   T   T
  6.0364991834905872 16.4250877225260652  6.6728596089985581   T   T   T
  6.4644132651711601 14.0339582677624382  3.9880395441179255   T   T   T
  3.8550753268753897 14.1450506317806965  6.5544717393864005   T   T   T
  3.9680564165148864 16.1976517171228664  3.8992859617065667   T   T   T
  1.9387302842618339 12.4402521617451285  2.7117275292305698   T   T   T
  2.5690695908883860 18.1281290768564176  7.8653916049858283   T   T   T
  7.6701062054170022 17.5508226492687953  2.7482330146423792   T   T   T
  7.6259428619913114 12.6006229764543445  7.6963892940391627   T   T   T
  1.4919811182119276 11.2330272151423358 17.0077648927275078   T   T   T
  1.2399088053890699 19.4215215911544021 14.3083058350839050   T   T   T
  8.8657776086506175 19.3710019422201931 16.5213435312874708   T   T   T
  9.2210299515008582 11.4889219901670394 14.1893863459551977   T   T   T
  6.4505812931457003 11.3874584541398338 11.8278496072603883   T   T   T
  3.7686718898455807 11.4799674624845203 19.4487200869222150   T   T   T
  6.0424197732815035 19.6566310381236775 19.7007765513824111   T   T   T
  3.9529351767574399 19.3124169227962668 11.1579052840075956   T   T   T
  1.4239738960403014 16.2191126244099060 11.7720262616082660   T   T   T
  9.4179833289706849 14.0724650237205555 11.0524013401999266   T   T   T
  9.2208388142780091 16.3292371329687782 18.9789689669264803   T   T   T
  1.0085471558389125 14.1035650893146460 19.6796332121942896   T   T   T
  6.2356990157018757 16.4602819837070591 16.9256669298721647   T   T   T
  6.3090749734158091 14.3077712318970693 14.5604381091270927   T   T   T
  3.7825414537736815 14.2877333804849478 16.8957389000665756   T   T   T
  3.9195162540536201 16.5255220572849915 14.4147588618030547   T   T   T
  2.5803530890812127 13.1503680533689842 12.8709587725750065   T   T   T
  2.4554637397029961 17.8419732609500414 18.1283476433471833   T   T   T
  7.5835008116742699 18.3218151489011944 13.0936335520938130   T   T   T
  7.4166644593122077 12.7801869071570700 17.9390262426193559   T   T   T
 11.3848956742960414  0.8117558887583011  6.4559074994057317   T   T   T
 11.5369609691965067  9.1780862612516820  3.8988898527778892   T   T   T
 19.3354206080916597  8.7777194150542623  6.7739417265104063   T   T   T
 19.3480821531326548  1.0364536456661162  3.8698174187534740   T   T   T
 16.3408044982711225  0.9256421445315297  0.7669600721731448   T   T   T
 14.5544116880126193  1.3511671447474685  8.8468836374883608   T   T   T
 16.1534763554733125  9.0882437700552821  8.9984553336226227   T   T   T
 14.2117636942509034  9.1064125507063576  1.0754630471042332   T   T   T
 11.6107352831931774  6.1738280821224345  0.8867283289897000   T   T   T
 18.9194832778849147  4.2485146252323043  1.3893295624539705   T   T   T
 19.1865352441116350  6.6288346194889751  9.6358085655633374   T   T   T
 11.4059273105573773  3.9354090437219051  8.5161738989380762   T   T   T
 16.6372031033220011  6.2299419217456871  6.0720649440210774   T   T   T
 16.1608505086809338  3.7472890805985357  3.7846185330613538   T   T   T
 14.0110514081096103  3.8864371318132749  6.0788446597609056   T   T   T
 14.2390024978731287  6.3918674480109132  3.8028110114675000   T   T   T
 12.4217606804850949  2.5373498374370267  2.4431212130034532   T   T   T
 12.7730663914868874  7.6675313533822838  7.4637630359135452   T   T   T
 17.9403303269428775  7.8251218885456515  2.5868844382221674   T   T   T
 17.8617920941010233  2.5771743275019130  7.3482075501393798   T   T   T
 11.4523786362152560  1.2527679314456874 16.3502336552528931   T   T   T
 11.6858832907611561  9.2392813752879235 14.2898837076423817   T   T   T
 19.3945954757227632  9.1550346552384934 16.6148118523221981   T   T   T
 19.5846189341444266  1.4290599901605348 14.1213179969190374   T   T   T
 16.9699795141457983  1.2019447424900689 11.1465186835373924   T   T   T
 13.9095519606404761  1.2690999834440959 19.3297593609072749   T   T   T
 16.6072319588239452  9.0378286066666931 19.2515860392503271   T   T   T
 14.1956279761364783  9.0687179767343977 11.4674476075989755   T   T   T
 11.3862897884229568  6.5190470128333118 10.6829371184096118   T   T   T
 19.0907350719801698  3.9004072831823384 11.5837249403759657   T   T   T
 19.1712779181472754  6.0568042339749306 19.0488518846791663   T   T   T
 11.2242312618685727  3.6354748546198605 18.9891348075275346   T   T   T
 16.5462370796480300  6.6351146598604185 16.6430813431175579   T   T   T
 16.4387027194107382  4.1211054965532226 14.2731233171438596   T   T   T
 14.1812476400252852  4.1608229507509851 16.6107654064928951   T   T   T
 14.1664340137519726  6.4893967563253785 14.3293892330191976   T   T   T
 13.0857160133953272  2.6235404768481456 12.4732955259538976   T   T   T
 12.5778711951112356  7.5213984827127849 17.9259078816585031   T   T   T
 17.9335564403961918  7.9861276633069140 13.2037179710236519   T   T   T
 17.6385962103137750  2.5703777797385703 17.6253385731450223   T   T   T
 11.7202899694889755 11.4139648264290656  6.3939298463484109   T   T   T
 11.2398723449851072 19.1880314348867849  3.9439249389996496   T   T   T
 19.6370487882392055 19.3692089146369248  6.3874329312924170   T   T   T
 18.6454901821434937 10.9336773873656607  4.5494141881225056   T   T   T
 16.5390659124499990 11.3400101537171007  0.8849736280499036   T   T   T
 14.2533880261754273 11.7848635658769467  9.5067824108960597   T   T   T
 16.7827212355479496 19.3642321493540379  8.9008241870756191   T   T   T
 13.5170093348622267 19.3476251292991073  1.0259827967796422   T   T   T
 11.5527675896970479 16.7908771488442952  0.9611821962340368   T   T   T
 19.3901266933906733 14.0834689492994247  1.5852727509091584   T   T   T
 19.5395471451862228 16.4752579089690947  9.2946565128134413   T   T   T
 11.4905747043520527 14.3036658967564279  8.7423436475379628   T   T   T
 16.4062256225522063 16.7590756841772190  6.2683794260863994   T   T   T
 16.8120844176479984 14.2949842990009870  4.0988778775182784   T   T   T
 14.2231004852087235 14.2660478795790695  6.1679935335554088   T   T   T
 14.3674515749482765 16.7613614699960785  3.5585313346258962   T   T   T
 13.1585012503286620 12.9370257803702344  2.3506604353944351   T   T   T
 12.7235602362443689 18.0585898323893126  7.5377176644351112   T   T   T
 17.8492822280810088 18.0866150136430441  2.5513033371569560   T   T   T
 18.0240728014520855 12.8318297134879220  7.7965644377287697   T   T   T
 11.1584374354088105 11.6847797658903048 16.6720804650497456   T   T   T
 11.1700003570000206 19.5811575677271463 13.9069121858463589   T   T   T
 19.2841912472272554 19.3859087608795448 16.4723890263713599   T   T   T
 19.4591225608321388 11.8126561132283374 14.8258408374184292   T   T   T
 16.7180144432209588 11.3485998061900215 11.4284743331838232   T   T   T
 14.0037607605648304 11.2826225956223549 18.9730487758657134   T   T   T
 16.1629177785206330 18.9854205722788016 19.0958797831993934   T   T   T
 14.4806934295726002 19.5681626575769059 11.2217508149234462   T   T   T
 11.7104434329516263 16.7234330843594137 11.1433921515983858   T   T   T
 19.4797246865855378 13.9366047102967485 11.8679929880445005   T   T   T
 19.1858403669712345 16.3922486923196331 19.9497177083903026   T   T   T
 11.8585628627932902 14.4725465873759678 19.1644663003285842   T   T   T
 17.1690273005592680 16.5024241479670870 16.5179050312421083   T   T   T
 16.6726415277331590 14.3689826556722142 13.9496277804083579   T   T   T
 14.4997490583307869 14.3239235112723939 16.3370165096703417   T   T   T
 14.5709747273760684 16.9375451455255366 14.3236823709249013   T   T   T
 13.0171515202631127 12.9458994646582060 12.7550527507332223   T   T   T
 12.4621556707770456 17.9666201123897871 17.6505315138612957   T   T   T
 18.2777912115603698 17.7818265188729328 12.6077779715686269   T   T   T
 17.9791630598644332 12.9435785049239804 17.9620421264656400   T   T   T
  0.0487551794723229 -0.5692819160154921  0.3963923384346801   T   T   T
  5.4779709983175326  5.3340034093755806 -0.2113119263262153   T   T   T
  5.0965120199357719  0.2859327536931550  5.1962718145545805   T   T   T
  0.0458779541964378  4.3403286510090329  5.1752498022772651   T   T   T
  0.4264417205036057 -0.0680112446086986 10.7223278434515574   T   T   T
  4.8300521907881784  4.7657543198637189  9.7109399786399813   T   T   T
  5.0781714755967187  0.2163697526485547 15.8876208290623460   T   T   T
  0.5020983252773448  5.1723569331604056 15.4584603763781470   T   T   T
 -0.2678748140112995 10.0656375023560933  0.2549173175656655   T   T   T
  4.7209807865131390 16.1740023847366174  0.4113391448899817   T   T   T
  4.3604249613143207 10.4997636612517216  4.8856765734995644   T   T   T
  0.3196833901944170 15.1926880676251876  5.9136106162314332   T   T   T
 -0.0585951399457288 10.3770010590713184 10.7139516507446135   T   T   T
  5.7169975121663956 15.3016559341212375 10.1999610398223339   T   T   T
  5.0341438372982905 10.6376350325015654 16.0411055344905265   T   T   T
  0.2314727234950838 15.2175008063056882 15.6209026225632712   T   T   T
 10.4002855914271652  0.2616592308633116 -0.3002724703045528   T   T   T
 15.6376218034309247  5.0745064291836384 -0.4843913169180197   T   T   T
 15.3770723146422110 -0.4273474900233448  4.8813783707831702   T   T   T
 10.3524657655432346  5.1886422276475681  4.6189152975032197   T   T   T
 10.2675706880897604 -0.3186456023246712 10.3777226956573294   T   T   T
 15.2011750366138667  5.0905183056824139 10.0987786034985927   T   T   T
 15.2846057117213103  0.0375986948864836 15.3155877421304130   T   T   T