Li P  S  Cl
 1.0000000000000000
    20.5609999999999999    0.0000000000000000    0.0000000000000013
     0.0000000000000033   20.5609999999999999    0.0000000000000013
     0.0000000000000000    0.0000000000000000   20.5609999999999999
 Li  P   S   Cl 
 191  32 160  32
Selective dynamics
Cartesian
  0.8445495561132071  1.1423899063382714  1.3865627397368470   T   T   T
  1.0707985979861050  5.9848225898934118  7.0327314074569376   T   T   T
  7.4125377135240829  8.3743922463222784  5.1037494687390881   T   T   T
  6.7514819966620845  0.6556905810953758  6.8435541085240015   T   T   T
  3.0486846666046254  8.0503161836982162  5.6007966937562443   T   T   T
  3.2554035718784293  0.4254181665366082  3.4293449224056176   T   T   T
  9.6345360689802657  2.6323250862822607  7.7319559697464921   T   T   T
 10.0310880651123320  8.8409874976785066  2.2228172066349563   T   T   T
  7.4428900937770122  2.6482404950328440 10.1824689719079817   T   T   T
  9.1728103350914356  6.0633280872768855  2.9066174580251367   T   T   T
  2.9064384418672620  3.9457031009110262  0.6837834180517598   T   T   T
  1.9682607371635330  8.0772131685088802 10.4358614236806826   T   T   T
  7.8311158161841261  8.8268336297801664  0.4918066327632423   T   T   T
  7.0761024639670111  4.8808308059999508  8.1302636348720814   T   T   T
  1.9884652171942370  4.7198475871984567  3.4764183126384247   T   T   T
  4.2186307594359986  6.1895406040980410  8.1503701424314485   T   T   T
  4.6044514699642596  2.9319629242601999  8.2414344039780971   T   T   T
  5.8882051537982951  6.3220896454685018  1.9881009585944176   T   T   T
  0.7458349539843994  9.1118864808514299  8.1707620611420158   T   T   T
  3.0389692477741956  2.1259025261688844  5.1295484168568324   T   T   T
  4.9506380190651313  2.8798120634940356  2.4566578974777791   T   T   T
  4.4687085769713155  9.4314021628531837  7.9871213893228408   T   T   T
  7.5911884597725283  3.1622335489934970  5.4313164741372937   T   T   T
  5.6286117951608992  9.3389761272451164  3.0515952804432436   T   T   T
  2.1617502589465492  0.4613092702136526 11.6046844754012657   T   T   T
  1.8840799532093506  9.7891289069970426 18.3562642889285428   T   T   T
 10.3518109429455460  7.1285772482192717 13.4395044472753113   T   T   T
  5.4689972959183137  2.2413747501507943 17.6150777837931471   T   T   T
  0.4494051030313093  7.0252610046176409 17.4814489810693949   T   T   T
  3.0992028913832481  3.4941536705840375 10.8655826005250731   T   T   T
  7.4736867628362882  2.1260015185196557 15.8675133614527759   T   T   T
  9.1215347939440043  9.9579159486514985 12.5832010857693035   T   T   T
  8.0871259000168720  0.5139356486366153 19.0888261499290195   T   T   T
  8.0810102131888897  8.0226882328340725 10.9218836263495263   T   T   T
  2.9351006775937751  4.1380732959527453 14.4783942340597935   T   T   T
  2.6599134355258927  7.6292103251817869 20.2277485937247619   T   T   T
  5.8273174486774071  8.0915101285552016 12.8515258017822571   T   T   T
 10.1182301934160801  2.3856831882676555 18.2931015272358763   T   T   T
  2.5456867719449550  0.6325244469251138 14.7450447421811965   T   T   T
  2.5256317541462914  5.2532857786502136 17.6068149738895841   T   T   T
  7.1206110319955940  4.2264448288798668 19.6402152754656285   T   T   T
  8.1246190064956743  5.6857689614927400 13.0635207740555845   T   T   T
  5.0222148005676432  7.5394353325769767 17.9945645914178769   T   T   T
  0.1597682092010702  2.3187724293720056 12.5999948919635649   T   T   T
  4.9769368033521539  2.1306905533593210 13.3620202586920467   T   T   T
  3.3073929163237619  8.2828681066205103 15.8739711706106394   T   T   T
  8.3671853125781084  4.5578697137818347 17.0523921955055400   T   T   T
  7.2661276730996223  8.5298195282768869 15.4521771881556642   T   T   T
  0.6943554930893702 11.0103269614589294  2.2720110266912061   T   T   T
  4.0491634630770950 17.6152345345973238  9.9867859337568650   T   T   T
  7.1301395596527621 20.3677759526690103  3.0999760440543893   T   T   T
  6.7173685844130517 12.1174470635936480  5.4680083160691542   T   T   T
  1.8422046812084683 20.2210784080759609  8.0217408736872482   T   T   T
  2.1853521544718419 12.8911975459090353  0.0243815568468514   T   T   T
  9.6382934676601533 13.9325531382981787  6.9404305685568408   T   T   T
  7.3510675972203341 17.3216395225644888  0.1734582539193799   T   T   T
  8.9067648786350109 11.2305494019612695  7.8978512491141153   T   T   T
  9.9001438073299344 18.1008228684004955  1.3203714520854630   T   T   T
  0.2970531737074969 14.3107388392091561  2.4263957333913013   T   T   T
  0.8652024776297479 18.1771266862356171  9.5684031192424754   T   T   T
  5.3406353468224879 17.5768279487960726  2.1708178298628460   T   T   T
  7.0308548629130607 15.3297751077849007  8.3549586423996285   T   T   T
  3.2836205652609998 15.1717901278744023  2.5096000893327872   T   T   T
  1.3464908768789754 17.7591605159226411  5.7946140127637555   T   T   T
  7.7694860456758583 13.0302405420513239  9.8261060703270253   T   T   T
  8.2964049664805177 15.6253067739195526  3.1985185277240800   T   T   T
  2.4321599570512453 15.5919731974978024  7.9523073541665559   T   T   T
  1.6747940403958821 13.3519630656724324  5.3025412108707703   T   T   T
  4.0840031187334853 11.9584535838382120  3.0577868058050757   T   T   T
  4.7038697605587467 18.5475097428189244  6.9276730590765760   T   T   T
  5.3456162583752160 13.0729273557941124  8.1939054506615570   T   T   T
  7.9565506712301080 17.7059653219029087  5.0987874448982904   T   T   T
  1.1749867487285015 12.5625655448540492 10.9488316505132293   T   T   T
  1.7474530589858384 19.9584813609598939 18.9778358603781463   T   T   T
 10.1203827984363777 18.7361082797179463 11.7994778598309011   T   T   T
  5.9238846250860311 11.1370783337561505 17.8607801949966394   T   T   T
  2.5626439540594159 16.4672950148427546 20.0684029500038470   T   T   T
  2.4176777301865968 10.7606461649473459 12.5233660265033055   T   T   T
  9.3696991266441376 11.1734457611634426 18.2118925277741290   T   T   T
  7.9331118730571433 20.2092329891738096 12.6956238825507057   T   T   T
  5.6096147807594043 14.5047168939978146 18.4895017039349305   T   T   T
  7.0427328276943966 17.1494734461189005 10.9101595466677814   T   T   T
  3.5429406112430972 11.8525903007975071 15.2333782485314817   T   T   T
  4.4968455838166923 18.5685875484433964 18.0876176083840079   T   T   T
  9.3981992593492691 17.8108640499385800 14.9534922065638423   T   T   T
  7.8415055528429232 12.7342923223796340 20.3516964010894270   T   T   T
  0.6647942247643781 13.2827479975726330 14.3075499810245770   T   T   T
  2.3265536848681037 15.8186052406195827 16.8323757342623601   T   T   T
  7.3593860009241716 12.8787287456789876 15.9016629653991277   T   T   T
  5.4617050383770867 18.4791111488944573 13.7190669605477034   T   T   T
  2.8435866587366236 18.6382299228096606 16.0724984330226661   T   T   T
  4.7853461089739007 13.3284731417962412 12.7176133150730308   T   T   T
  2.5574289746285173 15.3343251316028315 13.1748287245032909   T   T   T
 -0.1329880660835020 17.5068491486694811 17.4228728572894909   T   T   T
  8.6608353662621127 14.8975444430064847 17.5704811786428863   T   T   T
  8.0602145231171338 15.8909535647075906 14.0092969181628924   T   T   T
 12.5072533902806118  4.1458564869925389  4.2844401216438799   T   T   T
 12.3278831643830280 10.0616077840479861  7.6243322008143437   T   T   T
 17.1197010538513936  9.7310521784867330  2.5748669585098165   T   T   T
 19.9017453322785443  2.3512683636317275  9.2495696784800661   T   T   T
 12.7375353716771702  7.3114868152243435  5.2172464179864484   T   T   T
 10.4441288019526475  2.6899010710149889  2.4798805941420818   T   T   T
 18.8010874663570391  4.9075214856535991  7.1111304287998927   T   T   T
 17.5421816643436586  8.2661497476970993  4.5731070424175240   T   T   T
 16.6129984511062219  3.4862227678291586  9.3906223545920771   T   T   T
 15.6967655669117150  7.1026494095440000  1.6226505281554047   T   T   T
 12.0783992526367747  0.7388922092422717  0.9383429582887104   T   T   T
 10.5259636991129355  6.9573495201426736  7.1589644690568592   T   T   T
 18.9511463594334941  8.1670231007445935  0.5140061668268259   T   T   T
 15.7890855830596450  2.2227778952068897  7.0119048330681801   T   T   T
 14.9125744601155521  2.4834933050801116  1.9495046798615341   T   T   T
 12.6711438690771079  4.9642394969127919  7.7600512576222176   T   T   T
 17.9278876689084044  0.3660417723944114  7.4034791383492609   T   T   T
 12.4517866793885403  8.0718662636035798  9.9088702127072334   T   T   T
 18.3268412258676889  5.3901173512501943  2.6858120999645414   T   T   T
 13.1816593741579648  0.8761313911418924  4.1590804001586248   T   T   T
 15.0401565989227031  7.6374931449631918  7.5152860000866619   T   T   T
 19.2832899335280601  2.4933446443295351  5.6968038993350989   T   T   T
 20.3189129173260099  7.5957031790064509  3.9940484525757176   T   T   T
 12.5141919532296129  1.3290010531445344 10.7450968995659792   T   T   T
 13.0097220060847381  8.8173541921901677 15.6193699138046505   T   T   T
 20.3954115288333568  6.8978414325201651 13.2368639066177192   T   T   T
 16.9954816170017793  1.7612611739214470 15.8945253271723264   T   T   T
 10.6875528273745672  7.1097842371755737 17.3294449221408513   T   T   T
 13.7056441408927547  4.5712161692696922 11.8124977076142468   T   T   T
 20.3241691630104313  2.9891177387743570 17.6448657005834768   T   T   T
 18.6771616254535857  9.9790107518041093 12.1294190755656981   T   T   T
 18.1394979966748338  0.5792304404147707 18.9409188857160693   T   T   T
 17.5360794171623624  5.0623073039320081 12.4138696867100080   T   T   T
 10.8081708488621686  2.3304162366632668 12.1571644909874763   T   T   T
 12.3277163194403077  9.7002639587979544 19.1488082520056224   T   T   T
 17.7933354000407462  8.2120279587133513 14.8328686554452993   T   T   T
 17.6031632787960532  3.9399078965531702 20.0751553252731441   T   T   T
 12.1939067380232746  3.8437844580416822 14.8838466324336913   T   T   T
 12.9119404067779460  4.8420425208975955 22.3942240051754951   T   T   T
 15.3765494714118383  2.9851179631670055 18.6741506929933507   T   T   T
 17.7129957754981859  7.7386143942825498 10.3346720351604215   T   T   T
 15.1067461602109656  7.8507451809552053 18.0863569019756838   T   T   T
 13.2896193469550372  0.9918038300381899 14.7656440605111339   T   T   T
 15.3271128850751932  2.2184201569402822 12.9705860626184624   T   T   T
 12.9641531246428769  5.4493773779850132 18.4247023845959674   T   T   T
 17.9961355169931494  4.9416618123300529 17.1057438256521301   T   T   T
 15.6257805889439076  7.5743529021829774 12.4512447430208901   T   T   T
 14.8028395156555028 13.0609534054035059  3.6591952695276513   T   T   T
 10.4762923412726199 18.2951184672543086  7.7773883973663960   T   T   T
 17.6315743774969391 15.6171798206917796  1.4244387201469551   T   T   T
 18.9408247828717649 13.5132153582530652  5.4529083514372010   T   T   T
 12.9320068766033369 20.3572826615748497  7.6264574535442753   T   T   T
 13.3120494195452910 10.5251441592902459  2.8549627070143444   T   T   T
 17.7081542413691082 12.9068920719469915  9.9987876293065234   T   T   T
 20.4084318850816757 18.2528646939061012  2.2167125294399637   T   T   T
 15.6615757471061663 12.4856702993348723  7.7605269792299181   T   T   T
 17.8559326753914647 18.4986945755215650 -0.0224729929635614   T   T   T
 10.9160330425043259 13.7093838654458224  3.3691368248257629   T   T   T
 12.4325763477142281 17.7725021929407205  5.0734492090303567   T   T   T
 18.0035840246043435 20.1766646723348408  2.9150151287250154   T   T   T
 20.2456947704608368 12.0113292887003080  8.4782442496963757   T   T   T
 11.3407763343055397 12.2658469963680474  0.9995928288551817   T   T   T
 15.1731488556566667 18.5832196432764079  7.1765902691371792   T   T   T
 17.5273244277507985 15.0585437194193101  8.0570969264097805   T   T   T
 15.8637412046155148 18.3730087049239899  3.1627902139661987   T   T   T
 13.0770148307963723 15.5147391071601870  7.5715766011193928   T   T   T
 12.8530912876437000 15.1543815985475359  2.4193882993052993   T   T   T
 14.6336346010488469 13.0510718500627902  0.3734664433343923   T   T   T
 13.1664577867854131 18.0083224231877779  9.7997003032419947   T   T   T
 17.9100647353575226 11.0252546393594848  5.7927127208158158   T   T   T
 18.6293900065423230 16.4047514859870951  4.5305755194281945   T   T   T
 14.8956573258829170 13.8604243302621573 12.6849250128573345   T   T   T
 10.6102594932505969 18.4011421242060145 18.2539347854317242   T   T   T
 20.1628601520487081 17.5072222121344119 13.5671241416007806   T   T   T
 19.8205690112902175 13.3472410446453402 18.0110821920482920   T   T   T
 13.6815072783828722 17.3019389239820498 19.7458432706767688   T   T   T
 12.1772614331189857 10.8828916535429556 11.5492948616324114   T   T   T
 17.3016620173776090 15.2662050331395971 18.4879996334080978   T   T   T
 15.8046553638424143 17.3260559499877900 11.7385433605361094   T   T   T
 18.4327597189375183 11.6282785295207152 19.8763024400133688   T   T   T
 18.6734760117093685 18.3745603768829078 10.5223756144943419   T   T   T
 10.6728228341994900 13.6221451778466918 13.5403965067933250   T   T   T
 12.5566118254211272 20.2375468818633983 18.3130320107426385   T   T   T
 17.8540704070398419 15.5054670633878011 12.5338431294535102   T   T   T
 15.3606205820250441 13.3290297179681616 18.3592441107950179   T   T   T
 14.9090937315507617 11.2229428027776574 12.9949346183200394   T   T   T
 15.2910474625305746 18.6932851771359481 16.9418404079640119   T   T   T
 17.1015316551698220 10.3454860260415895 17.3060104769058611   T   T   T
 17.5121555063189476 17.8700538235779689 14.9128757634582652   T   T   T
 12.8226938506599062 17.7305426020098267 15.3230890009285101   T   T   T
 13.4474775739488113 13.4426512387549320 10.2340984985087466   T   T   T
 13.5957684817682818 12.2001391612346808 15.3870107878063944   T   T   T
 12.4373842386227036 15.4548573433727920 17.6779330929243024   T   T   T
 17.4567713812778038 12.4430546382476805 15.5293831306855701   T   T   T
 17.5702519428433348 20.0835556765354504 12.8595287980834048   T   T   T
  0.0431927797085887 -0.0746556146521152  5.0343161128093223   T   T   T
  5.1652279381169430  0.0284935602358095  0.1786263461904450   T   T   T
  0.0430153369878340  5.2635486532620543  0.0911714026257535   T   T   T
  5.0330783360314877  5.3294537164123037  5.1479923618933547   T   T   T
 -0.2591461253796835 -0.1388752616772572 15.3725799976321120   T   T   T
  5.0710743178269544  0.0984466689055038 10.3391023176008900   T   T   T
  0.0683568880029641  5.1462533433161770 10.3356149416874423   T   T   T
  5.4542562473341025  5.2111185389918289 15.4051899646093400   T   T   T
 -0.0440200380772054 10.3626875920682693  5.3843430092790561   T   T   T
  4.9169391861531642 10.1282007390523461 -0.1460225086774098   T   T   T
 -0.3233379165234443 15.4390765102560170 -0.1998231493552513   T   T   T
  4.8824217012863667 15.3258601398810015  5.1844025646791074   T   T   T
 -0.0277334634562247 10.2157259389918558 15.2838210648232149   T   T   T
  5.1440384596665591 10.4064054004693496 10.6010710443623601   T   T   T
 -0.0469424636475214 15.1829201008388441 10.6420410539972465   T   T   T
  4.9960605055885896 15.3175377894402196 15.7077120687303164   T   T   T
 10.1850406798944633  0.0967099605000196  5.1481362182301771   T   T   T
 15.0697089891239191 -0.0484400287898064 -0.0411706536093526   T   T   T
 10.1733118139215026  5.2900516982732624  0.0486746460082328   T   T   T
 15.6025764565240799  5.1009724497937929  4.8586764158929130   T   T   T
 10.2977692167825090  0.0161684747683796 15.4426506540627937   T   T   T
 15.6548168364021247  0.0171538756865252 10.1196058589517435   T   T   T
 10.2424398023711305  4.9364056409643080 10.1564525483743324   T   T   T
 15.3226385238311593  5.3671829379098588 15.5333216490014490   T   T   T
 10.1580936452714834 10.4537403509917954  5.2971284718107281   T   T   T
 15.5134852134786936 10.2993640861463494 -0.1468994895885619   T   T   T
 10.5587789554246001 15.1695161232767131 -0.1261689538894574   T   T   T
 15.6210504731812172 15.3206517356008938  5.0817448132006611   T   T   T
 10.1072269960759265 10.5608151959685870 15.3671870365958032   T   T   T
 15.3419479042298512 10.1074944810289811 10.1310153350410221   T   T   T
 10.4387725256923503 15.7007981197566711 10.2243656639705609   T   T   T
 15.8196423164337752 15.5097827324420017 15.3204582856545368   T   T   T
  0.8888146348712554  1.2096211301205426  6.4443117086102557   T   T   T
  1.2832170591155811  9.4969586254148624  4.0932677529436692   T   T   T
  9.1142497355015735  8.9770275802806960  6.4181048828134610   T   T   T
  8.9258259186910625  1.1841424665465956  3.9247733533064850   T   T   T
  6.2863865753194128  1.3953556775442979  1.1720903406787753   T   T   T
  3.5133046564040922  1.2165017717422348  9.6127653996249940   T   T   T
  6.2665181032065007  9.1436981028542554  9.4672363168693856   T   T   T
  4.2870988774923013  8.6126063298300028  1.1429979373517691   T   T   T
  1.1190771926869452  6.4458625597354189  1.3037007516085397   T   T   T
  8.9055465773684919  4.0410828952498088  1.1298781169686214   T   T   T
  8.9755676472626398  5.9943313247702497  9.0738832646548460   T   T   T
  1.1504636953038638  3.9458027485817979  9.0768966695317204   T   T   T
  6.1579871500946028  6.3943275234166990  6.5400484873493774   T   T   T
  6.4601849942988618  4.4264155316568754  3.9201527222790382   T   T   T
  3.8418546258602295  4.0797530478607795  6.3790998519350053   T   T   T
  3.7333089666210104  6.4018502746625536  4.0340122859116896   T   T   T
  2.7230373389926510  2.4195925805388176  2.7840935860480087   T   T   T
  2.4375401698417725  7.8671130859609217  7.8638086709662369   T   T   T
  7.6103173744033406  7.8536650115523763  2.6948073877969665   T   T   T
  7.2580131271399724  2.7459183839388430  7.8201652041857566   T   T   T
  0.7601018834551692  1.0220699145004786 16.6096025710431192   T   T   T
  1.2998780353453734  8.9973515795138610 14.3801864241247621   T   T   T
  9.0594985578558784  9.3694704145571475 16.7867387904494052   T   T   T
  9.3160748572744687  1.1570297180587734 14.0533807574142902   T   T   T
  6.4137734820670484  1.0917750713066361 11.4680652057221035   T   T   T
  4.1641838325932872  1.1462090672729768 19.4368665962117113   T   T   T
  6.3983760509556973  9.2244347329319165 19.2413836633392670   T   T   T
  3.9497456116640128  9.2018362184390607 11.7092773787297997   T   T   T
  1.4396693487476888  5.8763749448841116 11.5214158594108564   T   T   T
  9.0481824861873719  3.9792079768569071 11.5473597308178597   T   T   T
  9.0104201127154262  6.4162093385313455 19.2236997677423069   T   T   T
  1.2827716381338421  3.9930594557156933 19.5134073354351649   T   T   T
  6.6549242626296543  6.3280760459058909 16.6299866127633962   T   T   T
  6.7521150160796246  4.1119464290964283 14.2788538209494202   T   T   T
  4.1833791195600352  3.8851336658712627 16.5698953362458354   T   T   T
  3.9896020350397978  6.2015019651140415 14.4059187347206183   T   T   T
  2.4634391438134595  2.3385184825463794 13.0016961335911070   T   T   T
  2.5657850030663560  7.6251984589873416 17.9969376863428216   T   T   T
  8.0577816575576513  8.0814688545773770 13.1858836044549239   T   T   T
  7.7506681849836090  2.7794828928400701 18.0224581936603805   T   T   T
  0.8078155587492545 11.6051451921457751  6.6192795149388584   T   T   T
  1.4318437727968305 19.3897584378260426  3.9080379651198887   T   T   T
  9.0102709845191704 19.4805233164155815  6.2930828111484391   T   T   T
  8.9461286178940647 11.5128930718043403  3.8623860199239362   T   T   T
  5.8542827035977369 11.4911447048066311  0.9659115034063793   T   T   T
  3.8979403493355411 11.4049853252639757  9.3955177115693278   T   T   T
  6.1554307520420322 19.5241282785828467  9.0187120685365816   T   T   T
  4.1269981077365543 19.2491111410614693  1.3378182310199505   T   T   T
  0.8260866771489803 16.3708052157122275  1.1934987802693793   T   T   T
  9.3867578563993792 14.1453884642275458  1.3720324198128182   T   T   T
  9.0874487060848992 16.7573982176438250  9.1081851043136215   T   T   T
  0.9425088371427736 14.0883450512423121  9.2178815699747716   T   T   T
  6.1889444073249864 16.4438866591076724  6.3813230012188793   T   T   T
  5.6629202129630354 14.0565993228323745  3.7870478266139229   T   T   T
  3.7574363687629400 14.1932485284370262  6.4834265844827073   T   T   T
  3.7094976602093443 16.5808403230698929  4.2241824329200055   T   T   T
  2.0965916289219120 12.8765630802454414  2.4383337448557807   T   T   T
  2.5217537015189344 17.9100396995080331  8.0095199726406623   T   T   T
  7.8938226211697833 18.0025137280658747  2.6281338932585920   T   T   T
  7.5324507228122597 13.0967331569563044  7.6849467212224285   T   T   T
  1.0595708562677635 11.4917819648683004 16.5164137426676305   T   T   T
  1.1003771034427914 19.3364519224408227 14.2722075475094456   T   T   T
  9.1690067642023738 19.4214511535164291 16.6928356495170043   T   T   T
  8.9552099277740371 11.7442546283755256 14.0627579870179087   T   T   T
  6.3384199193315833 11.6381632789811196 11.7042389262051039   T   T   T
  3.7265069162948024 11.0884897939055058 19.0612013623325360   T   T   T
  6.4696139777064756 19.4398710745182122 19.6059407090133355   T   T   T
  4.0028781832605747 19.2828482701370518 11.6289204872770142   T   T   T
  1.0881460617911860 16.6174213072028394 11.6022520984690161   T   T   T
  9.2098125857863540 14.3530982793838131 11.3229567086083964   T   T   T
  9.4242435717554898 16.4849264236563435 19.3799130725840421   T   T   T
  1.0669234859791237 14.4827986236440296 19.0061642066192853   T   T   T
  5.9646869792893940 16.5912366221333905 16.9705962982128469   T   T   T
  6.3319802700948253 14.4398711702814353 14.3595225494729419   T   T   T
  4.0297771264800639 13.9763801411376321 16.7976171296409689   T   T   T
  3.8093225389001075 16.5819649404664204 14.5835692994728809   T   T   T
  2.5010910216534774 12.9106593158730263 12.9941096689011033   T   T   T
  2.2767672571050026 17.8708052017191221 17.9325890432490169   T   T   T
  7.7656080748258081 17.9182174034432116 12.9903686107670051   T   T   T
  7.5270183253520200 12.9639378989211966 18.1056637475978448   T   T   T
 11.3937605706660179  1.4070197613905555  6.3147400543786718   T   T   T
 11.6743895136343863  9.4037564120892174  4.2894208845538531   T   T   T
 19.2881557809429864  8.9319085954292774  6.2070958400832135   T   T   T
 19.7938594552106721  1.1830803257010249  3.6533258496983838   T   T   T
 16.3960801670391945  0.5821526501922670  1.3067454015589388   T   T   T
 14.4798536963421558  1.2342171793664485  8.7760343890101673   T   T   T
 16.4734349845112220  9.0881657848270905  8.8285855094029824   T   T   T
 14.3398713564684090  9.1667208057384002  1.1182836510414340   T   T   T
 11.1710413596755469  6.5443811872199991  1.3745544847955820   T   T   T
 19.6700369262135695  3.9457061128099791  1.2473346744835461   T   T   T
 19.3616591064944146  6.2865390235960099  9.1955706674934916   T   T   T
 11.3668896592890434  3.5274200079254499  9.1376065556955641   T   T   T
 16.7367659083453262  6.1690966252458983  6.2426717415087074   T   T   T
 16.7546759191100065  3.9049300057332865  3.7619103365732012   T   T   T
 14.2410280700801231  3.9262161478122821  5.7392691468513242   T   T   T
 14.2307620499783436  6.1595620826195958  3.6456892409673265   T   T   T
 12.7535917759818869  2.6469391368043422  2.5856693668609068   T   T   T
 12.6884806813932087  7.5109505722141652  7.7343424457424739   T   T   T
 18.2562867154457464  7.8609344000239245  2.5530720748120261   T   T   T
 18.1658075360763149  2.8817691407303871  7.6518144932440659   T   T   T
 11.6522036087636351  1.3228609127858830 16.5569647076228001   T   T   T
 11.3190246150144400  9.5250570809852668 14.0040470310813934   T   T   T
 19.3966918935359800  8.9755510432792800 16.3809602561014671   T   T   T
 19.0325734835945326  0.9711935831354589 14.2298556270663781   T   T   T
 16.6470664985961037  1.4160651346030939 11.0913056089103730   T   T   T
 13.7607263728944815  1.3324700673167782 19.9282543526965945   T   T   T
 16.6043869651875795  8.9030940133293548 19.4197193747191648   T   T   T
 14.1924096789665359  9.0407072977954339 11.4191644585704655   T   T   T
 11.6365425424718119  6.1007299687393193 11.4201087246850115   T   T   T
 19.4137174832741835  4.0165006218053927 11.5391825519458795   T   T   T
 19.5790876461213088  6.6292834812657500 19.3489959822904680   T   T   T
 11.4804372764609610  4.0777410556854869 19.4620587739326574   T   T   T
 16.5777602257109109  6.7118621716720455 16.5784128354523901   T   T   T
 16.5254992942373562  3.9818519910499344 14.6170200258243419   T   T   T
 14.1030931303440550  4.2822803082070289 16.7842924536448628   T   T   T
 14.1223180866014957  6.3992719015588708 14.1482166240501144   T   T   T
 13.1456322555784624  2.4817100935269591 12.9616027023644360   T   T   T
 12.7668618546216734  7.7633468765304965 17.8679618195788059   T   T   T
 18.1394292250797946  7.6367220855445135 12.6035425997452837   T   T   T
 17.8432084464822296  2.8408862911839892 17.9641399196603473   T   T   T
 10.9495059650612081 11.7774856410582700  6.7511663612314248   T   T   T
 11.3182520141193912 19.5232788432653983  3.8027568824471469   T   T   T
 19.3805557689022834 19.3749914117970832  6.1808358914262254   T   T   T
 19.4875732691423096 11.6382865155101811  4.0184734329889462   T   T   T
 16.7027270237728516 11.6962416005530976  0.8214547858207504   T   T   T
 14.1355813721329220 11.3466923053432200  9.0216973471283222   T   T   T
 16.9105657379686320 19.3419290521061491  8.9621142513914034   T   T   T
 13.8526829523143178 19.1062053931096649  0.9753133043672022   T   T   T
 11.9172245262875389 16.4437971930639435  0.8330284134188052   T   T   T
 19.3015844752285233 13.9012073672435950  0.7555685987942522   T   T   T
 19.3309607518617810 16.3387474637446637  9.3201878766714525   T   T   T
 11.5999573773325437 14.4386571001158277  8.9607111180908081   T   T   T
 16.5059414138751919 16.7007637952272248  6.2974889012960009   T   T   T
 17.1091294552828259 14.3136724246469438  3.8968439020479919   T   T   T
 14.4064458283631183 14.0786069028456886  5.9866250176859888   T   T   T
 14.3622634966488576 16.4767089652965488  3.8663280268015359   T   T   T
 13.0247467339866443 12.9375500411445401  2.2292095410287773   T   T   T
 12.8691978213016007 18.0708816708225832  7.5142335784808525   T   T   T
 18.1418388533952850 17.8509068164374263  2.3783998281793020   T   T   T
 18.0376781503227264 12.7206727590863338  7.6988224005708759   T   T   T
 11.1872981212029075 11.9373729926936409 16.3756763647072390   T   T   T
 11.5322095884849851 19.3904802161002223 14.0690166162405728   T   T   T
 19.0653432390485094 19.1294476811374494 16.3302468183197007   T   T   T
 19.4817724560730667 11.4244264227006838 14.0868792260107227   T   T   T
 16.6974554487520379 11.3211494891344930 11.2446674254605004   T   T   T
 14.2179761515971705 11.5142874832789914 19.3104715585954132   T   T   T
 16.2156907064929499 19.5637581477942000 19.0503601924993653   T   T   T
 14.4701186269538677 19.5145771799761114 11.2254140541586533   T   T   T
 11.5641233709713713 16.8822441027183743 11.3871029157309831   T   T   T
 19.5159699133354039 13.7619158801761241 11.8424480613718845   T   T   T
 19.1704751850175725 16.7994731370301054 19.3597914258282024   T   T   T
 11.4766829771194452 13.6747600765158790 19.4691803559441325   T   T   T
 16.9268393522129017 16.7193132289716573 16.6596852815492618   T   T   T
 16.9107734345816354 14.0666805034193807 14.2817241542989155   T   T   T
 14.3514106531166181 14.2747823447941506 16.3784522405532051   T   T   T
 14.7685753210079973 16.8907289614587057 14.1986604802319611   T   T   T
 13.0062940613627305 12.6742665293571850 12.6279835192151744   T   T   T
 12.8511127423855207 17.9305074225150136 17.6786360308669224   T   T   T
 18.0328097601702311 17.8979662932115673 12.6107915754587925   T   T   T
 17.5270355181410551 12.5458201147328765 17.9003989616576717   T   T   T
 -0.2594581120495451 -0.4190385577590450 -0.0647411677959501   T   T   T
  4.8110863937384085  4.9569362353268938  0.4288250706978648   T   T   T
  5.2255324288478384  0.0008995627911850  5.1052235152428418   T   T   T
 -0.0824504429204341  5.2695444537660876  5.0650657103603525   T   T   T
 -0.0381449607728337  0.2521073986135042 10.3395998927659978   T   T   T
  5.4260274411542557  4.6160056653507215  9.7092236817557858   T   T   T
  5.0993408810423322  0.0383299607203804 15.3595923551652174   T   T   T
  0.5969872188105966  5.2270579034692144 15.9941496647185399   T   T   T
  0.0265656364706004 10.6043398344081989 -0.2301877797647999   T   T   T
  4.3723048970582079 15.6365210059409581  0.1479401351193018   T   T   T
  5.2333431830845720 10.1536248454447069  5.2353091138396435   T   T   T
  0.0050332344645677 14.9763694644837244  5.3435343891427172   T   T   T
  0.0057682212291829 10.3234531513016705 10.1900076606440475   T   T   T
  5.5949722190371203 15.6564969279642057 10.3895114792785215   T   T   T
  5.1988960900861976  9.8328635296406794 15.8713514468650114   T   T   T
  0.4712529161720057 15.6631160726036640 15.4055555754747964   T   T   T
 10.2768373116949139 -0.2159894170456068 -0.5907796118628305   T   T   T
 15.4257528615297979  4.9605676066965065  0.2209995477259131   T   T   T
 15.2559169006465165 -0.1223495373926466  4.9951319558732274   T   T   T
 10.7938098750733467  5.5545057076226731  5.0801559839420962   T   T   T
 10.3051672841183670  0.2731340277869059 10.5828793289646246   T   T   T
 15.6016089519657957  5.0956181598324362 10.7107086414659562   T   T   T
 15.6174647344892410  0.2838776138877717 15.1842399577408766   T   T   T