Li P  S  Cl
 1.0000000000000000
    20.5609999999999999    0.0000000000000000    0.0000000000000013
     0.0000000000000033   20.5609999999999999    0.0000000000000013
     0.0000000000000000    0.0000000000000000   20.5609999999999999
 Li  P   S   Cl 
 191  32 160  32
Selective dynamics
Cartesian
  4.8117436690107871  2.0950864138174268  3.1306658280264217   T   T   T
  3.2538549258918401  3.8067124249621789 10.5436465638792853   T   T   T
 10.2466378303933521  8.7614255834869272  1.9692989279102986   T   T   T
  7.9515645104542756  4.9566265259510009  7.1406116174415448   T   T   T
  3.5707068385538490  7.6425225972154989 10.2939864633491442   T   T   T
  0.1167829289603044  2.4434101884530519  2.6185571353068267   T   T   T
  6.3674109316098644 -0.5955294884899954  3.1327985539925547   T   T   T
  8.5499853308636151  7.2567836021340808  4.5177498616211507   T   T   T
  7.4487665319886904  1.7770765338321519  5.1204002031742277   T   T   T
 11.9235411365670867  6.3751449156792726  4.0256718787719157   T   T   T
  2.2258106148556633  4.5909668544226934  2.1830273974558629   T   T   T
  3.0627407404205691 10.2173284617682114  7.2576123193332460   T   T   T
  7.4746657319734648  7.3390663517205805  0.0159572917771827   T   T   T
  7.0366979316638023  3.7950121644063790  9.7392326396819211   T   T   T
  2.4956328873061366  2.2500676068544387  0.0702183329663495   T   T   T
  3.3749737629113219  7.6796407841649694  5.5498607404949505   T   T   T
  5.2725776694903965  2.1152986848870428  6.8089019783858484   T   T   T
  5.7389406207571483  7.9207565598003740  4.1171027996449592   T   T   T
  1.8299929294327963  5.3470377151720490  7.1506741385815822   T   T   T
  1.5812341149938058  3.0213597055951067  5.2355230176177248   T   T   T
  1.8876667692057187 -0.1590390108356260  2.8170419049942383   T   T   T
  0.3548772996476157  7.8449781383729391  7.9763127204760140   T   T   T
 12.3128853956410449 -0.7719440818730156  9.1639035345829729   T   T   T
  7.4289090515832488 10.1734749074950681  2.8051976867698603   T   T   T
  1.6767109488316121  4.8761438628591058 13.6723005157232986   T   T   T
  2.2172040991596673  7.3777930028893435 15.5518986576020790   T   T   T
  7.9854543102102769  5.9513969275117047 15.3296319721490928   T   T   T
  7.2319957504737395  4.8716021699745298 18.1636450947884320   T   T   T
  0.4806804742516146  7.5689046496918735 17.9470883238468346   T   T   T
 -1.9700517704140290 10.5873721566767411 12.4515371810716449   T   T   T
  8.4815573785611083  3.0481208136997826 15.8894225191404583   T   T   T
  7.1359669325357640  7.8262449870041824 10.9113039471179292   T   T   T
  5.8392626188258543  2.0589312951366217 17.1931107564162993   T   T   T
  7.4838750991558340  5.4973488002978117 12.1902566867349957   T   T   T
 -2.0818747468946062  0.6021782160655798  9.8603553891060116   T   T   T
  4.2397632958288183  5.4014581845572005 18.4036128324038089   T   T   T
  8.8544142988240750 10.0485257013183169 12.3674428019747555   T   T   T
  8.1413304905036039  0.0676298074543566 18.7118724371950513   T   T   T
  3.2748826498241193  0.1307951518002714 13.1602967532389776   T   T   T
  3.5052048807696812  6.8988871648560082 20.0962526341431413   T   T   T
  9.1042611669357338  2.4583232755374547 19.9466689066736080   T   T   T
  5.4133765532328253  8.2988036044324343 14.1201707268697305   T   T   T
 -2.9179222703421055  6.7608259473516004 25.2161539342625929   T   T   T
  5.1773775909959250  2.5474024334013872 12.5485711474196133   T   T   T
  3.2897453649744164  2.1016774186336478 15.2659154409110194   T   T   T
  2.3072463835919566  9.3944820353185303 18.4824582179037620   T   T   T
  7.0454482691606843  5.2318078740552263 22.4270443897342986   T   T   T
  8.1295300556670398 10.6684797701333522 18.8624626570444889   T   T   T
 -1.3584361402232734 12.6654339406943439 10.2107474400153553   T   T   T
  5.3640330883745939 17.9658418954382846  7.5592119543385534   T   T   T
  7.1673976991299009 17.1756762842868085  0.3695396638696637   T   T   T
  8.3210102645679669 10.0957393748703250  8.2941121041772004   T   T   T
  8.3274945877097739 21.2712470929492632  8.2377915295105311   T   T   T
  2.8712342112073945 10.5242658008544403  3.3127186323580564   T   T   T
  6.5335739097190153 11.8077305964042552  5.2290048381212362   T   T   T
  5.7674312525046831 17.1116147099729474  3.0104854714236424   T   T   T
 10.0969589450220720 12.3546603403345738  8.2757124817507872   T   T   T
  8.4488299569454668 15.3173071696993937  2.9648270270324035   T   T   T
  2.3502950854576490 11.6209993605707531  0.6250007894323817   T   T   T
  9.8981585959959570 23.2775381564826382  7.1564840537205905   T   T   T
  3.3046735084563652 19.9599278594566307  6.0887720225843278   T   T   T
  8.4705136703196899 14.1495154604803286  6.2668151932474148   T   T   T
  4.3918447788462798  5.8328744136288329  7.9806117770316050   T   T   T
  2.0420126010321518 20.0869473181811458  9.1830855188870864   T   T   T
  8.0794225849701551 12.4149222614862431  9.8981630978173012   T   T   T
 10.2053702907985429 18.9682356685758222  2.0438317812876754   T   T   T
  0.4060177502611101 17.7468236661461241  6.4186536523718489   T   T   T
  0.2442781667064509 12.3298237525597045  2.0658530367895409   T   T   T
  1.2185492431994218 14.6765508630989725  4.1802922882380660   T   T   T
  2.6283261456942100 15.7523644701475565  6.4412868404524843   T   T   T
  5.8598445817348326 13.0743733688486490  8.1766351790145109   T   T   T
  8.0568861243531380 17.9671623677442902  4.6505524805702088   T   T   T
  2.2529340533672273 12.4774882545521297 10.8064422048149797   T   T   T
  1.9191828779623727 17.7569236898261167 20.4991140538290679   T   T   T
  8.1830762971040070 20.5846819796098970 12.4880491715689530   T   T   T
 10.3506530520382896 12.4667934459194854 19.5840163630321484   T   T   T
 -0.0644032116670133 17.6075062030077589 17.6494697498667890   T   T   T
  1.1269714484094222 14.7625012754757510 13.4748017512929330   T   T   T
  5.3966024234338246 12.6443565861170359 18.7600268131888193   T   T   T
  9.9394188679092359 17.6713433050561548 13.6748772979861748   T   T   T
  7.6155660831445600 14.0594914789370495 20.5789335793632198   T   T   T
  7.8937069595776812 18.0397153492826448 10.5484131051543635   T   T   T
  2.5321549459902726 12.8296598821974364 15.4606011349475931   T   T   T
  3.3440640441478813 19.9236515789556421 17.7341568132031178   T   T   T
  5.3988109162253304 17.2838109300314891 12.5564797074838346   T   T   T
  8.0779231978973378 14.9229192416834149 17.7071658462226011   T   T   T
  0.8213423841213501 11.4373271450627776 13.1902231088122672   T   T   T
  2.8923121142216313 17.9733455683720393 15.4052205206930992   T   T   T
  4.8544064134077578  8.9784810332930043 17.8359203350146949   T   T   T
  8.2865112548572526 15.5199405561279029 13.5844630244844229   T   T   T
  2.5912717011030777 15.6113220973655675 18.2379850103330092   T   T   T
  5.2006032643568814 13.8198097979889649 12.4747765135102142   T   T   T
  4.4274069441851687 11.3604321398054431 13.5630162516539183   T   T   T
  4.6847480146834872 17.7097198677202954 18.6504633828675850   T   T   T
  7.6016590964324822 12.1429292504920348 16.0221277532711888   T   T   T
  7.2613314840393954 19.0809652037534967 15.1806226226852452   T   T   T
 15.2991893416135536  2.7330883341950747  1.6408194596976984   T   T   T
 10.6742487114972526  7.4412744733853069  6.9387367275799088   T   T   T
 24.7412710863745033 14.0220122305655561  2.0667443130438570   T   T   T
 18.0396205818508619  5.2462129774147881  8.0701683831623967   T   T   T
 13.0726998347485033  7.7662538340190537  9.7333026729396614   T   T   T
 13.1923754030917308  4.5759752280761568  0.9486236523239634   T   T   T
 24.1870770885268556 -3.7448388185337262  9.6273570202267891   T   T   T
 15.0837753138897703  7.6465349641374081  8.0752873215919081   T   T   T
 18.2179342592557632  3.7260286942761924  5.3795541629452419   T   T   T
 19.8049270730305196  9.3159131240887376  2.0568172842529826   T   T   T
 12.3965701853774313  0.4575440915654901  2.5993958359036480   T   T   T
 13.2216528037264212 10.2197935570893783  7.0919711067254836   T   T   T
 16.2566891322048619  6.5241679960132188  2.1154260539927621   T   T   T
 16.8926770219096340  0.7611864595813249  6.8578275617060100   T   T   T
 13.9862765254424719  1.6834823894760838  4.7546239370947125   T   T   T
 12.8828661168444611  5.3941573174691220  7.3283064296905032   T   T   T
 16.5207165243943166  3.4371421134628588  9.0800221372583092   T   T   T
 17.6865171321352719  7.6477042918094744 10.6574506879655608   T   T   T
 10.7087360519624770  3.5224968551599147  3.1540274706206111   T   T   T
 12.0269675999213881  1.7540576703322626  0.4105519784025379   T   T   T
 13.7638620028990832  8.5525368582305923  5.3934565216696093   T   T   T
 20.2640415833789049  2.2894564744677264  7.4958453197991677   T   T   T
 20.4316189290477084  6.9623344697792211  3.3038427334665195   T   T   T
 14.4269206183595067  2.5829755020549170 13.9325629620351705   T   T   T
 15.6724249436067886  7.2371818976384521 18.2905728792864224   T   T   T
 15.9065917617400281  8.4739647650193888 13.4648927754772370   T   T   T
 17.8259869377082367  4.4377941835360986 18.3768458865824833   T   T   T
 13.2778009911120574  8.1478908455441204 20.1650926153818943   T   T   T
 13.0036641556469839  0.1840174685494004 12.7857010831959297   T   T   T
 20.3197305089540023  3.6871980236106459 17.6324866745511741   T   T   T
 20.2124285168184628  8.5921174367480280 12.1379657986004919   T   T   T
 17.7445535912597165  2.8744960454375343 15.7821666250402526   T   T   T
 18.5449929324051439 13.0539415499414186  4.9784402443915017   T   T   T
 11.5253524235792355  3.2425845810639493 14.7521277198898932   T   T   T
 13.1444381260483354 10.1840457552647639 17.8994934807109303   T   T   T
 18.6504135459009390  7.1931383302445742 15.0386568425982556   T   T   T
 18.6646321727970914  2.0292298978484329 19.8122423044728784   T   T   T
 13.1356748946773862  5.0949468485874787 12.2491315571203288   T   T   T
 11.1422892039745403  7.6115644216364222 17.1115886560246402   T   T   T
 17.3012915373886713 -0.0566762307251111 16.8610918520544537   T   T   T
 12.6311754636810800 10.4834487600736921 10.5042205669843547   T   T   T
 13.1219243886969466  5.2721407609997000 17.9096898306755534   T   T   T
 14.3538880018178343  2.8553990287606617 10.8403241384015736   T   T   T
 11.3677048950113697  2.0612040800547362 10.6423892905963893   T   T   T
 14.0967644324615744  8.4411743695838108 16.1530448463872389   T   T   T
 15.3649669210034876  1.9231905266185543 17.5606520727261994   T   T   T
 17.7793396349878350  5.5820575831562804 12.6766670677155684   T   T   T
 13.6568105883036477 13.8924936777149011  0.3233154331700996   T   T   T
 10.7209630808885770 18.3817562065128897  7.2105510785042890   T   T   T
 18.0996721393252500 15.4634165955633165  1.8845223993518692   T   T   T
 16.7801379486238602  9.6339662277539357  2.9020058151786259   T   T   T
 15.3986412113475826 18.6049261663929428  6.9222693141069893   T   T   T
 12.3555594693271420 15.4480824245551851  2.5769467468901590   T   T   T
 20.7399564520097215 13.4526283029000169  7.3012295131562777   T   T   T
 16.1322102529631053 17.9531239224225807  0.5941981484367503   T   T   T
 18.2082816695512193  7.8769064296230118  0.1063421190420705   T   T   T
 18.1245855779853287 20.2298844066179733  1.4733642144808674   T   T   T
 10.7750463273561010 12.2557968830409987  1.6524308400219603   T   T   T
 12.4107168286878924 16.2445991502579794  5.6835675472489742   T   T   T
 18.4499922292701584 18.5195054126769669  4.6527200090661971   T   T   T
 15.9648706482349851 13.9002746097688394  8.1208702662307921   T   T   T
 12.6396174939174255 13.1502913172926892  4.7311025075649598   T   T   T
 17.6301328189299724 20.2546929300512950 13.5445944092101396   T   T   T
 17.8498356374945573 11.0856844488308521  7.1733395717900468   T   T   T
 19.8556502230710663 18.0039213856816183  1.4345589974849564   T   T   T
 13.4253320031821541 16.5338631339433881  9.3292189495268580   T   T   T
 13.0340087588439086 10.2090580337917345  2.7828807893099250   T   T   T
 15.3091690445533644 12.7003278184133137  2.8732000507950972   T   T   T
 13.2508794469624078 19.1583023205432141  5.4058787685126779   T   T   T
 18.7701611538868107 15.7100884860419470  7.3792222573861537   T   T   T
 15.6243714343119962 18.3530039950872705  3.4005940148574454   T   T   T
 12.9842332241283955 11.2696988347295299 14.1797521907573358   T   T   T
 13.2899123724453307 17.2023717008148331 19.9382862559677321   T   T   T
 18.3075334556730240 17.5796633637338466 15.1147520897633392   T   T   T
 18.0747674539919174 15.2652003336371145 18.5625345833668867   T   T   T
 10.3598649456048495 18.0066388768784051 17.4762606238363567   T   T   T
 10.7200550923457314 13.1558559680165867 14.2929215083525296   T   T   T
 16.9275305397780258 10.5840584816806214 17.1699402809500619   T   T   T
 15.6626268922957763 17.3844507932704033 12.2678800912582577   T   T   T
 18.1954237552925946 13.6959100775661842 15.4728525657342448   T   T   T
 18.3962658896680153 15.7459579823995810 13.0519367384711682   T   T   T
 10.7406247788467333 12.8381852514127086 10.7091473004721340   T   T   T
 11.5470818398947337 20.2161532535170529 18.6241332835333111   T   T   T
 21.2978919321017699 22.0585360537282291 12.1530777293285102   T   T   T
 20.3377240740874896 13.2901145040614406 17.3014365439699809   T   T   T
  9.5723155541237031  7.5557629052149018 14.2317662251031525   T   T   T
 13.0746828960510513 19.4655508814253473 16.1848701550782614   T   T   T
 15.7159107861503013 13.4801476710169013 18.3803116867328313   T   T   T
 17.9115585707956484 17.8769792407298098 10.4544341943039072   T   T   T
 12.4189920403212231 16.1601502343733081 16.4292844065898649   T   T   T
 13.5945613983465190 13.6827773860497590 10.7786047526433908   T   T   T
 12.5121423985957723 15.2348940153230323 13.2926703091168008   T   T   T
 14.8746744245103848 17.4037666946199217 17.8887159767448409   T   T   T
 18.7726950020287546 11.8447489692999657 19.8841052886132417   T   T   T
 20.6962021923258561 18.4938216919275753 12.4747972550535877   T   T   T
 -0.1391023488521211 -0.0579178342499436  5.5660709355053024   T   T   T
  5.0900297366961382 -0.3453661835756479  0.0244370901032950   T   T   T
  0.0504965808909506  4.8277513272335124 -0.1871892722772536   T   T   T
  4.8945021024239974  5.1778086338022655  4.8067284842420728   T   T   T
  0.1733201296451471  0.1119375330898581 15.2424831344487988   T   T   T
  5.1624238493940897  0.3348990765871431  9.8904379476126234   T   T   T
  0.2049379586959721  4.9905514189879714 10.4959827706640212   T   T   T
  4.9145100623361442  5.0738861658785996 15.3039377638571761   T   T   T
 -0.2612882841875705 10.1692318471512078  5.0929243574891423   T   T   T
  4.9102983306967163  9.9631731939969601  0.0943994587005206   T   T   T
 -0.2227020294629073 15.3462566720114886  0.0042741041146323   T   T   T
  5.3069701329065371 15.0901956829317268  4.9859849357439536   T   T   T
 -0.2272896658282709 10.1916498991158022 15.7029881760205434   T   T   T
  5.2633937918061973 10.4862874342526897 10.4704361200666831   T   T   T
  0.1662894143764354 15.5234367711167671 10.4934068708266892   T   T   T
  5.2853271101934798 15.3402607437983285 15.6388620555400522   T   T   T
 10.2007244994326758  0.2749798317835010  5.1224682425697576   T   T   T
 14.9969212314393943 -0.1320305959958977 -0.4114826027766487   T   T   T
 10.3853978694093243  5.1994586660916138 -0.0980748767964156   T   T   T
 15.1963718023463414  4.9658231761425906  4.9604578289475256   T   T   T
 10.1753247840297742  0.2340028493121155 15.3177362261666818   T   T   T
 15.2270390817513661 -0.2312145870956389 10.2827961426293299   T   T   T
 10.3667498777490845  5.4729804150351633 10.1284437721969862   T   T   T
 15.2060270895468399  5.1221053360881763 15.3446886516520919   T   T   T
 10.0898988412276420 10.2667797137130261  5.1480328416380869   T   T   T
 15.4021921379127029 10.4969733807697789  0.0449112380300953   T   T   T
 10.5682210854938479 15.7020397138770917 -0.1415657972815474   T   T   T
 15.5872041043448348 15.4609603934061663  5.2319272637213841   T   T   T
 10.6861195167994367 10.3996017332877244 15.9449338527995792   T   T   T
 15.6120571326318913 10.4077500060920709 10.2168225543420128   T   T   T
 10.2923140684511232 15.6723186579452367 10.3033644466103471   T   T   T
 15.4112142991379351 15.5645763170523637 15.3246560453266252   T   T   T
  1.3418177978901440  0.6660708121371384  6.6520186617102368   T   T   T
  1.0474354258280840  8.9516484804049199  3.8401681112481110   T   T   T
  9.0584208422683083  8.9208063919441543  6.2650721549112598   T   T   T
  9.2586719047426218  1.5447492077066203  3.6945942570536383   T   T   T
  6.1432158118757298  0.9225764428671975  1.1260208687658984   T   T   T
  3.9079844133353783  1.3755693948433685  8.7477195986665564   T   T   T
  6.1498839958010141  9.1446765500004350  9.2881446332848991   T   T   T
  3.8621101104661379  8.7041782257097893  1.0940016804744048   T   T   T
  0.9071677132977373  6.3274991405780234  1.1698748488234469   T   T   T
  9.2690594604435717  4.0131378215267688  1.1977738622365077   T   T   T
  9.0360630136455509  6.4471563304264805  8.9017746966548010   T   T   T
  1.1435638303646634  3.8393306711293054  8.9594587772615348   T   T   T
  5.9572769787803130  6.4585920731986439  6.1205375914685529   T   T   T
  6.4427715577003495  3.9750776585800089  3.8968738277124180   T   T   T
  3.7878531457633033  4.1274061357163827  6.1397995939166545   T   T   T
  3.6937852432713485  6.3793132933445440  3.7097721826147492   T   T   T
  2.6232818534204299  2.4666266947319775  2.7063011464468594   T   T   T
  2.5926433219692155  7.7820193383167737  7.9146243431606047   T   T   T
  7.4860841262405255  7.7794773330512159  2.4948914507141819   T   T   T
  7.5937228383540054  2.8601025332539409  7.1817126705275465   T   T   T
  1.2750770573308028  1.1655704169102987 16.6662252156242161   T   T   T
  0.7197278493294137  8.9074382301064290 14.5630289153621639   T   T   T
  9.6156006942088368  9.4020935865496043 17.4121951121421041   T   T   T
  9.1483577690652176  1.3476774339347573 13.9628508338295489   T   T   T
  6.3867364628004228  1.4314400058780805 11.1091016151414017   T   T   T
  4.2719352006621927  0.9210114704582015 19.2501604530634118   T   T   T
  6.3757815680141343  9.0748232139587763 19.4861526268877761   T   T   T
  4.3192337320525462  9.3365481885740813 11.8253367114934083   T   T   T
  1.4121199147471273  6.1284882955278839 11.6964208336697162   T   T   T
  9.0262897340723640  3.9762840268947799 11.0306965604218092   T   T   T
  9.5074305735050473  6.2854732549289851 19.0302874423339752   T   T   T
  1.4040432072942917  3.7183421282430151 19.2976265559097619   T   T   T
  6.0018812106366290  6.3623838608017795 16.5878946767826854   T   T   T
  6.4505084758097651  4.0728526178619751 14.1060567815475526   T   T   T
  3.9589963354265869  3.8123926659017573 16.4485579216165583   T   T   T
  3.6606866416347730  6.2385015275061901 14.1618774383472896   T   T   T
  2.7070335617176089  2.4561096097266972 12.6935218149471147   T   T   T
  2.8440323024044862  7.3375313938580780 17.9171518792690350   T   T   T
  7.6601593583150560  7.6895517073537043 12.9429952811778683   T   T   T
  7.7168291064995618  2.5830711167124498 17.9285820833491769   T   T   T
  0.9460531772862707 11.3740315710331448  6.1532036574501694   T   T   T
  0.6802665743767113 18.8853920200702632  4.4405777923165068   T   T   T
  8.6407651204471705 19.8497512987257636  6.2378871550902257   T   T   T
  8.8478164086215330 11.4516942330238649  3.8655118229596832   T   T   T
  5.6770575491083868 11.3355228223116598  1.4464903737753019   T   T   T
  3.9461092237485205 11.4392493382156228  9.0584805674778792   T   T   T
  6.3796857722938745 19.5349184094025894  8.9293386243632931   T   T   T
  3.7468625228625974 19.0195369945067796  0.8799204872623930   T   T   T
  1.0499241570775433 16.1286662845234190  1.4173333113394133   T   T   T
  9.6448653609387076 14.4026578671131009  1.0825937030226571   T   T   T
  9.4742661518436275 17.0140659654175650  9.0241799257068731   T   T   T
  1.1889030908835228 14.0324558506078620  9.3998146396398088   T   T   T
  6.3910168513537746 16.4022256963008175  6.1526222098952887   T   T   T
  6.4946310525320747 13.9493547860528597  3.8059368742584994   T   T   T
  4.5536767627849395 13.7591954603647100  6.2984466225969404   T   T   T
  3.6704651240310486 15.9059521262491526  3.9362727306937018   T   T   T
  2.2978512015696295 12.8224208738791017  2.5700806326920622   T   T   T
  3.0449868549310639 17.8903604562713667  7.3912030965507549   T   T   T
  8.0298075807198757 17.6375869241489944  2.5359689413568791   T   T   T
  7.9475047873649585 12.2939956133499138  7.5407792439229100   T   T   T
  1.0868617007231294 11.3658619734040922 17.0504764588338915   T   T   T
  1.3749158745411461 19.2949052733760347 14.2785533180296902   T   T   T
  8.9784968794215541 19.5234646453842586 16.6557093727438712   T   T   T
  9.4693278776277019 11.3269293361600809 14.4783770304930020   T   T   T
  6.4819453795227879 11.6409452214238023 11.5752224617898154   T   T   T
  3.9037582263653148 10.9746976879598055 19.0736874239253957   T   T   T
  6.4951971278615304 18.9038504008367596 19.6495906062941437   T   T   T
  4.0037345045223693 19.6555963498701551 11.0114446832884241   T   T   T
  1.3923047734981184 16.7966219115486055 11.5538658965510148   T   T   T
  8.9460224863734865 14.3131128121717079 11.2110833946003066   T   T   T
  9.3213363677879428 16.6357193008153068 19.3186495487768575   T   T   T
  1.2012775354440066 14.2435594437185173 19.3422237054992223   T   T   T
  6.4312356487649973 16.5993767901107283 16.8293827689323727   T   T   T
  6.6414571524658390 14.0982378478278516 14.5264892884006702   T   T   T
  4.1622346641244139 14.2264896674301440 17.0439678966306190   T   T   T
  3.8739301286744219 16.1828655404677519 14.1038634025299068   T   T   T
  2.7460987620248472 12.8660817104537379 13.1037566335199571   T   T   T
  2.3540206893644733 17.9176586553537156 18.2553343824618217   T   T   T
  7.5701016896210458 18.0872121393646026 13.1409063327284166   T   T   T
  7.6746438618888559 12.8993482964518300 18.5310512512246781   T   T   T
 11.6151757910401887  0.9949501734387035  6.2949377032270366   T   T   T
 11.4998059379955340  8.9153584603283171  4.0170512903335585   T   T   T
 19.2428631059817690  9.0128103080631892  6.3968185894600813   T   T   T
 19.6205695042852142  1.3279924032966191  4.3232107756799767   T   T   T
 16.3543912422432527  1.0390339491865688  0.5982726934501008   T   T   T
 14.4551045042967150  1.3190740796346789  9.0042209909948614   T   T   T
 16.6383776469699640  9.0041745767638268  9.1086532412655536   T   T   T
 14.5148754590468982  9.1530619098617425  1.2578510628788291   T   T   T
 11.5215457168911133  6.5705668760394493  0.8945930453016642   T   T   T
 19.4926162369449330  3.6962580809800305  1.1093220662681720   T   T   T
 19.5157422295536165  6.3685735076314440  9.4958305137422521   T   T   T
 11.3267021669459105  4.2924230999211899  8.8508277166372427   T   T   T
 16.1176157907798725  6.0020978728398537  6.3392535035406858   T   T   T
 16.6093120797603859  4.1662572868269505  3.8402576579813559   T   T   T
 13.8226226777455459  3.6646690399130502  5.8699518205194829   T   T   T
 14.3397830465844702  6.2778809069269439  3.6518319196286129   T   T   T
 12.9339778834142578  2.5911657889107427  2.4969933104616335   T   T   T
 12.9155589097468990  7.7294025660382246  7.4550061140909971   T   T   T
 18.1377715192984539  7.8372844544137967  2.5423567190998613   T   T   T
 18.1097624577383556  2.7750293362681573  7.6634598297922771   T   T   T
 11.4742297688296002  1.3612879565960847 16.5278773188197654   T   T   T
 11.7631541474693950  8.8204773909863849 14.8919114030075956   T   T   T
 19.0020755047645125  8.9577342891201415 16.7135949635632066   T   T   T
 19.3576806682514331  1.3653871921468250 14.3566277286778554   T   T   T
 16.5683467274400300  0.9038114042978818 11.3427063352998054   T   T   T
 13.7173817707766936  1.1666698834624436 19.3842987599574954   T   T   T
 16.6401469417987684  9.4810877779292024 19.2280640937686975   T   T   T
 14.3373930281526594  9.1835065328117285 11.5250598330610110   T   T   T
 11.4689173384124032  6.4639751738996498 11.3072898556249406   T   T   T
 19.5944715454988909  3.8371197360516551 11.5677157195465981   T   T   T
 19.4900824980865792  6.0256207238592170 19.0850992889995084   T   T   T
 11.8622216552637259  3.8016584233804895 19.6997796622543717   T   T   T
 16.4666075444569415  6.1175904095053664 16.6021660537709472   T   T   T
 16.4150739577814448  4.0710442068144692 14.2009857819287895   T   T   T
 14.0320502043621875  3.7547672106477679 16.3471933095760171   T   T   T
 13.9303469081197342  6.4906567498754688 14.4449614251057064   T   T   T
 12.5905849608272167  2.7218227771649190 12.4483270554803482   T   T   T
 13.4758044747930352  7.6481982017253385 18.0626234086997890   T   T   T
 18.0860984274804153  8.0985908973599887 12.7358001280599566   T   T   T
 17.8622665840298964  2.3039998125196481 17.8057036986121879   T   T   T
 11.3547003547690455 11.3927010900260477  6.2920766178807792   T   T   T
 11.2105044874705531 19.2408562208343668  4.1526867197866117   T   T   T
 19.0863289673094130 19.8214156643489190  6.9588466400240403   T   T   T
 19.1491168198198807 11.2040106427669226  3.8181310212326971   T   T   T
 16.6686010292345443 11.5646733703523630  1.2474598604058946   T   T   T
 14.2570968479653448 11.6203105695083302  8.9969221427027879   T   T   T
 16.5047125476573697 19.2559892473297865  9.0747286270971639   T   T   T
 13.8635914158858959 19.1395250415738474  0.8618949136648859   T   T   T
 11.4772561804659787 16.9553929335453653  1.0992424586801823   T   T   T
 19.2520871408794036 13.9604146529328617  0.7503242492881708   T   T   T
 19.5882519964101363 16.9182599021215658  9.2071658149760509   T   T   T
 11.5950529757428757 14.4946783022324883  9.1007585947203005   T   T   T
 16.6065905620735208 16.8687544871980393  6.2956886917844628   T   T   T
 16.8253085774857638 14.4320258144970328  3.8861857666241328   T   T   T
 14.4118849550426695 14.1891227951573615  6.3258174287492421   T   T   T
 14.2339913913421920 16.4907071488336001  3.9408855242465197   T   T   T
 12.9406684106435357 12.8742711210580332  2.4671791674860906   T   T   T
 13.0510888774426359 17.9805441707082707  7.2777760342311346   T   T   T
 17.8060089017961332 17.9045633566601872  2.4797817616486673   T   T   T
 18.1709588181532311 13.3068898256579580  7.6558238037229804   T   T   T
 11.4561104264238391 11.9881418777984834 16.9427709630677832   T   T   T
 11.4011307905068868 19.4457793666570780 14.3132956617751272   T   T   T
 19.2787329826589158 19.4583559427058432 16.4559193896476792   T   T   T
 19.5581125284884436 11.8068208411193805 14.5772136321512864   T   T   T
 16.6292030381446452 11.7008542123940753 11.3482291010837084   T   T   T
 14.0689038305912373 11.7225385482147324 19.5438754003640334   T   T   T
 16.1749163655932904 19.2709721868953281 19.0340778245279552   T   T   T
 14.0271080853765149 19.1012035451284916 11.3423351837966866   T   T   T
 11.1600553044545077 16.7458448242550517 11.7440037477575423   T   T   T
 19.6348914785630839 14.4402214607160992 11.9028989458035817   T   T   T
 19.0898676255045103 16.8713078152121341 19.8591760001963920   T   T   T
 12.0706127584983047 14.5966242594950710 19.3203602218735924   T   T   T
 16.8525072678347172 16.6556139645838854 16.5555382248270284   T   T   T
 16.5373091901352112 14.2808168729363025 14.1946876500863226   T   T   T
 14.1985095819234530 14.3744908159657943 16.3626367530741348   T   T   T
 14.2310779936205218 16.8611320742358508 14.2721086528447447   T   T   T
 12.2675946232612603 12.9083318717935445 12.6762809994724712   T   T   T
 12.5388326563226311 18.3487411453529958 17.8212408090763894   T   T   T
 17.9108650862889078 18.0815290903437109 12.7221060804740009   T   T   T
 17.8307767429343116 12.9171686691759788 17.7886262644958535   T   T   T
 -0.3921296617310046 -0.0320460636272176  0.5981171141684712   T   T   T
  5.3385119004711061  5.0401042284245774 -0.1718057749740131   T   T   T
  5.1751321699314872  0.1549704320769189  5.0473263205060563   T   T   T
 -0.2988754003157722  4.8288416045032765  5.0994894055844329   T   T   T
 -0.0831965597708307  0.0455189620029170 10.5299911474730568   T   T   T
  5.3981048280618564  5.2767767364343676 10.0070103201191714   T   T   T
  4.5334651215597521 -0.0472432799701031 15.1458423315765334   T   T   T
 -0.0670671536090001  5.2249523365779185 15.2902397579420342   T   T   T
 -0.0728815482610781 10.5131586311751910  0.2574349950776519   T   T   T
  5.3837143373737169 15.2793041437459092  0.2033601944063007   T   T   T
  4.5675575525678962  9.6520578407119952  5.2855427675357474   T   T   T
  0.1328710794293025 15.4320733931218204  5.9457933629094324   T   T   T
  0.3969841306499561 10.8010918778046392 11.0992265588128269   T   T   T
  5.4234191288441442 15.6194337424954348 10.6643050835946269   T   T   T
  5.5867788276566621 10.0584269923589815 15.1300817562387451   T   T   T
 -0.2695912595980412 15.4917032575291458 15.1186391797780146   T   T   T
  9.8968785053379840  0.2716352732123945 -0.0377820468665178   T   T   T
 15.7083260135488718  5.2396487668456757  0.3202674562565380   T   T   T
 15.3392195577290256 -0.1764585228433376  5.1821225043703816   T   T   T
 10.0120955025441614  5.2616816755681448  5.0726401065967606   T   T   T
 10.5286212017318022 -0.1022369412460336 10.0705826579080053   T   T   T
 15.7093165557430758  5.2861942971179756 10.4176131519158162   T   T   T
 15.8178818001486121  0.2134806005338009 15.4082522614689736   T   T   T