Li P  S  Cl
 1.0000000000000000
    20.5609999999999999    0.0000000000000000    0.0000000000000013
     0.0000000000000033   20.5609999999999999    0.0000000000000013
     0.0000000000000000    0.0000000000000000   20.5609999999999999
 Li  P   S   Cl 
 190  32 160  32
Selective dynamics
Cartesian
 -0.0947330538823010  2.6165521094788726  2.7566945284492546   T   T   T
  5.1096315081442727  7.6386407976381099  7.5545398377531230   T   T   T
  6.9622505987915133  9.9968248054877105  3.5837232806214616   T   T   T
  5.3228116369761418  1.1394652793690150  7.3880547621416994   T   T   T
  2.9833345997479741  5.5148277411790918  7.6366404033268935   T   T   T
  4.7002425908695598  2.2527402463096635  2.8767768752361023   T   T   T
  7.7751588470888846  3.2646244732105592 10.0985620614930465   T   T   T
  8.1637483665664110  6.9952867350191159  5.0003019622140181   T   T   T
  8.4170557519305582  0.5624812080994470  8.2990428717864209   T   T   T
  5.5360626583028942 12.6352152598486747 -2.7377909235378519   T   T   T
  3.3314225970835971  4.1787722312375442  0.8029877600492442   T   T   T
  1.2093493156590192  7.5565053796121155  5.7936245999337919   T   T   T
  5.4654585733742236  7.2676703215043696  2.2268542683927826   T   T   T
 10.3882574473558797  4.0873632500967734  6.9784080556820873   T   T   T
  2.1954231006918379  4.2527427466589440  4.3402897322892029   T   T   T
  0.7342349961097960  8.5052993823024465  8.5226501201497022   T   T   T
 10.2779170332049183  7.1719672797049494  2.9345742929510203   T   T   T
  7.4464363794245561  5.0414296021837011  2.0473600027144667   T   T   T
  3.6441957632553086 10.1044341356271925  6.3331664517483501   T   T   T
  1.9693893936941380  0.9845592850460305  0.4979260795328118   T   T   T
  2.3287975228692921  1.0382627358229315  4.2892343445521162   T   T   T
  3.3652123571438444  7.5225723630015473 10.1013170286778973   T   T   T
  7.4595461884442287  2.3926659966712109  5.5006589332948890   T   T   T
  8.0818093770682644  7.8438511337560275  0.6457099663398808   T   T   T
 -4.7569852857396429  3.3431714594805051  8.4482516082892491   T   T   T
  0.4930362751211095  9.0758961073912836 18.2529817947030324   T   T   T
  6.1941014681240931  5.9387965098320805 12.7685838769310855   T   T   T
  7.3725796245702666  2.9857881887212270 20.5725115415449054   T   T   T
  3.6932524380677290 11.7327413324274055 14.7336485535782842   T   T   T
  3.1955334784972655  4.4477167810388725 12.4557700515398757   T   T   T
  9.7719529208059299  4.6030278801705125 17.8450052463118709   T   T   T
  7.5692150153115820  9.9552459877375252 13.6293426062819876   T   T   T
  5.5061074327719126  4.3598683524779922 18.4395378216989343   T   T   T
  7.9480095394774919  7.6829355842391491 15.0683844027825593   T   T   T
  2.9137563568099236  2.0809903995876340 15.2721417684098650   T   T   T
  2.1712818718562588  9.1413464098778547 20.2609535183276890   T   T   T
  8.7289330852811258  8.2626320520748653 10.4136031741599346   T   T   T
  8.0482831873565033  3.4235462811251338 15.6458946035625193   T   T   T
  0.3771128193002830  2.9323676309734119 13.2532493914458591   T   T   T
  1.5912736796257625  7.2219075671355837 15.5755906506410842   T   T   T
  9.4862808384654720  1.4052325409315234 18.7156213251753769   T   T   T
  9.7203477779451060  6.6805531680736276 13.2035227092175980   T   T   T
  2.4246447420731068  5.2751472758405651 18.4992791746438527   T   T   T
  3.5106365078006387  2.6892801721794228 10.8355856912470738   T   T   T
  2.6493904361944840  0.3222335541025216 13.0529841558081774   T   T   T
  4.6944366395696555  8.6185689816423832 17.4594342461276923   T   T   T
  6.9484869046987958  0.8402952733056078 16.8095284233526243   T   T   T
  5.2534115758802331  8.4753038616984213 13.2244860842968812   T   T   T
  4.1041076792049394 14.6083197188752454  1.9676693763147153   T   T   T
  0.2701664455246234 18.6611660507846402  8.5900968314095820   T   T   T
  8.0411879838905413 15.5561923978658481  2.7775841438927191   T   T   T
  8.9732824340448758 10.7356077403643191  7.6391282852032827   T   T   T
  2.7306057959322900 20.1367969298813030  6.4452574930040933   T   T   T
  2.2246358762839846 14.2448770968602627  4.0600576470632754   T   T   T
 13.2792074609937565 15.9284641459370633  8.2082366264943136   T   T   T
  8.2269461109581208 18.0091371478074151  0.1822535157933908   T   T   T
  7.6928230281642298 15.5772265560307410  7.1899720954943867   T   T   T
 10.0563651677557804 19.4208727108345762  2.1972840905912006   T   T   T
  0.4526948299320070 12.1211998577392350  2.3425541844404671   T   T   T
  0.8099739644008386 17.5541417936657389  5.8769081503645371   T   T   T
  5.8548215552303455 20.0131821313835019  3.2069032530868706   T   T   T
  6.0519094175279422 13.1554456944894849  9.2358822573930421   T   T   T
  2.7123775695287091 10.5090587840991798  3.0191392359917417   T   T   T
  7.3466458896783307 12.3665788800244574  5.2549112409765044   T   T   T
  8.7054312330467027 12.3826539017309027  9.7830818030127524   T   T   T
  7.6039607493430195 18.1074086824968035  5.0932213629230860   T   T   T
  3.9484148731133049 17.6974635205523185  9.5144669389659544   T   T   T
  4.9970672513170422 11.8422720259847853  2.8844223929975286   T   T   T
  3.2693585302638728 13.0760846546453973  0.1335083077885124   T   T   T
  2.5422270804591585 15.5579684755609691  7.3514617794955237   T   T   T
  9.8406901123059285 14.3687228804284839  7.1424463963620450   T   T   T
  5.1970471249136194 17.6300463815873414  2.0309466966619882   T   T   T
  3.3088558921801421 18.2672903250757059 15.9931246843295138   T   T   T
  2.7263268303405619 17.4764404798012478 20.6442288469041415   T   T   T
  5.2377118631095767 17.8287698852474961 12.9348018529256485   T   T   T
  8.5890065660840680 10.4073221561125173 18.4105109926733732   T   T   T
  4.2039788527139814 20.0893196886990175 18.3118935894930956   T   T   T
  2.9260912801182797 15.0082859510232804 11.2782452708935548   T   T   T
 10.1151358447375461 12.4038834641772855 19.2455270302199111   T   T   T
  7.4629520119905015 17.9008652844428759 15.0902586447481983   T   T   T
  7.1321514384001663 13.1432441195488394 20.3387826115605819   T   T   T
 10.4444543805723882 22.9222082304109769 12.1284835484304860   T   T   T
  2.6936288875409113 11.4348335883495267 10.9110906919238015   T   T   T
  5.0138515041787262 16.8302231283807657 19.0314424630969299   T   T   T
  6.6834523203572660 20.5453268454648139 13.3142765044196647   T   T   T
  8.2636274923553650 14.7784745794895613 17.5740573632910966   T   T   T
  0.3838657425595514 12.4223790061021244 12.5241930572014741   T   T   T
  2.1764615311437026 15.6043561184931701 17.6682817176675684   T   T   T
  9.6042966654196835 18.7675954972263384 12.0128837833214099   T   T   T
  0.6832241527545089 18.1122344892586433 18.2882352277582925   T   T   T
  4.8614580588412748 13.1599857586053002 12.1652446486304537   T   T   T
  1.0753804667401028 15.7317594368010862 13.9230777708719629   T   T   T
  1.1865522357455784 21.7583446890071599 10.0397470425495925   T   T   T
  8.8034941261124331 11.7231286839105326 16.3308554692373065   T   T   T
  7.0836198219555033 17.7071871100723399 10.3286847027489532   T   T   T
 14.3176244404926205  2.4382908681766988  4.6242330227193502   T   T   T
 13.9078234473297666  8.8915144177499350  5.4057868410882755   T   T   T
 17.0889882517692655  5.5732193192402741  2.3562732677586653   T   T   T
 17.6422883602207037  5.0325446417690785  8.2885568397629914   T   T   T
 10.8754791579765602  7.3699862855126854  7.2594547565866181   T   T   T
 13.0925264176155114  2.0642813174308783  0.2456143613799282   T   T   T
 20.3278503922166678  3.1876648785518378  7.4820519591899615   T   T   T
 17.9254389897856825 10.1082649215048601  2.4785717650802472   T   T   T
 17.5475529679256894  2.7783327986424942 10.1836816313411553   T   T   T
 20.4403489139182000  6.9441763522200741  2.9578665467628698   T   T   T
 10.7264881944276329  2.4932071739506920  2.7140566705865532   T   T   T
 13.2470650823633278  6.5527017841419273  9.8010163525863110   T   T   T
 16.1442136601265744  7.3674455817458000  1.3530686840872568   T   T   T
 18.4897785945844930  0.5046337865966561  8.7338881962440809   T   T   T
 15.5911192940275516  2.6622156854583410  2.0217120455627287   T   T   T
  5.7379016527551245  3.8950770262579613  8.0863262861735734   T   T   T
 18.6319036745956481  6.7228529326122297  4.9337335848123232   T   T   T
 15.4990007341135438  7.3743623578803685  8.4137745930356971   T   T   T
 13.2002118664763710  4.5604240561295359  2.4326931583721652   T   T   T
 13.1546561642379505  0.2442654732678620  3.8740186791592732   T   T   T
 12.9605845494181811  5.6530340926130576  5.6044190856135456   T   T   T
 18.0315754527581760  2.3878521618300597  5.6226614748455894   T   T   T
 19.0946475671969864  8.1534143899463789  0.1275974130682877   T   T   T
 12.9969751193366623  2.2149788210990673 15.4930017883432054   T   T   T
 10.5460546014938057  7.6076212109554682 17.7037869679909363   T   T   T
 17.0962619367741055  8.1914843382359024 15.1701418638685261   T   T   T
 16.3102514950567397  1.6070646194384210 18.5476001117537521   T   T   T
 12.1547846732334452  8.2777484276164586 20.1733052366631611   T   T   T
 14.9482106582637755  2.2108299663452335 13.8908054492216184   T   T   T
 20.5815232683350047  2.5203582697991602 18.1813867509038971   T   T   T
 18.7074634674391120  7.7577916331921593 10.6006254249280385   T   T   T
 17.7686412262741555  1.4784454341166866 16.2860039800597463   T   T   T
 18.1234995789573574 10.0486545534040967 12.4061339338809962   T   T   T
 12.7243214551790516  9.4713034495929591  8.3469592711563507   T   T   T
 13.1269004463302501  5.3634916653838385 17.9731633769552843   T   T   T
 15.9263320155817993  6.4526098353186736 12.3316308803347763   T   T   T
 18.7709122499733922  1.7534965966673732 20.6851154773294610   T   T   T
 12.1665953254288546  4.7642762128045471 14.4890028332757748   T   T   T
 15.2708996140609354  7.7800976156732924 17.9371519703312572   T   T   T
 17.6592859419317918  4.6856309105851013 19.6370191862951202   T   T   T
 20.0472602355092491  7.7067891502048811 13.4395234740350720   T   T   T
 13.4662024134335443  7.8292625883573521 15.5810923832661050   T   T   T
 13.2069920899826112 -0.0246556354398478 13.4590145778032131   T   T   T
 13.5418319891682266  2.6292718288253361 11.0254322755791208   T   T   T
 13.2383131540231958  9.9262864575947862 17.2754110262022209   T   T   T
 18.7221968276078812  4.6222313130307606 16.5739934931293362   T   T   T
 18.6674227325983111  5.5867988336042167 13.0462403860749578   T   T   T
 13.0264734057401270 12.3240250391864450  4.8864849006011379   T   T   T
 14.5301408376362424 18.3862609398942958  6.3295274102232426   T   T   T
 17.9880053192662146 17.8865226982695411  0.3706250109929572   T   T   T
 17.4365287333919738 10.6565017532543287  6.7591965955411091   T   T   T
 13.9679192420984233 17.8693589051581547  9.6543128751344796   T   T   T
 12.4593197458949110 15.1955945460190804  3.0992481701708514   T   T   T
 18.3831776841595556 11.7418871444726474  9.9279965779695534   T   T   T
 19.5408689132840792 19.6837347257993898  2.3748787912744138   T   T   T
 20.6425180119725411 12.7220214530872919  8.1208975398709562   T   T   T
 16.7094831694199755 20.1659936824705035  3.3800490576056528   T   T   T
 15.2555569203632917 12.3559449010821591  3.2531763105401459   T   T   T
 13.2222982453721087 20.5209173719811204  7.2531497388121231   T   T   T
 16.1728205829619824 16.3497532939804238  2.3129396689113966   T   T   T
 15.6730138930610590 12.6171972807780008  7.4521746149756760   T   T   T
 13.4689917038939040 14.0889045601489116  0.3924653090048654   T   T   T
 11.2637609962297329 18.7131733925931414  9.3549127238970069   T   T   T
 18.3767608627149812 13.0665135852914229  5.4492493665508510   T   T   T
 18.4879449736353649 17.2379418389440922  4.8937142485259022   T   T   T
 20.1793093385812483 18.8679590979291021 12.2359620824560018   T   T   T
 10.6558804995901930 12.6637282170587344  2.4919300926086709   T   T   T
 12.6377165035263506 10.4646243293405110  1.7788237432635479   T   T   T
 10.6228197869427277 17.8496546556544438  6.8088248117496075   T   T   T
 18.3508000954361918 14.9324845198085931  7.8991818593181096   T   T   T
 19.8717707294050001 15.8565003907190611  2.6379339822731680   T   T   T
 12.1745663967912758 15.5230568810604499 13.6033358089851930   T   T   T
 14.4563614023859763 18.7065339630593925 16.1375861732260830   T   T   T
 18.4246360041868726 18.2748331711113607 10.4797633678997055   T   T   T
 17.3537130691148249 13.7661076052150992 20.1954940931047631   T   T   T
 11.9522786091102624 19.7559006090308813 18.3033022618621644   T   T   T
 13.1393667011910509 14.3160071819414654 10.8751281421363135   T   T   T
 18.3740953148540527 13.1824043797393688 15.2997289260335432   T   T   T
 15.6683344807575740 17.4409775098158200 12.4997627919794816   T   T   T
 17.7008997498091176 10.8418479512757457 18.0892234895102817   T   T   T
 17.4360589376356288 20.1986181868834400 13.5851152046784396   T   T   T
 14.9096470483510775 12.1959855905220600 12.7930465105365982   T   T   T
 11.7280484473681863 18.1517152636209502 20.3664351567684534   T   T   T
 28.1482262897776181 15.5377432177218839 12.7997926531514921   T   T   T
 20.1413442541919991 12.7005741811756625 18.0830176593493661   T   T   T
 11.9695405079946919 10.3226364482411395 11.7102405897240676   T   T   T
 14.6746299682141341 17.3019327500635995 19.2263205600767790   T   T   T
 18.5045679747659193 15.4690955597796922 17.3826786145336243   T   T   T
 18.1324297146791054 15.6997301176818276 12.4222546966519740   T   T   T
 10.8902848057125627 17.7907362606264670 16.1190846638032923   T   T   T
 10.6375736521831730 12.8333304043930276 12.8852271561553700   T   T   T
 13.0004615390540881 12.5513254785125401 14.9437233601163904   T   T   T
 12.6290473542794714 15.6029292040882144 17.4366518389224865   T   T   T
 15.4086601385354101 13.6249299127068557 17.7148766762199799   T   T   T
 18.6132154701410073 17.6228461818381881 15.0398526654849238   T   T   T
 -0.2773209756159084 -0.1023830540114824  5.4271090404058020   T   T   T
  5.0525065152241160  0.0673927791858803  0.2311268018386468   T   T   T
  0.1681160554597190  5.0377849548819924  0.3351949428518369   T   T   T
  5.3361496796112160  5.0173300957950788  5.0172647539839668   T   T   T
 -0.0608146880095621  0.1604204555551537 15.5094899359243765   T   T   T
  4.8533080931827444  0.0080171787756993 10.6373532530189205   T   T   T
  0.3246242353421778  5.2261397152500768 10.3689418241785329   T   T   T
  4.9894180244624362  5.3570549699438246 15.2903051348491363   T   T   T
  0.1125224368312013 10.3889961323251203  5.2776199504664207   T   T   T
  5.3331561172533641 10.0757053824022389  0.1431796527169120   T   T   T
  0.1603456143723472 15.1352026926418013 -0.0085369481372292   T   T   T
  4.9708421296409870 15.2324827066449675  5.0054276761319505   T   T   T
 -0.1672043100386971 10.4439609853795208 15.4044886880107263   T   T   T
  5.2896164042433877 10.2427470298910350 10.0003348058839823   T   T   T
  0.0626234458969480 15.4457053594794935 10.1763527242785159   T   T   T
  5.1623977348374099 15.1581558876698939 15.6252962755239064   T   T   T
 10.1564954714599942  0.2153694377921318  5.1104156390854376   T   T   T
 15.1301942770732509 -0.3736887324931109  0.0886508597150666   T   T   T
 10.6850007384029322  4.9830526126942090  0.3052697085432368   T   T   T
 15.4452221872554016  5.0778204336787010  5.3790100253879540   T   T   T
  9.7796479411728061 -0.0956872059672106 15.6133972692395329   T   T   T
 15.5170328094065137  0.0441677352992704 10.6772196112309281   T   T   T
 10.4671914015458789  5.1022587277381088 10.3881279315051849   T   T   T
 15.3461219125926398  5.0527357065796945 15.4113439106198218   T   T   T
 10.2786843688262071 10.0206266942008302  5.0035428864810392   T   T   T
 15.4282132319239693 10.3437022918323756 -0.0302035385332839   T   T   T
 10.2489958276236042 15.4679611660928007 -0.2733970097026435   T   T   T
 15.1974775289634128 15.4027378147905090  5.5224914260156908   T   T   T
 10.5438182517657353 10.3196246678185126 15.1169028685024287   T   T   T
 15.4649170459761809 10.2802989947454826  9.8422924889246364   T   T   T
 10.0987664452667243 15.4255178434521678 10.1162553692444455   T   T   T
 15.6249054354757568 15.6493491961823832 15.2750348047987714   T   T   T
  0.7807894241157308  1.1195519587480942  6.6423332289447492   T   T   T
  1.1145538335580907  9.1800967570305243  3.9029921853035607   T   T   T
  9.2762531116454170  8.6241989830957273  6.0990681600139176   T   T   T
  9.0622169178771443  1.3916436206148826  3.8522739951156146   T   T   T
  6.2093189080079503  1.0654815170685461  1.6372189762454865   T   T   T
  3.4740148531066954  1.0858059825052337  9.2305372446802618   T   T   T
  6.4615191880131846  8.6514233729778507  9.2060601704631448   T   T   T
  4.1027119181994411  9.0798321922183582  1.4882310129749863   T   T   T
  1.5225429435623525  6.1059344530818089  1.4630891289808177   T   T   T
  9.3513318896775601  4.0879632773667582  1.6068173369043168   T   T   T
  9.2998692883894467  5.9126137755122903  8.8104739096016242   T   T   T
  1.5689153469112709  3.9439489383577628  9.2740446019245528   T   T   T
  6.5461401448483043  5.9233703842004939  6.3169982153155129   T   T   T
  6.1888406188016418  3.7157097409701803  3.8700780834299087   T   T   T
  3.8590631756461344  3.7294194708795128  6.0616782615935572   T   T   T
  4.3065192775039884  6.0094687613448201  3.5029569575396011   T   T   T
  2.1496402996966859  2.5419279393642693  2.6120738031150275   T   T   T
  2.7731446073121298  8.1176651786860035  7.5049752216350454   T   T   T
  7.6995462494104254  7.3808445996252487  2.8860349074141802   T   T   T
  7.3142988586719069  2.3677836179631053  8.0205864632530677   T   T   T
  1.2724680869708780  1.1719246979841609 16.6756451607053222   T   T   T
  0.8949567011710967  9.2515989316653986 14.0909526878904554   T   T   T
  9.1951794939346438  9.2520268909110328 16.4511711265831053   T   T   T
  8.6078160655057001  1.2605848432239295 14.5635748124582083   T   T   T
  5.7742608111323124  1.4121955873131924 11.8548052142873974   T   T   T
  4.0763753761451431  1.4619831842935127 19.6064762434212909   T   T   T
  6.5745918931791705  8.7576907928390177 19.5017816367519288   T   T   T
  4.0465134258333944  9.5549791467253744 11.3329623606396215   T   T   T
  1.2904431686968345  6.3138464040411062 11.7976426451065155   T   T   T
  9.0141839919245985  4.4587818713780960 11.7045842496331911   T   T   T
  9.4860983220412187  6.2275550087208851 19.6679672277055602   T   T   T
  1.4022996498173890  3.4381443608728737 20.1544156797209340   T   T   T
  6.1951411914155416  6.3168651890934022 16.5495788988121788   T   T   T
  5.9919007170783916  3.8251518393762631 14.2765450594237606   T   T   T
  3.6107162147075860  4.4136584235706700 16.4247874681562678   T   T   T
  3.9723323238143982  6.4639193113676843 13.8579690216667721   T   T   T
  2.7563640415423714  2.3216761639924219 13.1227077234399800   T   T   T
  2.5164478660745515  7.5981695264036659 17.9663627175940874   T   T   T
  7.7876770267971258  8.0141837360172090 12.8004801030638298   T   T   T
  7.8238888401870117  2.8615136721521561 18.1375056770992558   T   T   T
  1.4661444950302116 11.7686941069096118  6.0538255918099715   T   T   T
  1.0445148956856081 19.4494551676121858  4.1347470659042722   T   T   T
  8.9273151681185290 19.7688749058226954  6.3994574718565742   T   T   T
  9.1671103702900343 11.1732833977181407  3.6860522229893378   T   T   T
  6.5985974682953374 11.1958690915188832  1.3526938943290976   T   T   T
  4.2587282299350449 11.3710150968901811  8.6032674103542313   T   T   T
  6.0253985040370939 19.6451691076496715  9.1496778258631348   T   T   T
  3.7316065405192238 19.6967391270599848  1.4332264417870644   T   T   T
  1.3708363021521865 15.8999137021223209  1.4980455924363358   T   T   T
  9.0923459817181698 14.0855232723884054  0.6683209074853314   T   T   T
  8.9939336497459532 16.8371603869388373  8.7584531218265820   T   T   T
  1.3998482707874993 14.4013689841986690  9.1842783676932189   T   T   T
  5.7443539169044620 16.6222808555027122  6.3100228895233057   T   T   T
  6.3785138793298604 14.1235195620203555  3.8963566190132748   T   T   T
  3.9198757466886494 14.0776578770202700  6.0711209172837926   T   T   T
  3.7582931864451221 16.3168906678402585  3.6388586606181903   T   T   T
  2.7834254435403070 12.6253786316238870  2.2915396773954253   T   T   T
  2.4694855352784630 18.2299714797507129  7.6674962879163724   T   T   T
  7.4425728525614625 17.9251093669154535  2.7524760340425742   T   T   T
  7.7022044674896799 12.8289240874027648  7.6687133747289229   T   T   T
  1.0870432124202452 11.7658809505512831 16.2275021488599123   T   T   T
  1.0638293574814779 19.5143446516096652 14.0844000698563399   T   T   T
  8.5970759785953188 19.2471486609044540 16.6807348202727539   T   T   T
  9.1431192361265978 11.3379747167188558 14.0418502012204289   T   T   T
  6.6617556374504119 11.4228282519616560 11.1301890895365538   T   T   T
  4.0724262974634922 11.1566106596505925 19.4635483255451689   T   T   T
  6.1400906846481700 19.3050150426005231 19.5924279186016506   T   T   T
  3.8024127896732596 19.1527829462251447 11.7276048807047975   T   T   T
  0.9977702315868494 16.5842227791535777 11.6403263629965039   T   T   T
  8.8951640629602622 14.1894742555806594 11.1870038803852019   T   T   T
  8.9784170657966058 16.5398727144987525 19.0316481658024017   T   T   T
  1.3236453470927427 14.0723675807327417 19.2247191077757549   T   T   T
  6.4021692620808457 16.4163590616712582 16.6568195470521303   T   T   T
  6.4422248971447553 14.1295667307635053 14.3983912663839515   T   T   T
  3.9384869640680527 13.9508243640118454 16.8668841139171235   T   T   T
  3.7887403081256945 16.3833169343882794 14.5541385709876039   T   T   T
  2.6005701379013182 13.0993992927127305 12.5260469307143385   T   T   T
  2.8108412832355523 17.6378047901841164 18.1756609988048297   T   T   T
  7.3765102387936325 17.9362973162488188 12.5489072356366762   T   T   T
  7.7964216703133742 12.5475507909046247 18.2542232485117495   T   T   T
 11.5465012996186633  1.3445511037025319  6.1530546444720562   T   T   T
 11.7297593587625890  9.1047159725350699  3.8923061199986275   T   T   T
 19.6142523475079216  9.0369728724305673  6.4972661559796476   T   T   T
 18.9154656564419312  0.8026334052447117  3.9693390677019975   T   T   T
 16.5645282985279891  0.9551805048295633  1.0387430167446756   T   T   T
 14.6176666753347053  1.4625951188294763  9.4275224228543273   T   T   T
 17.0411347583144348  9.2597317487882727  8.8538178556031006   T   T   T
 14.2687684385776148  9.0682325716858401  1.1979740052558687   T   T   T
 12.1848749718784486  6.1506748556761961  1.2066529378671900   T   T   T
 19.0679618915788254  3.9796631389093862  1.2319439862615724   T   T   T
 19.8155439893662617  6.4602760720242074  8.9716206037635899   T   T   T
 11.8058007294548819  3.6438999922125741  9.7464901105222470   T   T   T
 16.7937918733692086  6.1995327604338621  6.4544563191450104   T   T   T
 16.3742423337420249  3.5477708963221444  4.2561304766037829   T   T   T
 14.0342508263244081  4.0742251749635594  6.6088136405173916   T   T   T
 14.6961412518377550  6.3486352611698198  3.9869015811286750   T   T   T
 13.0566696524424817  2.1055748132654442  2.4680652355775465   T   T   T
 13.4270264058414917  7.3892580267207340  7.5536531342299416   T   T   T
 18.2748638968425681  7.8169982478965201  2.4498401173962860   T   T   T
 17.9554581622542457  2.7699720966093961  7.9695491788397392   T   T   T
 11.0498290744705177  1.0003168874376509 16.8613293946781226   T   T   T
 11.7301881320444110  9.0925699118648389 14.0258560030919455   T   T   T
 19.1489352219937530  9.3688577475900416 16.6526927609273514   T   T   T
 19.2440706300713700  1.4100549594347767 14.2279529994755833   T   T   T
 16.6857523341897078  1.1236731013683929 11.7691476175946761   T   T   T
 14.0167625308581485  0.6685586227885582 19.1350814303223586   T   T   T
 16.5930454348460472  9.1563813553003754 19.3604472158685965   T   T   T
 14.2063752627671978  8.8600775209202691 10.8589261273148576   T   T   T
 11.4979005483760091  6.5371226267957283 11.2314534123487313   T   T   T
 19.6248746435558061  4.0422804525198792 11.4615100497031595   T   T   T
 19.6653450685530160  6.1583904015117259 19.4546704083874715   T   T   T
 11.7868032961200822  3.7498462087665145 19.5407301855494353   T   T   T
 16.5228397312406372  6.1868160768283564 16.5686267366725914   T   T   T
 16.6308573112838260  4.1027164493512425 14.1494259550552872   T   T   T
 14.4217602518272017  3.8705996284564566 16.7806336150861810   T   T   T
 14.2281942863408926  6.1517408917797294 14.0905447581597691   T   T   T
 12.4827018046410849  2.2962360691824228 13.3347091016252435   T   T   T
 12.8813180148987314  7.6388353556542459 17.8384235658249040   T   T   T
 17.8063432966015043  7.7860339246932311 12.8008609988036195   T   T   T
 18.2199002373190027  2.7689185640648830 18.1927768681019799   T   T   T
 11.4527280731528229 11.0167633796222137  6.4195656631894940   T   T   T
 11.2063542585522828 19.4128197034916674  4.1691532562583609   T   T   T
 19.3583979914758046 19.0553521416872869  6.5333161740381849   T   T   T
 19.2545781997600898 11.4210102074986057  4.0392988675094115   T   T   T
 16.6659782241214884 11.5599439051673691  1.0330144518980737   T   T   T
 14.3950560916199048 11.3218779030115186  8.6475889364776464   T   T   T
 16.6215666719116726 19.2374574982924678  9.3778756511735306   T   T   T
 14.1071532052303930 19.2142453134326807  1.6566179840032917   T   T   T
 11.1121637002032720 16.2867363735265300  1.3615380047540333   T   T   T
 19.2453560606715683 14.2055074458845194  0.8738016928899474   T   T   T
 19.3158062509173689 16.7276403167700067  9.0254868493694733   T   T   T
 11.3888930462316988 14.2020760559135031  8.9355621949804167   T   T   T
 16.5147107855573481 16.6750863054746610  6.6460061700185253   T   T   T
 16.3579643736626750 14.1106242548190650  4.2306975411088059   T   T   T
 13.8020887107869754 14.2706860010552621  6.5725560934991973   T   T   T
 14.1370022414031205 16.6657145063957657  4.1323280502269872   T   T   T
 12.8439183776679950 12.8032497827633254  2.5514902577560212   T   T   T
 12.6953856517417538 18.3018810707062407  7.6801852919531228   T   T   T
 17.9447597833502570 17.7089005586472297  2.7532787675822501   T   T   T
 18.1124945054548689 12.6121326970813321  7.5742063020798929   T   T   T
 11.5599611860974036 11.6803289307210534 16.3681989861516755   T   T   T
 11.0148500256180277 19.2238645738989433 14.3527575569684238   T   T   T
 19.2388188953678068 19.3103894549048505 16.5319952547369837   T   T   T
 18.8397928831415484 11.3087922253336846 14.0232338663160139   T   T   T
 16.3758086456755976 11.3927159492397916 11.4135357259495063   T   T   T
 14.2482028785014752 11.5685232688930029 19.4341182716710037   T   T   T
 16.2199967134726535 18.9295841728945753 19.4993700797105305   T   T   T
 14.2834982721800490 19.3743629312802845 11.6860020317852733   T   T   T
 11.2990921521987406 16.6482272896916825 11.1935167225321557   T   T   T
 19.3566781124612106 14.1541576154561461 11.2498232649005114   T   T   T
 19.9459108784541002 16.6379111182764881 19.3444171492004315   T   T   T
 11.6848168133436072 14.4615695871929866 19.2411540678093189   T   T   T
 16.5259352456099151 16.7084585482938799 16.6961691072393990   T   T   T
 16.6276567259452506 14.3137259056759110 13.9699506710341002   T   T   T
 14.1362108063400864 14.1423156063133444 16.0180836430753502   T   T   T
 14.3155025005683427 16.9338721919936432 14.2364197283639253   T   T   T
 12.7302624407475058 12.5505647385329553 12.6277026190643227   T   T   T
 12.6210453417972186 17.8497429426984304 17.8415510596268589   T   T   T
 18.0069299228927164 18.1863329782186227 12.6966227614249370   T   T   T
 17.7520765803799421 13.2230933642526605 17.7775870025429938   T   T   T
 -0.4541664862412192 -0.0176723237623081  0.2881530081673474   T   T   T
  5.7861268784342190  4.8959692180091681  0.1101505365695072   T   T   T
  4.4094119491613881  0.4149540023482201  5.0180782947499702   T   T   T
  0.1200108385396441  5.4826164019639512  5.3802151294559586   T   T   T
 -0.6001358584819175  0.0635025494533501 10.1654380161802926   T   T   T
  4.8607783558504547  4.8299388697478305 10.8947920759368824   T   T   T
  4.6310578987859499 -0.1895479915981549 15.6145153974146655   T   T   T
 -0.3542687543283811  5.7313680289353428 15.0369134603471721   T   T   T
  0.0074717748728727 10.0938915141226833 -0.3488064480697749   T   T   T
  4.7532247357558068 14.9181824652175230 -0.2676579906065976   T   T   T
  5.0736908487493642 10.1963079880812373  4.6435501768728615   T   T   T
 -0.4110329110902515 15.6121712914103981  5.2714781636417971   T   T   T
 -0.0777310767365918 10.8655038020288774 10.3308799295734364   T   T   T
  4.9001973181231522 15.4761981174732206 10.1473489430921049   T   T   T
  5.6516003941333945  9.9742290462630265 15.3526360496062395   T   T   T
 -0.6065349666455064 15.7925006468397413 15.1635809116898024   T   T   T
 10.3622018404870602 -0.5161802992635917 -0.2123225155504755   T   T   T
 16.0045400202676973  5.1974484601243693  0.1930291309857111   T   T   T
 15.2072057156223863  0.2360147402023194  5.3824729944870562   T   T   T
 10.8419469081599207  4.8421737485485714  5.0408789442613529   T   T   T
 10.0742351103992274  0.0566626874502673 10.3648512115450107   T   T   T
 16.0409519231664248  4.8480036793451378 10.4217415814313590   T   T   T
 15.1646608849667430  0.3107105231428400 15.5877630100451778   T   T   T
 10.1368745604773629  5.2209863294494427 15.3486881808088818   T   T   T