Li P  S  Cl
 1.0000000000000000
    25.1819793006824639    0.0000000000000000    0.0000000000000015
    -0.0000000000000009   14.5388225279766061    0.0000000000000009
     0.0000000000000000    0.0000000000000000   37.2126966544236950
 Li  P   S   Cl 
 286  48 240  48
Cartesian
  1.6923586242872799  1.6894167420898152  7.3319178932446665
 14.0963363527440606  9.6068567747831946  7.2571346891071329
 18.6046038397603972  3.0939888370059552 11.6963292711099509
  5.1656949871258124 10.1083280105637439 12.7672008057012665
  8.3525542562242112  2.8490481970629888  0.5028031288412679
 20.6374098023174497 10.0897198144731473  0.5573652829274859
  0.5194505432213022  3.8720292005396226  9.3436450447247754
 12.9836734728529670 11.5979454023928543  9.3476981654709519
 16.9213974003437535  5.3352613869483632 14.4818229811768724
  5.8519321721332478 10.6869826461561086 16.1393026531734023
  8.0724744292105388  5.6554403167547447  3.3425209874593440
 21.1893465214625500 11.6253799632755985  3.4955953553191024
  2.8426428543164728  6.5951492881401803  9.1967137352518762
 16.1897598239846268 13.4409027606050699  9.0262523219506754
 20.9030140003411873  5.1632329184615511 15.8966470971528384
  8.3180016752871655 12.7841620507125810 15.4038105669123340
 11.2298893778229711  6.2525364915655226  2.7167029065162063
 23.6730106143391374 13.0214860963819152  2.5987656380892128
  4.8219561951782843  3.0159343652508421  7.3986612941821042
 16.9410398443585315 12.1218406263178782  6.5452693767592249
 21.0482439382912467  4.3055359419231003 12.9471467130694347
  8.2214991576253986 11.6290798170348957 11.9011597310993906
 11.8628604277467229  3.4043901633612008  2.1859921556293345
 25.1577348420024158  9.8978956224748096  1.0206654652564973
  4.0335203582306436  3.9767429053733445  9.8777453055143098
 16.3728767300842790 10.5632774644836367  9.2447882497409370
 19.0149732690342077  2.9579870052931132 15.1775188183682381
  8.5609204493700020 10.2383044165616770 14.5108923777508103
  9.2149877589340043  2.7093471567727936  3.4580172548654668
 23.2408773668159689  9.7957643462806097  3.1412303708094842
  1.3560531441427786  5.3171903804879896  6.5661923481793858
 13.4156657412600513 13.9013140860605269  7.3563301168124298
 18.7440467612413855  6.8234565552103783 13.0839807270943052
  5.1066787791593233 13.3758048328622312 12.9759788374293628
  9.5075990294293504  8.7033975411366917 -0.1359259971394049
 22.2907301001849554 13.5048806787109825  0.2805266105998512
 23.7203417236057881 14.4292596325276055 12.5919818166492767
 12.3326410851110353  6.4991116749330908 11.5887558429845718
 14.5930956385579318 14.3436935640942984  0.9693257768997612
  2.4165293694859731  6.3155665042497722  0.9677450661166807
  7.6703330993487207 13.7710408671356372  6.0760281797878637
 20.1359934792762800  5.4956641473136285  6.6880142869054025
 23.0560421225293943  1.6909389085416580 15.4911385596896753
 10.4412695290659556  7.8625147172958183 14.6846564520473617
 14.8444462104018573  2.5467794981900012  3.6195021854269864
  1.8669905966673330  8.8379968322349551  3.2035219333299709
  6.5065490687516316  0.8298330098210817  9.1460838043596109
 19.5328791997943298  6.7314488917543400  9.2093090729735465
  1.7581184146720465  2.1434174794103318 14.9610048877719990
 13.3304133147492259  9.4199445984312007 15.0341215192694584
 18.1005379559966464  1.6739967834418732  2.8608158033730073
  5.5185430103898341  9.0274192614610715  3.1107989495366200
 10.4940595846116462  0.8618490477418097  9.9434850268039341
 21.3624954784076166  9.4118435301907457  8.9888954096840905
  2.1260190878750564 -0.3864466427194017 13.7852904586246847
 14.9798013480481185  8.0532897160949783 13.0171816640868592
 18.0976850526938193 -1.2979125796248019  2.1143938517747674
  6.0503684022981394  6.1096519325766661  1.3239577552257473
 10.2391394231086430  0.4079163265217302  6.7703509953475338
 23.5725438341956313  7.2695578917372305  7.0132736864203054
 -0.5024495678735872 13.7601304741627501 15.8779772205581047
 12.5497041167536167  5.9654286092766675 15.1272286475049338
 15.6832003775307403 13.8270892984295592  3.7200310480394965
  4.1159859432847190  6.3045783758836089  3.8130255602195198
  8.6945603762506689 12.8422545083135020  8.6298350919922235
 21.3923675779647802  5.5623061478378126  9.3559901661399589
 24.3324603659732936  2.8972821662104424 12.7522549331205006
 11.8510100083749919  9.8322937568142237 12.5815416661207173
 15.9919835739609493  2.6523033936839342  0.4762613366774642
  3.7285863467418610 10.6717737311755609  0.9932483963729359
  8.4719773817012189  2.7683238291934771  7.3716609464418408
 19.6938955453041125  8.5594860247514326  5.9417160502599389
  0.8904748329071553  9.4356532795247876  7.0433305022601731
 13.4594772822698534  2.6451740462647293  6.4533479249151799
 17.8263592471770238 10.2973918734216596 12.5215253658431731
  5.1789707102298630  2.2136664042994822 12.9462369396430290
  8.5958795421492518 11.1832697896928579  0.3420308899488714
 21.3689348135124426  2.4322933872705956  1.2281374807431023
  0.0313313278034492 12.2019911174679194  9.2018356017104281
 12.5413925216644273  5.2855759722777709  8.9218505101053278
 17.0726993173125905 12.0499816900547643 15.0298424881443893
  4.3117660737781298  5.6632928722773235 14.7739060711088630
  9.4207919186452713 12.5421288698395070  3.5891655278610259
 20.7559990191144230  4.9950585796584352  2.7426133640733510
  2.8357356391338051 13.3696773566054823  9.2564550039270515
 15.6998076280943302  6.0268360837145112  8.6848748406859517
 20.9438068596842690 13.0306828676454565 14.6699311802964854
  8.4070776709450588  5.2193212281087202 15.2120570431048563
 12.7797171965378595 12.2144794997427280  3.4644710520192845
 24.3193749856095600  5.2655721564174369  3.3294026641559906
  4.3950571784699948 11.2606336171557899  7.1747137847898230
 16.8327896004201101  4.2748975948153154  6.4998781737388756
 21.0323851007580913 11.2162944936349849 12.4818413792430025
  7.8237811938951030  4.3246670381692471 12.3272500417628610
 12.4827381047421593 11.6140112656640184 -1.6029892754006938
 24.7790967170668104  2.7695634250007370  1.5581242491592127
  1.1808076158324743  9.7712793118650669  9.6744647572042997
 14.5164586207792432  3.1915154934377687  9.2050927499597588
 19.5883474210663380 10.3366116996950144 15.1232517609616881
  5.7384533406519020  3.3760402346566476 16.0093799347875212
 10.3410013607292033  9.7051411439420026  3.4967859294503745
 22.4781168077759972  1.3194381804597168  4.2959005298684563
  0.9874766741850051 12.4783565011935860  6.2868723040432544
 13.6877302770068994  6.5445001956519446  6.2342317376453895
 17.7569190584628132 13.8262661054805882 12.9947256297374505
  5.4573842378570383  5.9055041642437907 12.3294275327383325
 11.1328338451379167 14.1292377349029739  0.8916969370443125
 22.3606679031616444  6.7620997811946033  0.5631522106559751
 20.2584034622632352 13.1150876112821297  6.4668241627665806
  7.1941735507677720  6.0104298153687497  7.0750832087049211
 10.8912927236430832 13.8434658172784744 13.4962489595844470
 24.4264364651033148  7.8865924327169763 11.6957389564312741
  2.4979597931634188 13.3120435132472252  0.5472360747901973
 15.4136409517932531  5.5912384230123928  0.5058545363310730
  6.5041840961842592  8.8526653297743678  8.9921103532165212
 11.0215173561328879  1.6792593998379666 15.4495629904795848
 22.9453891828720664  8.3891365485313685 14.6815592378360815
  2.2491050377506894  1.1698461344832789  2.6859922543050603
 13.7852114312514065  8.4885565377707586  2.3380751783115676
 22.5765915579411605  1.6696308268230218  8.8351384651310241
  8.8322248900554357  9.6340125548990976  9.1335738202360890
 14.9834253851787942  1.4661055719283445 14.6055268678922854
  2.6795018700610180  9.6096294178372457 15.3589179456244427
  5.4719142103589489  1.6931546448140899  2.6210029815587612
 16.9169439918308484  9.7314390674099265  2.8851515901098113
 23.4221369833151094 -0.1697926662597872  6.9440541830519402
 10.5264303649586406  7.9195193685749095  7.4336077057289565
 14.5822452130262636 -1.3008333060654171 14.8983090591165563
  2.0850439097446980  7.9208167471206901 13.0417764681116921
  6.7634460024952023 -0.3538991032845867  0.8202282571983512
 18.4064168788263913  6.2611137653522126  1.6190270108891742
 20.7045516919035641 13.2655992691510551  9.3958661686350098
  8.0877066943423142  6.2067111677139764  9.8124412875926765
 11.7515195122775218 13.1615043076673075 15.9160578668618200
 -0.4741461407225488  5.8500367907734745 14.4128478696451250
  4.6805887106357691 12.5437864061590751  3.3365639284437445
 16.2043367536687342  6.3895818418002381  3.1505021390275032
 19.3171993124687695  1.6815460302389345  7.8895316689637571
  7.1948956759395948 10.0777467888649923  6.8656678880434026
 12.5483062957990832  2.9209570189668965 13.3434865829877989
 24.7848815675898138 10.4735376013530068 13.5208563527620722
  3.4080934987765135  2.1351178205299099  0.5341110044257951
 15.6328222137236477 11.1646994960291117 -0.0838997081572271
  5.6156942939113401  0.7059958245999700 30.5611949871852389
 18.4937953359237284  9.0509265221377611 29.3081330805513360
 22.3140215601531615  1.5978097489982614 24.3034761953408243
  9.0985328727588701  8.5702927043378718 24.5617963879177807
 15.0135642745889140  2.1892800562227714 34.1806348938003595
 -0.3299330810538630  7.9747462681083023 35.6151755071508660
  4.5259006401828890 13.8316947024482069 28.2624981971505491
 16.9093653600603808  5.9812112794979795 28.1926353447370026
 22.1242438656285501 13.3563004280993276 22.0661065467631587
  9.5491372729691069  5.2777976926756418 21.0114239916520731
 14.9630742294142642 17.3235465913929474 30.3186913039500787
  0.1725251980800253  5.6196928772872230 34.1842800220188394
  6.3412746889159051 11.5454586864498498 28.0114527808099361
 20.5089543845324833  4.8954768291122281 28.1812334925998691
 24.9379332353544214 12.8304587292112782 22.5349506939913802
 12.7302460365943499  4.6129694272318060 21.6032992429764406
 15.0588596719195351 11.1376739365504971 34.1315573165128399
  2.6194976873476192  4.1991582192957795 35.6061407057957169
  8.9443909544641080 -1.3271336973846737 30.1531563099256097
 20.8515530993024036  6.3866964081469684 30.5077542699317945
 25.1016140984172615 13.6625934658593362 25.4351327232334725
 12.8053436787529851  6.4246772547580120 24.2513827069208041
 16.9524595880390869 14.1376663509625082 36.3827990733892150
  3.4962216187455324  7.9832129422108364 36.2301219582514165
  7.3699148903871921  0.2724401793926218 28.3781772492022100
 20.7828811651665966  7.5879074514676104 27.5418579327402604
 24.0568334434966822  1.1817199996652572 22.5277659960024437
 11.5382207993793813  7.7600858598090161 22.0874971517935421
 16.4049876026143018 -0.6981494468007576 33.6115995208985012
  3.1523913354997273  6.7951255643087212 33.9429398749964903
  5.0281882188767968 11.9532936905792671 30.9155239364905547
 18.0946753107032450  4.6929098624992740 30.7004789004575365
 22.3876543099770622 12.2767661654585787 24.6727189896828527
  8.3829930238732331  4.8942553558745274 23.4515769049762675
 12.9208453024968950 14.3290881936876708 34.9212742215770078
 -0.5908214491010431  5.9032072759703018 37.7691333757120447
  3.4598699369168209  4.7876804163779969 23.7707474192508279
 15.7460278518960255 11.9547344149730179 24.2969488852817541
 18.8652949055894830  3.9017503226924042 36.1113624290177881
  6.5762917185017864 11.7629162023344982 35.7651659666335959
 11.3296193775875960  4.7351732286615249 30.0104102899554377
 24.1739584015305873 12.4105100077578978 30.3292007047297183
  2.4563601945450673  1.1792346484287042 24.2571270777822896
 16.2478781707862758  9.7261773884014087 21.2046873919343604
 18.8016787163536101  2.1666911110996230 34.1064485701356546
  6.0426127309271003  9.6233591665965612 34.2402722758247151
 10.6152286030429082  2.3622797719219615 28.2204766637224296
 24.1982477549956556  9.0687744741314305 27.9010813909228261
  4.2260796774592828  0.8195816958115811 21.9986424305730566
 18.8314505154802667  8.7761892344933319 22.1772081127938243
 21.5959006705449461  0.5715154841959215 35.1075471755478361
  8.1360425674396595  7.4150586037671893 34.4884427217793714
 12.4713939871408428 -0.0142394529418103 28.8361344089346545
  1.5853309338030479  8.6072438279171237 28.5089114660385263
  6.7809535377637911  1.4499716195625865 23.9949379280430186
 19.1909061795063778 10.7066742436307276 24.7978540313935873
 23.1413221659648869  3.5296796660242871 36.5969447618988326
 10.2126572010520107  8.8785894838429993 34.0915091071416256
 13.9163926451871465  3.6447807101757643 27.9729996317492180
  2.2098891546497494  9.9944183785595939 30.9003361285860265
  6.1145084038443951  4.1173566845448066 22.0690057876725447
 17.6133402753906161 12.4742215367193676 22.3547093885712940
 21.4267077226549993  4.5905620742638957 34.5181373148006330
  9.4460888017316318 11.8417564730999398 34.5620838313135152
 10.4981153762348178  5.1805179420835339 25.2785510766987471
  2.1242524556131204 11.3839540963101982 28.2232492354820330
  4.4586324622132558  2.2473839372123776 26.0268009458844425
 16.7451390362995376  8.3103397127666092 24.4141008394964665
 19.1037919598447452  0.9569501470085022 37.1411348526214837
  6.2556595017784140  9.1690067768413481 37.4316384967889491
 12.1282048432539984  1.4681800944629664 31.7022632429007487
 23.9456964101107701  8.9611811890209889 30.7655315287783857
  5.0594330673409358  7.8395099142010336 30.7839132824469175
 18.0818444736090420  1.5809110699344322 29.4646019541012656
 21.7728836378811934  8.4082723899853242 24.3914365682337113
 11.4163418400473216  0.2213350890414476 25.3222141884317438
 12.7747625256210497  7.1165205822211979 34.2381947556815547
  0.6879278234922523  1.0347745231418066 36.4097978540313534
  6.1169189985665318  4.7158511372065481 27.9420586532780106
 18.4930307519945600 12.5634927487058086 27.3835945719187386
 21.4311052278880148  6.3845579159940344 21.4928109597898320
  8.6385194783863923 13.6209287000002650 21.8149736884234287
 13.9543811253714747  4.8538821812004400 33.4923201913395658
 -0.3941606389225580 13.6293141850087931 33.9893921124125100
 21.0105403520311569 12.1548998137633664 28.7976027411794213
 24.1014202412402554  4.4577094470952137 21.8891436730683324
 11.5823688555050399 12.2558176105900714 21.5575882222525941
 16.6048152799373234  4.9141214911295110 35.0366111267391247
  3.6039602466051677 12.2384236329867946 35.1520779162609216
  8.5469480396286883  6.1661146539863614 30.4152180556468359
 20.2804457385144090 13.8123209624960985 31.4308729435726235
 25.4180125748473458  6.9939151826455044 24.6489106030254810
 13.1681622799147604 13.6784095024294174 24.1344663441179641
 15.3999862364879014  8.1134124199650799 36.4479135661889941
  4.4134806809054190 15.1145466579775665 36.1122162093951715
  6.3217133701779087  7.9906541028711935 28.1399952238308018
 20.5426148553589734  0.3685785148669955 28.4309667720512316
 24.9430445299899830  7.5206307327844044 21.9621755897909665
 10.8405265744322321  1.1221269533158227 22.2972297493419518
 15.5309101833580652  7.6146736540816882 34.1767384568751140
  2.6638525908355621  1.5432956463811669 33.9783655201199934
  5.3819951847642651  5.0631270216961113 31.5077249662449042
 16.9925859488975597 12.4835755321938731 29.7495192841787635
 21.7478812839487858  5.1307359516041258 24.0339262398072506
  9.5700229990132737 11.9535585865170528 24.8258492980892740
 12.4474399166177410  6.4358274950876986 36.9913687089680323
 -0.0701047466418854 12.6754164516600127 36.3092027927244771
 24.4143714179812754  4.6212709973376294 31.0321449167484289
 10.6831238985072172 10.0862343883902295 30.7554886712248070
 15.3696079370042540  4.6487734507576164 23.9149204470279635
  2.9840350621365959 11.8977341971119372 24.0635783284197551
  6.0484025946044397  4.0166551154294847 36.2250672283050932
 18.8170166447244682 11.3591792929126925 35.6817497084293294
 24.2238876864472843  4.4781159856295387 27.6002547477213369
 11.5527645797835010  8.5611574212332897 27.5357026349601526
 15.1196180040263215  1.6182169672853726 21.6825320264471628
  2.6993387117880712  9.1350956055435901 22.2558198142404429
  7.7048342788090229  3.8954375364706286 33.2898184990882484
 19.1267119923138793  9.1811708389978932 33.8079939757200734
 -1.0003976169466156  1.4002979869578558 28.0676603329574412
 14.7803640770032576 10.1434227489643227 27.2333378129455710
 18.3105683825726118  1.5194852366023854 21.4991876693716932
  5.3278943742698424  8.4669556264865307 22.0320188073945751
 10.1487329939565907  0.9184997691940631 34.3334524953929616
 21.8372620268788253  7.9731397124444454 34.5510528219319539
  1.5587043665456728  2.5744262070891275 30.7075548822822064
 14.2382546726235759  9.8667974703358752 31.4129543751756977
 18.6902944614964603  2.7814577894438881 24.4298520228362648
  6.3987988506347220 10.2671319310547400 24.5827819749931145
  9.1985622827411841  5.0817176948214184 36.8152199452506679
 22.6592697216861936 10.9680937871984714 36.2827405950935145
  1.7476178031747249  3.0268418691591426 28.0244051580677009
 12.4866915190049514 11.8326359378811574 27.8230086774075112
 16.8314187711782743  4.9557278047871378 21.6263983451855957
  5.7613049200686124 11.6832533097117324 21.8959653095599442
 10.4735666206725817  4.3504737360294028 34.4957633694215389
 21.6990225999106450 11.7565473955831798 33.9304347257637744
 23.5733127797514506  1.1403146321768907 30.5952211899686404
 12.8116247947953763  7.7797335137080594 29.6826245947925216
 15.9332622857719919  1.0388300890229658 24.5256895068501457
  3.1412112359106268  8.1508614081552704 24.8274024458881293
  6.8712848551725871  1.7891545128997954 34.5794491106233579
 17.6331990302067183  8.3782011504013205 37.0141894972671963
 -1.1067834045415150  0.5740580247334447  1.0585344095727611
 11.2903346432995910 10.4284016733261673  0.3762633121006244
 16.7349883625703129  0.8624906932523053  6.0294006885184697
  4.3329832081444986  8.2275671124737677  6.2911908101604705
  8.5513569201705124  0.4644978893499370 12.2909413418410498
 21.0596758834249123  7.9604915142522312 12.2388861216843594
 22.8209228541988587 10.9331624884892644  6.1148544745122706
 10.3528349796994856  4.6607424823621493  5.9097688038849139
 14.8356656912917906 11.6096738939944490 12.0013079062999974
  2.1992891706323330  4.7203528502068579 12.1735127142351853
  6.7246224785195281 11.5846207376229291  2.0719062071846590
 18.7332763995411256  3.8010480957817099  1.5426286840511421
  4.2308247456077748  0.4700931098355787  5.6893141392242166
 16.7038764069888401  8.2283152842828269  5.8881378047084691
 21.0177153367659315  0.6909745327865944 12.3317057463627187
  8.4667131026017071  7.8575748490178672 12.3988381558449205
 13.2718665087252550  2.3767570532683568 -0.0668675012961680
 -1.2175691464258931  7.9545902861392319  1.8657158767175248
 23.1195883627900436  3.6676592720305448  6.3354282478718655
 10.6210720301078165 11.6212365204640058  6.0560845149968205
 14.8907798064198893  4.3407265280955905 11.7068782752309204
  1.9905455425320897 11.6479168778217463 12.0979396579686966
  5.6195811901260386  3.6199179082410446  1.4414669099805906
 18.1753597828892346 10.8437724457437703  0.7473590869064459
  3.7976894165869206  2.7500245812048631 18.7967582485997866
 17.5185913389639012 10.4942857107289846 18.7409282615360624
 20.7946548874689938  2.9060811741955441 31.3933557419135134
  8.1906772866605770  9.6473985390702452 31.1114657610012628
 12.7889572473337800  2.6617535666462881 24.8624869882893584
 25.3541575818557163 10.2289960786259400 25.2826111482722773
  2.0907373637824249  6.5898861477837709 31.2299064536274358
 14.6154096905854995 13.7513222835637929 31.3363529750847007
 19.0324761013716426  6.4602438263438966 24.9369042855097938
  6.5469712851815682 13.6183991389611094 25.4958748953129302
 10.8935738829651072  6.5661350915878076 18.9328037603111810
 23.6187651994670489 14.3639599990180038 19.1693329114856752
  8.5031504060915264  2.3978958150950151 31.1130260014483220
 20.9522588037516968  9.8898303184689205 30.9552169033542768
 25.3219991427119808  2.8475389800601385 25.4128859765482744
 12.5184558538076498  9.9282290886581137 24.8707896915460438
 16.8367097493878148  2.7260070375762413 18.5239234979204639
  4.0180293148933437  9.4395112077504670 19.2852692245441624
  2.2003383060395447 -0.7791338321121847 31.0278784885592067
 15.1327098495635290  6.4737125067572920 31.1710028756833957
 19.3422709323089634 14.2086326780541974 25.1056859084760688
  6.5262494804227398  6.5311195474240309 25.1919621633896256
 10.4766126218818556 13.9562899600584434 19.1148939944560396
 22.7989863248769353  6.9143871666867769 18.8643385543020230
  4.0972643081742932  0.9749968271540155  7.8902025752820135
 16.4862716711085753  8.2644653517913671  7.9637338726593709
 20.9026383799749418  0.7701499551031736 14.4120451239190501
  8.1604923270716014  7.8347784297037766 14.4361502584597634
 12.8187275587648610  1.2581745749965019  1.7905130773016396
  0.6411916993448714  7.0847773634846343  2.3760037591536838
 22.2947848594170743  2.1545390688719417 11.5493605473243939
  9.3635278967648077  9.5367055320935048 11.7132079669554692
 12.0013674986418959 -3.3981430246565281 18.0689927429877173
  0.6180260694503640  5.7937030083193122 17.9336538406994315
  5.2250242902133142  2.0155826009169711  4.9468431018634851
 17.5832740063778310  9.9699438910682634  5.2626663368165367
 21.9552502422816680  6.1834144684664052 11.6791564385924840
  9.5370197376413017 13.4554205061653924 11.4189022067853561
 15.1506705257563326  5.4853228720813272 17.8003669078697158
  0.9735661954727769 11.2900775197025123 18.2298088016012620
  5.1965147237687646  6.4121226846393000  5.7346175024157784
 17.7341657282243936 13.8475960952386785  5.2608108882078186
  6.6202607001200189  0.2988884713233042 11.6172191877273878
 19.2633328002818907  8.2879716343068015 11.2948488580164152
 22.8645386854430264 -0.5413675869608091 17.2870289521031140
 10.6207687261034334  6.8898634017440896 16.9953260811874927
 14.7215179810416590  0.8965838764248171  5.3057473148904029
  2.2952500188747305  7.8011915846364595  5.6490289725227552
  2.4250154238366970  4.2741198464492332  8.1302228255005069
 14.7594491506705303 11.7864909199095091  7.7835496540359443
 18.8434291462361152  4.4774285457808070 13.6909466828597370
  6.4522018001829977 11.4542370616281417 13.8091755505859499
  9.6761836850821652  4.7208696063753237  1.9009850919498927
 22.6857709902486420 11.4380343284606720  1.5210993229608158
 23.1820699984599692  3.9850216008626114  8.3241675400578448
 10.8014390811049292 11.6350074636549135  8.1092664011853888
 14.6307443706029048  4.2544034718127266 13.7780048305911009
  1.6871747923147289 11.7720596272693125 14.1653126701694152
  5.7887684870047194  4.7152632321474419  3.1235184549193766
 19.1364091334057065 11.6073832324753514  2.6039017163813196
  2.7097144312772854 13.5327005157536231 11.5928090145675231
 15.2285392197460610  6.1557960949351695 10.9753352031059030
 20.8826434512134611 11.5510769523184056 18.3476843610053741
  6.1863425325656598  5.2374845053767833 18.1376548206600710
 11.2721655606233480 13.3035731716430821  5.0946687464321814
 24.2587759281578244  5.2967606423474596  5.7564801753335226
  2.7910429561748664  2.8056945722412623 11.4999106027645404
 15.4483705113397303  9.7546912264781973 11.2715098720542208
 20.7250519260941743  2.7054767786233183 17.0586813439507559
  8.0813490125014003 10.2189203476922135 17.0383325206001359
 11.1717780224161860  2.7965942121624536  5.2351365073592957
 23.7653292272964443  9.2402665356551577  5.3749541344136729
  0.2061350000270422  4.8860163080308814 11.7064882812507989
 12.8824667854921149 11.7258026117293674 11.6664351030497730
 16.6772460726947251  3.0083850613821972 16.5357281827875369
  3.8248549605647586  9.0021137836106817 17.3752918462837052
  8.2089758913724751  4.5092314109282201  5.4021242275789740
 20.8044089278351585 10.9650175659514861  5.7245166756468286
 -0.1448003072865192  0.7758231718366794 14.2306781471762243
 12.3483291790613308  7.7725496745925255 13.7223304754963085
 16.3770166477047461  0.5203634756169301  1.5849011450869781
  4.0224755702780488  7.8805526987732728  1.8068588323801180
  8.2937515949851850  0.5676773489506666  7.9259632766219328
 21.1936105508461203  7.3827451130827502  7.7881514752082719
 24.9119357858473265  0.8797138425658997  2.9566042156773018
 11.6296314452178464  8.5259363179077958  1.3313564115376959
 16.6027574532601250  0.9950702535937517  7.9716228492296164
  4.1717061336309831  8.6387587894838926  8.3843829726477388
  8.7623754528004341  0.4945598062547509 14.2852422817563234
 20.6478440051404206  7.9714465837996160 14.2591284632693149
 22.3688351914851040  9.5122436555485539 11.7322859913700963
  9.4630327970156927  2.1715383581699541 11.7894772714137694
 14.4154844035483887  7.2656185855681734 18.4302035918989517
  1.1862461530540114 -1.2391377044874714 17.6579194704384363
  5.2976001877795893  9.9384679354916070  5.3954982352610834
 17.9862155809353226  2.3005143263795937  5.1850376093118165
 21.8749705302332345 13.2113948998918058 11.5142249980636695
  9.4236807540561074  6.0615758880993864 11.8644906646919033
 13.2184644176206678 11.2701324918385826 16.4988577166776942
  0.4605279098016290  3.8501240504276639 19.2090436582048696
  5.3056216700268575 13.2012863013547186  5.5691704485029740
 17.9756530088357103  6.6341542619051079  5.2640845093222461
  2.2804853541878218  0.2387042251877509  5.0251222324279707
 15.0651816948696684  7.6206085967974557  4.8551084006340410
 19.1946766626448806  0.8566829367010624 11.5012243445189188
  6.6906731286568260  7.7788998766115007 11.3313580684034267
  9.9993877303049246 -0.2494186204410684 17.0999516060121124
 21.7727853515751413  7.2118398890139739 17.1464261175322079
  1.8073873242240841 11.3718689602651519  8.0311814214581467
 14.4725084406667204  4.6118496974590251  7.3651008070334987
 19.0545080691299802 11.9381152989910628 13.3569661726698534
  6.1624051646537419  4.3319906973640618 13.9059974311333061
 10.8704020741127625 11.8142471223018575  1.9888057696822494
 23.2062088745942070  4.1854684021677082  1.7159043941839072
 22.9736021191193949 10.9911246339523370  8.0067443084999930
 10.5952276584628127  4.7590216644093992  7.9877408159527441
 15.0571153949427217 10.9988334817645779 14.0689477687268827
  2.1105506101754243  4.8254769318858504 14.1823566334478333
  7.4777541291005285  9.5845198950527433  2.3546870158604833
 16.8303383398720676  4.3035099889974493  2.1104873154021786
 23.7566507301068981 12.5932656247030739  5.0807869381912898
 11.3540486449234788  6.4361608562630659  5.2272477267751958
 16.1508696064453829 13.0519116474432550 11.5135773072291645
  3.3835675108919778  6.3121286250219280 11.4318078151585851
  6.7765806095793435 11.4109425822938313 18.3360038771179426
 20.1104580255344025  2.2345618839438441 18.8261726363879447
 24.2902679699594692  1.9163644355699971  5.9255094159149317
 11.6269278615344209 10.0964506943608505  5.3398745416314997
 16.2271949546908054  2.9940555937798647 10.9333392385452566
  3.1950723050398722 10.2362029104134553 11.1696788524491204
  7.6809952670446018  4.1740294850261472 17.1745265664411164
 21.0689138883823084  9.5935471502920890 18.3312970005306930
  0.0826323776520045 11.3889193725392879 11.3860994551645298
 12.9435580420496148  3.9172031203933981 11.0622310369842740
 17.5082829448576049 10.4534669166164829 16.7697699336539330
  3.3645629456662967  3.2192610341754753 16.8637480773653756
  8.6082240850709191 11.3915345489525510  5.4747315558262510
 21.1995740596566087  3.5835706283506230  5.5070692221631283
 21.1127279852624170  0.1365331679374373  7.7332742659885154
  8.2259122721482285  7.8959162162590451  8.0121413796780026
 12.8552784834527873  0.4008878015165753 14.5418504974641358
 25.0713297285376626  8.2404112714699114 13.9350545354839443
  4.2138953010644249 -0.0345644033758827  1.4237635372664366
 15.9800712090613573  8.2430283059204648  1.5686850379218675
  8.1940256397067355  2.5549330076781418 29.1667861088637146
 21.1394281937291098  9.9246604699598588 28.9718384578893939
 25.6549770164743229  2.7551481847902144 23.3429519038274798
 12.4076693635869226  9.9168263289068186 22.7634304512408541
 16.8857278099954513  2.6923344226021859 35.4154057266231774
  4.4613240371928127 10.2970173909812495 35.8679148603056319
  1.0415539092451092  1.2549803047241892 26.3532211700988093
 13.7189788964458064  8.4412143985798380 25.6612077801033571
 16.6856497898977842  1.0473619014179183 19.5377863693660174
  3.7822587379524797  7.8089070238855696 20.5143193841908733
  9.7593153134915323  0.7919601212249086 31.6096437380737854
 21.8763612658210818  8.2485426145287093 32.0236658724039671
  1.3653550351308670 11.8906304304482973 25.8352850504737752
 13.5400059303128639  4.4927611351331178 25.6037869830325207
 19.2057819954761939 11.9280601029327027 19.4225104771971111
  5.6531351837382218  3.7255965574497707 19.5842840704040313
  9.1642278838105362 11.2696618043675372 31.9788321059968297
 21.6046203525617351  4.7232956105454127 32.1176557312263427
 10.9080892665828610  2.7077170170639979 25.4929821566352324
 23.5265152832446454 10.3285257928259426 26.1068186513939757
  2.1893025592952973  3.7985214592597134 20.0922759480881759
 16.0966105498223868 11.6363145475476379 19.6812956868025815
 18.7905914225928861  2.6860454107979010 31.8241470726530444
  6.1713004715463446  9.7867372061675102 31.8266343810768682
  6.5159109680839480 -1.3264200670101354 29.5833275112990037
 19.0379979984614209  6.5455759471479924 29.2701252619451431
 23.4820631136405247 14.0462065568075012 23.8671586913031319
 10.7658624850825735  5.8775114915610676 23.2260151268754527
 14.8299670351361250 13.1964681219173787 35.6973412368107290
  1.7355572061944282  6.5263889639237265 35.6847871111854076
  2.2979230578157117 13.6674971671603895 28.9165192777921796
 14.8721010410358883  6.5069512712057653 29.0421628247177708
 19.4109693458415755 14.1208425363464176 23.0434826997813005