Li P  S  Cl
 1.0000000000000000
    25.1819793006824639    0.0000000000000000    0.0000000000000015
    -0.0000000000000009   14.5388225279766061    0.0000000000000009
     0.0000000000000000    0.0000000000000000   37.2126966544236950
 Li  P   S   Cl 
 287  48 240  48
Selective dynamics
Cartesian
 -8.8901413689463364 -0.8000476529640875 -1.7697007680883003   T   T   T
 16.1940161812782719 12.8854109350059467  2.9564779366097551   T   T   T
 17.8332438845551664 -4.4946929923550432 10.7512003514923151   T   T   T
 -1.9596484839517823 10.6917150190179271 23.9815063174480514   T   T   T
 12.6160413512534486  1.9942337458890742 -8.3122383180251784   T   T   T
 23.3012916303689224  8.8715778724469292  2.9050475981829558   T   T   T
  3.4979781318121566  1.5215720448980496  6.7010296194150882   T   T   T
 10.6686285940256820 15.3097605419394203  7.7071523660718100   T   T   T
 16.6885693938630126 -4.7828246316799872 23.0476999139353786   T   T   T
 -0.4673941967399430 21.4932341780832488 14.6904155205919604   T   T   T
  6.6594136475503269  6.6676767006149742  3.4295757191971981   T   T   T
 21.1680876300904188  9.3957180125522548 -1.2759353520854575   T   T   T
 -1.3215669399800436  4.0466546085894963 12.4335681844994319   T   T   T
 15.8387466238509731  8.3392057461220102  8.2918494117395802   T   T   T
 16.7966236105273978 10.3380050704651225 14.2803779917265903   T   T   T
 10.5363578248026659 12.0072254315578952 18.1851434079202434   T   T   T
 14.2495365384929098  5.2922254395697070  6.0510420848349336   T   T   T
 23.7195312063511921 15.5492459181734795  7.4703125093057219   T   T   T
  2.3742307955421462  5.5584440894305986  6.6317841375372923   T   T   T
 16.8996087782406335 11.4624537291718998  8.4009680716068829   T   T   T
 26.4402650366087286 -1.9871842031292144 20.0104871701712632   T   T   T
  8.8494682206892463  1.4155553781269896 17.9757043639460861   T   T   T
 14.9418973785586680  0.0253518728683525  7.6066871739743247   T   T   T
 25.8825915054491631 16.2216749707196257  2.2964351695517249   T   T   T
  0.9881963840717103  3.2801124362333320  5.0806260546853386   T   T   T
 13.5950099140192648  8.7271318511073321  6.3697564492674514   T   T   T
 15.3227934708249709 -0.8163101316756621 15.4637034363476751   T   T   T
  8.6654247458690055 13.7900148173672310 23.4184546709880941   T   T   T
  7.9317105302016699 -0.1225091298502540  0.5488760385918651   T   T   T
 29.3984431640599553  4.1745216106427225  8.2079918787567987   T   T   T
  1.1438643550753298  2.0249030983059662  8.5684121741549415   T   T   T
 14.8062146477204220 15.1530221753707792 19.4142763332005757   T   T   T
 23.9274165070093900  0.1906245986763118 14.3528596129553936   T   T   T
  3.9134823461766612 14.5392118149156921 15.1488792926586235   T   T   T
 11.4926370077284918  6.3110754395080342 -6.2118477678740458   T   T   T
 30.9918624563023499 12.5839636137522533 -7.5882331088636557   T   T   T
 20.6630148414663068 12.8995009553392848 18.5214519414328969   T   T   T
 14.1766001171724749  6.3533424310146991 10.0435526218925730   T   T   T
 13.8904575432180319 16.2855640816067648  5.1707611162660729   T   T   T
 -0.6065785483717732 -0.3085126190570011 -0.0846387263068941   T   T   T
  7.3464298595540285 12.6761325451714129  6.8611289210723569   T   T   T
 23.1823224208447911  6.8817767723088608  5.7396013420454324   T   T   T
 27.6247768210425093  8.0257929264172123 12.5028941222893497   T   T   T
 16.0262060285951762  2.3157817030663090 18.2249697928023018   T   T   T
  9.3616468740775556 -2.7946278638417605  2.8715470757590831   T   T   T
  1.8670800504584717  3.0440373001169894 -2.3719209701217077   T   T   T
  4.4305430916498487 -2.6393433044775274 12.8045498861453364   T   T   T
 20.8523461031004018  4.7705921207144666  6.5793476129143977   T   T   T
  6.8313876861959946  4.5014925102092000 20.0082784686431374   T   T   T
 13.0901756193952359 14.0022316185129565 17.4606531778350806   T   T   T
 10.2920856738105808  4.3567312562166851  3.2457731772890588   T   T   T
  0.6826856365329778  9.1275560204242225  8.2155344508290593   T   T   T
  7.1920768559668220  1.4932067686348933  7.5659276584488220   T   T   T
 22.5852238278916246  6.8294498097596117  8.4187697214469139   T   T   T
  1.5971411762010777 -1.8932288855403163 14.2423599142918675   T   T   T
 17.7387492493792607  2.0062010227802589 13.6889565024583089   T   T   T
 15.2552101239387490  6.0086790149446800 -0.3907378325281773   T   T   T
  8.4913154634184931  2.3937736352174719  0.2926348009143512   T   T   T
  8.4698766735012576 -1.0106916577975795  9.8950133535691407   T   T   T
 19.9650125372672136  9.5665461521985815  6.0644187702797661   T   T   T
  3.1698566503241374  5.4104531520206516 13.3880962908890826   T   T   T
 18.2801451456807555  6.3577828023456124 13.2421047938159369   T   T   T
 20.1699804187866931 18.7172167246171739 10.8502256530307015   T   T   T
  6.7397194542643390  6.9789189721320053 -0.0699546652031619   T   T   T
 10.7117078331967281 12.2770154369722313  8.1788796646180195   T   T   T
 19.6980707364982806  6.6097235082404255  8.3307278967913856   T   T   T
 27.5094237038743969 -0.2573643087706151 10.9594462213241499   T   T   T
 15.3224051359311968  2.4730292034222430 24.9279540180988626   T   T   T
 15.5362921288999463  1.4717948986448282  0.8812157836384926   T   T   T
  4.2630752987150879  4.2287576943718923  3.2585345784594995   T   T   T
 12.9556656573714424 -3.1351943346805911 12.5199525960215912   T   T   T
 20.6550077254771836  9.3287491189556597 12.5224071290005643   T   T   T
  1.4999388912128857 12.6596906184264615  3.7874370414215659   T   T   T
 21.1289895495449613  0.0303991408211077 10.3143850704818050   T   T   T
 22.6640443681874402 11.6156904605373832 15.3681857531030790   T   T   T
  7.3157908356325905 -1.9512709796158521 15.6823987030946856   T   T   T
  5.8871748333278004  5.0521345250172951 -2.4214975710111717   T   T   T
 19.5036007671624105  4.8803932956679059 -0.1498995240855108   T   T   T
  1.3684334682816119 12.8883614821422885  6.7033160308537321   T   T   T
  9.0270478104426513  3.8783944604403460 13.0388111447392951   T   T   T
 24.7288624112632078 18.4341550789846949 19.1933217394062936   T   T   T
 -4.0694605658514744  0.5686515878881003 13.7276786230696288   T   T   T
  7.3545994465609841  9.7043251054670669 14.9133101019219634   T   T   T
 21.9255465463606924  3.8227798547534930  1.5363273277390503   T   T   T
  4.0313800374986286  9.0855226409520569  8.4544826672332309   T   T   T
 10.7732893014728237  5.4693262742772220  8.5967432412945897   T   T   T
 23.6896209083563463  8.8993020948157184 21.3813283117907389   T   T   T
  7.9954393430374582  1.1520896757441272 14.0409012692369419   T   T   T
 13.8144519219609254 11.2903668828342383  8.4042758626031819   T   T   T
 18.9346706200205759 -3.9436458674159471 -2.2932138192218057   T   T   T
  5.5606782550249063 15.7050953684544847  3.1586452381836905   T   T   T
 16.7420634502061034  2.8243767863713503  5.0524070626263891   T   T   T
 20.6263580670043112  6.5609929110080794  4.5421057716161108   T   T   T
  4.1934886991564779  2.1948158205057622 13.0854614742382314   T   T   T
 13.7347648082818115 11.6139388145493143  5.1547290556314982   T   T   T
 27.5261803660491395  5.4400925511747724 -2.5252410353031340   T   T   T
  7.7230914543071565  5.6380273911394658  8.6066370188969792   T   T   T
 14.2145254661171858 -3.7446417590056718 17.7415717340729593   T   T   T
 17.8295356361660993  9.3978523887510743 18.3921153598696527   T   T   T
  6.9194674810904884  6.7134542350353339 14.0136401668150921   T   T   T
  9.9605666377676148 13.5095981577883020  4.9353675671475310   T   T   T
 24.9548393409863749 -0.0504887475598762 -2.6591697320950312   T   T   T
  2.2228704339423553  9.1227133688157735  5.3956992949715641   T   T   T
 10.2391248463682683 10.0653120037594306 11.4623942634036151   T   T   T
 18.7596655304570845 10.3464107908621905 16.4604542301240251   T   T   T
  6.1065559688217759  3.8316551779070895 10.5722399882350686   T   T   T
  5.6495634332003410  4.0062145368294493  0.0804048117654780   T   T   T
 25.2557779500875341  4.4224477836068896  7.5813014595128410   T   T   T
 23.7425818124712720 13.3755622936094909  9.5133165801619075   T   T   T
  8.4502226866075976  5.3660254313146059  5.6988644770412966   T   T   T
 13.1268962111151453 16.9369579101088163 14.9012111764008903   T   T   T
 30.2327493934189988 -2.2524859522082452 18.0263938608099927   T   T   T
 -4.9645431751406903 15.1235459459662813  2.2445947736545087   T   T   T
 17.2197723607655249  8.2382051413174047 -0.9784944470290257   T   T   T
 16.9739494134353563  2.1170488237462242 10.9719341363737186   T   T   T
  1.6586724327474252  6.0379688596806433 22.2604671227348128   T   T   T
 17.4347785022831729 -0.0555511414263914 17.1231424060475881   T   T   T
 21.0719607235271269  4.3350076187241937 20.0939744213217644   T   T   T
  3.3481776899247326 -2.6276345147357834  8.6776444244044502   T   T   T
 19.2866814531457607  7.9013346588143394  1.7916439620530042   T   T   T
 19.2565097881629228  1.7031124448602428  7.0278420206356387   T   T   T
  8.3820850513882146  9.2804454100835319 10.1703160547184961   T   T   T
 20.0976182003129438  1.9135097653744977 17.6158510945817177   T   T   T
 -1.0239963451733105  8.6978326564610935 11.6525221110804775   T   T   T
  3.8909505178166475  7.8204452653820891  2.2092758051487258   T   T   T
 11.1650207412331017 15.3208534870840456  1.2850427803846212   T   T   T
 22.1228291832858730 -0.9873656344756150  5.8218695954307593   T   T   T
 11.2889377398285085  8.1736935366995382  8.1472315761434615   T   T   T
 11.9718823524926137  6.1873043307770468 14.4374229114626313   T   T   T
 10.5516221174859375 10.2343282529945547 15.4587825195210122   T   T   T
  3.4988226455829414 -5.3007128546986868 -2.8335103518575089   T   T   T
 22.9768489699089926  5.1156496464435026 -2.5241876680502648   T   T   T
 18.9870613919386813 12.9042494275603747 12.8640922970645608   T   T   T
  8.4366543769744400  9.0998839987673783  7.2108922092067189   T   T   T
 11.0172530736011947 17.5032414167491481 17.7014229972371915   T   T   T
 -14.2558457645693046  5.7193922007174312 17.1162181073009982   T   T   T
  9.0014477976247722 16.5253330656496047  3.0323004403934135   T   T   T
 16.7202281883867059  3.8028260127618463  8.2391318837570111   T   T   T
 13.6477346127883301  3.9516145083208176  8.4443306488366101   T   T   T
 10.6648464330773098  7.0464506354825529  4.9276773609781817   T   T   T
 11.0938253862667295 -0.3770656357669637 13.7786819218302252   T   T   T
 21.9373134122855049  8.6904418357418365 18.1359048379977708   T   T   T
  2.5067263189785294 -1.0666098094680294  0.2103219441863005   T   T   T
 23.3219743204116341 15.7265303836057537  2.6404097381596148   T   T   T
  3.0725215935110537  0.8500389672394153 20.9535066794645743   T   T   T
 17.6316577730364514  9.9385800387553047 29.4039965016162519   T   T   T
 23.3396359494746122  2.2549051840228236 25.5185187127553483   T   T   T
 10.3077330681182708  9.2944249416037845 22.0336651037111473   T   T   T
 11.8914798650676001  4.5970539915609931 36.8034132532036153   T   T   T
 -4.1008076053370184  6.5357405644201281 34.8719752642564060   T   T   T
  2.7632231585990832 17.3233704665582380 24.6260221553090233   T   T   T
 18.7454006942872908  5.4996213363873112 30.3175847608957092   T   T   T
 24.8919734077915464  8.5693884461903949 24.4194559932763298   T   T   T
  4.0889523829944263 13.5343047431126351 23.3879603050406679   T   T   T
 22.9056622916655783 10.5452866377602028 33.5609451022540100   T   T   T
 -0.5656408505978993  7.7871714079311998 34.4292941769718084   T   T   T
  8.8083982526818119 16.4189886359696047 30.1869712821248939   T   T   T
 18.9344298691330337  6.4092636214443415 20.9902686648885854   T   T   T
 25.7676313984530907 14.2164750062900644 24.1208398631580145   T   T   T
  5.6213959044715729  5.7528239046281948 23.5431930768440800   T   T   T
 17.2604949767182276  8.3789918751110992 32.2519875275225019   T   T   T
  0.2234053484840714  4.7209500337873456 39.7321555866532634   T   T   T
  3.7315265190619789  0.5140579733101230 30.4292018996471114   T   T   T
 16.4781178575466569  7.0728821452058410 28.7272628107378587   T   T   T
 18.7811295438205192 19.6971529257788447 24.4210420303122149   T   T   T
  8.9698041645262609  5.7168393746169350 23.9600908860279027   T   T   T
 14.5716574488898392 10.2637137442088147 36.0321817546377190   T   T   T
  7.3507201670410476  8.1715173567346806 31.8440125504168350   T   T   T
 12.4258774972349144  0.6321979869798144 25.2890174198051412   T   T   T
 12.8531654266800022 11.5486337462251640 32.5578910624962248   T   T   T
 17.2544772126423425  0.5526099967228527 21.4996042532288811   T   T   T
 14.7961691715957535  7.8971997251884547 20.5546571932013933   T   T   T
 16.4532269508261280  1.5749491926755383 33.5052043375942361   T   T   T
  4.8127370911555420  9.7723604873795757 31.4310251776670242   T   T   T
  7.7497099812969621 13.8012767027180914 27.7411626502357080   T   T   T
 18.1090418558955335 -1.2326517217867548 31.5011789039460801   T   T   T
 22.1400585886919217 14.6975105846087519 21.7629626681346870   T   T   T
 11.3204749823591211  7.7304869666194849 26.0638349938769949   T   T   T
 13.2046780423800563 13.9609081592691364 34.6622551758852353   T   T   T
 12.4307146190892848 11.3631362732615759 39.4167305453158860   T   T   T
  4.8391392109402878  5.4699312241337683 27.3049236079377842   T   T   T
 15.4585456357967086 13.4802169636022260 24.0457511043100318   T   T   T
 23.8928461585058969 -5.1080229106481614 36.8219596840463907   T   T   T
  3.2622675363544893  4.7301777639447362 37.6311619129592572   T   T   T
 12.4014200863757953  3.3407711969449636 32.1880319922742899   T   T   T
 23.6032585943520701  5.7841144404086373 27.7103923611382719   T   T   T
  2.0231568456359867 10.1465651752843389 21.7492775304306853   T   T   T
 22.3644498258027085 14.2174421048392823 25.6501730968571202   T   T   T
 20.6619715493209384  2.1678970076655650 27.7776511708321614   T   T   T
  7.3733181357715667  2.5761689862217088 34.1477062159061120   T   T   T
 12.8748206225185449  6.7928627055961508 28.6353833047655790   T   T   T
 27.2535743575167757 10.6499805481198209 30.0307237783802385   T   T   T
  1.3915072896484486 -2.7973365692105459 17.0385232598299332   T   T   T
 24.1260944031628881 16.8870538356122353 22.3786857878063685   T   T   T
 25.7620886378270697  4.7328392767007834 31.7604001614172340   T   T   T
  9.1061163614800620  5.3578380516569739 37.9641654728667248   T   T   T
 12.6313759497877900  7.3582542668230930 23.1336672117716056   T   T   T
 -1.9571180600590599  2.8382297132924035 16.2810485122727542   T   T   T
  6.4040608522603923  3.3344093161478154 16.9711815063205158   T   T   T
 25.4244245394964423  7.8352190657309340 17.8853489315770346   T   T   T
 21.7267518770600034 -2.8595545511211435 45.8656602404446261   T   T   T
  5.6795684503648856 12.2050995584945863 34.2312544804842531   T   T   T
 14.0057590741947156  4.5541922867425200 27.4532908784670830   T   T   T
  0.6526482448236908 10.6241188619298867 32.1583189162606686   T   T   T
 13.4174017746787229  5.0299451761528404 18.6133752789255418   T   T   T
 16.6524573823447071 12.8017126335143292 26.6042439713396348   T   T   T
 20.0800645007342595  3.4601677777415771 34.2842164256630895   T   T   T
  7.2451133936130203  9.4636381551161062 35.1787910251601659   T   T   T
 15.0088836863333803  4.5236011516343044 30.5807956651382185   T   T   T
  0.5063446628255727 13.3019589382908343 28.2319065082232576   T   T   T
 -1.1804184140633718 -2.1464597993185057 18.4183762965990248   T   T   T
 15.3550682057393093 10.1608814937502512 25.8861094022524902   T   T   T
 25.0598020863213051  2.6671638608934836 36.3512383390412879   T   T   T
  9.5096866252172809  8.4591824733146908 38.6680098395771665   T   T   T
 10.5932237542203094  4.8806585956765565 28.5394583396031472   T   T   T
 25.2018121737452532  9.9173876915270558 28.0704393372803978   T   T   T
  6.0238706259120640 10.7047251024328425 23.8574456951647953   T   T   T
 10.7347052504380773 -0.8000543339496717 30.8714980242850885   T   T   T
 19.6122585202117392  9.7077649236688774 22.0542991109428748   T   T   T
  5.6548240852709721  2.9664879741277934 22.5589115989575042   T   T   T
  4.2163403579984351  5.4467775982506970 31.1116348950589199   T   T   T
  4.3618714566170880  2.2050342039702415 33.1603668015968651   T   T   T
  5.3529021403781885 11.1715941311621645 38.4870545208010952   T   T   T
 18.7513789467070424 12.4482509525991762 23.5534880247576872   T   T   T
 20.4867739107141560 16.9343612230218383 23.8348228655000085   T   T   T
 12.4277009156327658 16.3568875045098210 22.5978821720116727   T   T   T
 10.0344216525750589  4.9456258904924493 34.6338530007120511   T   T   T
 -4.1833013843141176 11.6231729998035007 37.3980458425516957   T   T   T
  6.0612964678214079  9.7166526142611236 28.5743585959366833   T   T   T
 20.3125321666411693 13.4837406671469680 29.1672158890682915   T   T   T
 17.9124836449951204  6.0687470636439400 17.8081809082374996   T   T   T
 11.4019867329657973 13.5109842709220178 22.9536996378720346   T   T   T
 18.2606198978516758  0.9874753657231585 37.0515686407370026   T   T   T
  6.2269338014131828 14.6520257387989457 31.7777407597861483   T   T   T
 11.7166752601411108 12.8850131709375688 28.3451929254207933   T   T   T
 16.9432661268332367 14.7262510250823038 29.0013899554288308   T   T   T
 28.0822589648416354  9.3017282566665500 24.0022400425142166   T   T   T
  9.5550654105011734 16.6387078012811784 25.6675171485324647   T   T   T
 16.3357740525978414  5.4524599225859838 39.5765013998094162   T   T   T
  2.2750883256307994 13.5542808317606447 34.7184349990194931   T   T   T
 -3.0346247467335905  6.9054962548704788 25.7548761806305890   T   T   T
 27.5994230283893245  5.3129801230893774 16.3336816715217026   T   T   T
 16.0798320908666525  6.7297085870658506 23.8132695635252425   T   T   T
 19.5736833133516299 -0.3789675290753522 46.0668070211395673   T   T   T
 -4.1926340598397696 13.6497875063177201 35.9015152160578737   T   T   T
  3.7147303715351079  8.3483263640038086 28.8002903548961839   T   T   T
 20.1401594581730592 15.0021297998599898 32.1928019423859979   T   T   T
 20.7476223284337564  9.7686736907743210 24.9829147334129864   T   T   T
  8.8220712379743578 16.9511836111928105 22.1209975275108803   T   T   T
 20.3611545396750842  7.8771577492718095 31.9764587044697528   T   T   T
  4.5230704829987385 10.6397446133211826 42.5448319049536963   T   T   T
 25.3269884973168757 -1.3320384087483930 31.3586345684168286   T   T   T
 10.3201395365124426  9.4935272834161974 30.4718424834767170   T   T   T
 20.3737654464001139  6.8737158460576868 15.6601550380315597   T   T   T
  5.2522983864523587 15.2110241933456631 17.9175115734855304   T   T   T
  9.4602716438918542 -1.2307141539022535 34.6618850499357904   T   T   T
 22.0151187276626814 16.6003919323783862 37.0854653367775740   T   T   T
 18.0617441371039504  2.5167197719493659 29.7772859834926003   T   T   T
  5.2224603830888174 16.8264892253433942 28.4703729382800255   T   T   T
  9.0939591947047731  9.8702002282309582 24.8192819597343259   T   T   T
  3.7198897137778095  9.6635401225142203 15.1772335085224306   T   T   T
  4.1807893917690242  1.5312462603526726 36.2163611789008257   T   T   T
 27.3955050208341149 10.3774526742024573 37.1403210006401991   T   T   T
  1.3665643916606238  5.3298313320143480 28.1016822724464568   T   T   T
 12.3698933759875587 10.1128364697288404 28.5729713587104897   T   T   T
 14.2511254170197859 -3.5922281274358472 22.3999831920315167   T   T   T
  6.4823050121933852 12.1676403988993318 20.9671116737396872   T   T   T
 12.5027782387480215  3.6886337678019561 39.5973739796086761   T   T   T
 22.7731972427899336 13.6264894185804106 33.7806307881685228   T   T   T
 -0.2154959931604646  2.6518273261286343 28.1292793395221032   T   T   T
 11.1137356512380361 12.9284309154006340 37.0679254098080833   T   T   T
 15.4083428818459325  7.3351731263247597 13.8693677572639302   T   T   T
 -2.6525647889240314  6.2512250121856408 22.9786425866854636   T   T   T
 16.3386496097903731  9.7856390734355756 42.3311543522748508   T   T   T
 18.4417220087942155  3.3682254966627720 39.4648821630281219   T   T   T
 -2.3053927920746173  6.4021954432751018 30.1683315061077835   T   T   T
 14.2024291846974879 12.2209045276027659 30.6486496519023319   T   T   T
  7.9962756478490720  8.1558912806225017 17.3966067306049013   T   T   T
 -2.2745645657646976 11.3911766455942374 30.0697198279466704   T   T   T
 -2.7265548069266132  6.2959907460031319 37.3331624859356168   T   T   T
 13.6344107625894324  6.7639388243906318 33.8199747005088369   T   T   T
 23.1523829487629413  2.5819720644840198 30.7438353838603717   T   T   T
  7.3901883372348376  6.6271058770697824 28.8504297851589584   T   T   T
 20.0674544102117665  8.4377106216278328 28.6640219579115332   T   T   T
  2.8355982296095226 -1.8712668716430083 26.4849533059514606   T   T   T
 11.6103853319171062  1.7322351069696691 35.7463450680384369   T   T   T
 22.2046450605295220 11.8444964720837973 40.6638869436899597   T   T   T
 -0.1480215172209174 -2.5983936795559543  0.6174806049343199   T   T   T
 12.6762554268613137  7.1584687021718469  0.8894496241634465   T   T   T
 17.4728661703712618 -0.5560268585603899  5.3928136967006628   T   T   T
  4.8089169072835158  6.8521305494133937  5.8813028164722549   T   T   T
  8.5227648602605406 -2.1135850403827958 12.5134697812095101   T   T   T
 21.9971266627392907  6.4830480317806769 11.5813198090519265   T   T   T
 23.7486973290713621 10.1673786279346974  5.9118887632862656   T   T   T
 10.8730716565364638  3.0356995472949890  5.6410386489377817   T   T   T
 14.8217257870774546 10.1219789741490107 11.5115502787402519   T   T   T
  1.6452331351097238  3.4156446532732505 11.1724074850413277   T   T   T
  8.2341221516561554 10.9561855104366170  0.6149033208904311   T   T   T
 13.6564611686661479  0.9761492673606560 -0.5678720363205070   T   T   T
  4.6185325331837150 -0.5288720961609842  5.7772226796055541   T   T   T
 17.3333674640210091  6.5180658506660789  5.3466982790262811   T   T   T
 21.8841210465598266 -2.2923088238836873 12.7216418235354194   T   T   T
  9.2124254100552747  6.6634584860794170 11.3407985387844850   T   T   T
 13.9659722240150490 -1.0836490802655308  0.1824994759588371   T   T   T
  1.6749313393856968  6.5452031159274524 -0.3964739967750605   T   T   T
 23.2413469695229509  3.2285845892530327  5.1042316557849023   T   T   T
 10.9257049698233502 10.2641535932722689  5.1348664557174724   T   T   T
 15.4999400393739073  4.0531994578823181 12.1495466348792540   T   T   T
  2.1180631753531798 10.3073813058011705 11.2117316051387235   T   T   T
  5.9249740237566515  1.4388632376890107  0.4048918544333353   T   T   T
 17.8714809998899540 11.7112321188222417  0.5415911532928269   T   T   T
  4.2631572006806024  4.1353469561776111 19.9163379024629421   T   T   T
 16.7194570569504677 11.9270426940474650 19.3919903844950667   T   T   T
 20.6573277491452174  4.0575339909873476 31.6208848874474278   T   T   T
  8.0705902366180595 11.6772256138949864 31.5008562196759101   T   T   T
 11.9768460657385987  4.4455238951864224 25.3635920055875310   T   T   T
 25.4811054173760638 11.7769043137176155 25.3817120174058459   T   T   T
  1.5223712657970929  7.8348833109607670 31.3760191237922861   T   T   T
 14.2046837922309326 15.4349393219172555 31.4981143096441158   T   T   T
 18.4575392416688899  8.1056195129609652 25.8134840462304247   T   T   T
  5.7232664625494136 15.0464102339192021 25.3583494815521711   T   T   T
 12.2027204524541162  8.5468798839329576 19.1912937363452656   T   T   T
 22.4453987381609252 15.3041502126172482 19.1489608288489812   T   T   T
  8.1411233363938607  4.3546334576070542 31.6300759602272237   T   T   T
 20.6353987063260433 11.3267718002417137 31.3910000415222648   T   T   T
 24.7211818943759241  4.7567265603839477 25.0056644661244967   T   T   T
 11.9035515480232430 11.3212452431986428 25.4381260648787482   T   T   T
 15.7478993544514410  4.3907395123169453 21.6283817821975219   T   T   T
  3.6179273285701137 11.5972955319588458 20.3796225818875278   T   T   T
  1.3674557085730845  1.0381628910452858 31.2100481209579037   T   T   T
 14.1266384306937542  8.2011059064202847 31.6483225210814396   T   T   T
 18.6880952176247987 15.3133877218353707 25.5237975202458287   T   T   T
  5.6658069529771522  7.8804247116613819 25.5562089918235884   T   T   T
 10.8273140571027255 14.7651784011599982 19.9194304202844492   T   T   T
 23.1905817469473376  5.7957595878663559 17.9341373517340799   T   T   T
  4.2842110368405013 -0.5969346252609903  7.7246735461939409   T   T   T
 17.2940800755133779  6.4028268019196801  7.4533377320746936   T   T   T
 20.7688170076616814 -1.5514347784476719 14.5523281604565558   T   T   T
  9.3943445428735988  6.3312712300940115 13.4121619046660250   T   T   T
 12.7797740627867302 -0.7489943578165232  1.7912866130139142   T   T   T
  1.2996679715565760  6.3482719659810298  1.5529935021985204   T   T   T
 22.8719269703818497 -0.7811636369761609 12.0049795186262305   T   T   T
  9.6425012664224159  4.8086868977549182 10.5208938733910440   T   T   T
 10.8366193380589664  0.2113924826105089 17.7766435432498149   T   T   T
  0.3037479621458444 10.0494662086333211 18.4156918712461106   T   T   T
  5.7265365987148114  1.1737477662477862  5.5530154981389321   T   T   T
 18.3987400429781189  8.0773445676709095  4.6627368629566615   T   T   T
 21.8778632275045766  5.1350397677685589  9.8854220045689551   T   T   T
  9.9981791456349409 12.5731536824519043 11.1974652723200325   T   T   T
 13.0383719732380960  4.2751558196990516 16.6740205896258189   T   T   T
 -1.0548303612971657 16.2031795080358734 19.9864026431708091   T   T   T
  5.8982878704311794  5.2076844163491538  5.2027786164404386   T   T   T
 18.0761015245248018 12.2488972382386265  4.6003054920412776   T   T   T
  7.9379996556642105 -4.1841755653852912 12.5896469675549838   T   T   T
 21.6692422690089330  8.3331366167693623 10.8170958840015725   T   T   T
 25.6570438137000849 -0.8301671643044574 17.5093470205340083   T   T   T
 12.5504021094780374  8.3509019597396339 17.1025719457840815   T   T   T
 15.4908993884416901 -0.2432324358093783  5.2510051786943741   T   T   T
  3.1550144361330839  7.0412893761068549  4.7697010362099883   T   T   T
  2.1612740534775354  3.3114409801492179  6.9644325567479619   T   T   T
 15.1893803575423352 10.4183487541655744  6.8512208819302511   T   T   T
 19.8223861321071055  1.8423710923698400 12.3184831537843067   T   T   T
  3.6310343081606140 12.3016364872377739 16.0049933530803266   T   T   T
 10.5795396469353271  3.1885005025367006  1.1360745804560437   T   T   T
 23.2424511306249642 10.8521061575791773  1.1495354020216948   T   T   T
 22.9527840430094940  3.3580246325268535  7.0421013858353687   T   T   T
 11.5427652172817101 10.2877734514537362  7.0804630381739591   T   T   T
 14.9897343968718744  2.2852583541543923 13.0976113487647385   T   T   T
  2.1689483709874415 10.2780596652882537 13.1832509820705077   T   T   T
  6.7220209544242415  2.7452806104120144  2.0520310867090852   T   T   T
 19.2222228665250725  9.8772141544441805  0.3150590788948913   T   T   T
  1.3719449969220918 11.9935514080135057 10.3401363885598485   T   T   T
 17.5225266828143162  4.0928869771214949 12.1007635761601975   T   T   T
 20.9614903380088435  7.8571194701740561 20.4252508200635035   T   T   T
  4.7507862973025405  3.9190346927056510 14.5967294639194840   T   T   T
 11.4932322798305702 12.0536809616579372  4.3615707560501207   T   T   T
 24.5183861066306363  4.8597542355325514  4.6110059697121910   T   T   T
  2.9652312267490188  2.0154604488323056 10.3187967506216562   T   T   T
 15.9224007144709478  8.3083057100928759 10.7383169361329802   T   T   T
 17.0105426408824698  4.2331589481139185 16.1130087259653187   T   T   T
  7.2652603827729019 14.1262647205728715 17.3365484077607661   T   T   T
 11.6217710342716245  1.3238401538795022  4.6262356958410207   T   T   T
 24.5295633265142641  8.6298209742457352  4.7235083659556558   T   T   T
 -0.0690823554539648  3.5711301462928939 10.0945236185598706   T   T   T
 12.9958993695173888 10.2196813865716258 10.4884395739662715   T   T   T
 18.5381909066523676  0.3961664742256227 11.2770194796125729   T   T   T
  5.2101372557382684 11.4253082243622028 14.9108729006494833   T   T   T
  8.8147257485587840  3.0966364529233323  5.1089628799517293   T   T   T
 21.8573247978254770 10.8049742571866894  5.3677025244052974   T   T   T
 -0.4538927947853965 -1.6711314186454702 15.7317611201308090   T   T   T
 11.0467098390692531  7.8966309483621009 15.9463288035675426   T   T   T
 15.9603199861472262 -0.7669859771753946  0.7976949342523064   T   T   T
  5.1136139242426610  5.8318192595226934  1.4300099678116334   T   T   T
  9.0195048696701772 -0.6772588694177328  7.4957539725191236   T   T   T
 21.2065611629557296  7.3184675334021314  6.6060098895561641   T   T   T
 25.6441070400126563 -0.9550483193154097  1.7592250312201771   T   T   T
 13.5846783493145526  5.1603341819152417  1.0250428118421031   T   T   T
 17.4400910668905951 -0.4414933778615950  7.6050269870810441   T   T   T
  4.6089438466834540  6.6269525977549666  7.8742682857523381   T   T   T
  9.1651297662094979 -1.6351797084830242 14.3767463849828587   T   T   T
 20.6277984229715443  5.5600355554206393 12.7520771989047024   T   T   T
 24.0720520196393863  6.2840269242798898 12.2457098543305012   T   T   T
  7.0645233786585875 -0.7550847466940428 11.9785314698686030   T   T   T
  8.3779479001760446  3.8747910504673402 17.0077815368158269   T   T   T
  3.0564955763404966  2.9557717981722997 17.3059800601252469   T   T   T
  6.0144636224042847  8.3875428775616285  5.3807320052762986   T   T   T