Li P  S  Cl
 1.0000000000000000
    25.1819793006824639    0.0000000000000000    0.0000000000000015
    -0.0000000000000009   14.5388225279766061    0.0000000000000009
     0.0000000000000000    0.0000000000000000   37.2126966544236950
 Li  P   S   Cl 
 287  48 240  48
Cartesian
  1.5880393223482878  1.5824209570786620  6.5572301063293645
 13.7244395528125036  8.7327622120683124  7.1851361291639178
 18.0258169204450596  1.3876418961193813 12.7764387034975968
  7.8300316299890440  9.9417090054562625 11.2879520868918561
  9.2484337932444749  2.7372104562919244  1.9406431316510084
 23.8277990056791324  8.3160369223411017  2.0400077854343377
  0.7544836873621555  4.6247132530909294  9.1714894348592342
 13.7596426782933001 11.8117662224026780  9.7912710444717650
 18.4181546806758121  2.9905656082789367 15.5143114622572753
  5.2455415897667903  9.0325164833378384 12.9051699207550818
  9.2681483370543987  5.3177963295922472  4.7046273476351450
 22.1983372459834136 10.3154218066782359  3.1547003131415328
  3.9485245358319419  4.3581852737806344  8.9665514702593416
 16.2191947970264074 12.3372277459848299  8.7855551916949111
 19.6200969499782687  5.6670536101833999 14.7923570719344131
  5.7394354996115631 12.2115880641995229 14.6704520400832212
 13.7164340027127700  5.3533403958314851  2.0263038670828406
 26.3217219616951184 13.1415174572890532  3.4197522092204036
  4.7925834856665626  3.0473851241128256  6.8983790469354966
 16.3651653776712180 11.1359925094509773  5.7113984909186755
 20.6422908394480444  3.9240442739582959 11.8503226222313085
  8.7422508004121298 11.5958884292663917 13.9314678897338560
 13.9181160636645487  2.5634828904041265 -0.1387479883731228
 25.2826547161704163 12.0102681805524512 -1.5923648224249574
  1.7373422962005807  2.1296768789199265  9.6092823946959154
 15.5340019966187750  9.3551585013017924  9.2433190526895075
 21.3642957310345274  3.1237947206425476 14.7574325486861966
  7.9095451392671441  9.4793772746776028 16.7325632255422825
 12.5114137521875559  3.3612330400171393  3.8879625126475572
 25.2501430003321445 10.2464612021637542  3.2127472074724026
  1.5541228230556570  5.0590173087708710  6.1306309993255734
 13.9078706436760218 13.0727817341882737  6.7862731022114913
 17.2374525481252157  4.8022481893377522 13.3961842074397950
  5.8915632775689195 12.3821216063184725 11.7622209562260647
  8.3077168203748020  4.3551594107599909 -0.6571604373530308
 24.5734666707174689 12.8842151690796722  1.1195776926818344
 25.8982207468601722 12.0395963990098966 14.1969590236996943
 13.4548164433611905  4.2310447596533889 14.2646544744465000
 15.2572821990864220 12.9382534079755178 -0.3408258592246840
  2.8957291273795698  5.9173955009972685  2.2357282719315390
  7.5450518340633792 12.5914366624742105  6.6089499889738219
 20.1123895224045235  5.5380557621823998  7.9169820337749250
 24.0230374240206359 -0.7603913064592948 17.6427073174356899
 11.1267902536967664  5.2059871491386644 13.7570364867728703
 15.5387121008083362  0.1619408138986684  3.0916436836524612
  3.5149735608061712  8.4174805824041119  3.8402858464566418
  7.0441788624620747  1.0903866185347673  8.9162006448126938
 20.1163451641289264  8.6062897118876514  9.6194965934872059
  0.4132523572042718  2.1036109586531504 14.2632850034285283
 12.8050039580832635  8.5369059415065944 15.3215069406133999
 19.0734738878690671  1.3113236947309352  2.9305140201548943
  6.6754863810475458  8.0169305566109887  3.1744617968145517
 10.0954496782717484  1.6014399386113582  9.1444287932973207
 22.8503587175858165  9.0598898630882125  8.9724759371994196
  2.4055346781787419 -0.5910624917393285 12.4693391836285716
 13.3851039764649098  7.0809545048535014 11.2665707786040272
 19.6353950623375795 -0.6247680933589825  0.7789634923768283
  6.0104630228534104  5.3428847199377527  0.0814132831063949
 11.1852486261589839 -0.2846285454131974  7.1665519327836487
 23.5137775801656126  7.8088325337769371  6.2517759640013741
  2.6015343432514655 14.6972240542737858 15.6512807689178892
 14.9229100009087041  7.6816196428262993 13.8179913532948717
 17.6180955628374782 12.5767680422839803  2.7309713232495030
  6.1099228930697986  4.9843495124660704  2.8158982950051241
  8.2394601353070804 12.9655396493486421  9.6067608376246305
 23.1351215263107264  6.4839228365155783  8.6355304125423480
 24.0356096873725846  0.1401704094762949 13.1156098145646709
 11.0589912646098014  8.6386390940353017 13.3517022268736376
 17.0579553696749642  2.7024331898033349  2.2696568399780923
  0.5070845163116950  9.2946271162483427  0.4606409704452081
  8.2390857647601905  1.4937370914507446  6.0576321492581826
 20.5120095901394102  9.7423321031384607  6.8750109971996309
  1.1603296854355822  9.0798667296294422  6.4963695668948116
 13.8903750062916043  2.4334220022988271  6.6091560111961334
 18.4719536789384371  8.7267413082187613 12.8663657190394538
  6.3581763506678408  1.3726898704436985 14.4337299896292830
  7.1349678763602133  7.6929460301237889  0.5357758054564681
 21.3227398013179190  3.1273713098656617  1.9197694445552715
  0.9684939747738078  9.9535134538694372  9.0544042987448599
 13.8838218355467973  4.2800311980096613  9.4542947231661305
 16.3740647322489572  8.4825788861129237 16.7889218319185112
  4.6191490917438873  3.9154545249620405 14.8544440191324263
  8.9345161801816477 11.2690470647094703  2.6930008327439698
 20.5561566328633809  5.5329862435365467  4.3720119397228832
  4.0187446952137247 12.1314062722758251  8.1541344499280424
 17.5531970293094162  3.6622182535104000 10.1787739947265763
 19.4254647577531188 13.5250692890856641 14.8172343001557536
  5.8611203490851347  5.8750707316901600 12.8944738423298091
 12.4427209923822275 10.7186643886294952  3.9731305035539854
 24.8554256084882645  5.4993364783011449  2.6278788783317335
  3.0898058331767966 11.6217579978664123  5.2216578727601179
 17.6190043243200414  2.5476902920083107  7.4170526798844865
 21.5096727422218983 11.0198049273115402 12.6779871298051248
  8.9511267473227942  3.3285300918689966 12.7392591456115820
 13.0529594571674732  9.7700614579732932  0.7618969594186966
 25.9298323146301080  4.3965730856530714  0.3322953477967233
  3.7150252524587950  9.1519245294879727  8.2995793590592548
 15.4386058466885778  1.4496886845291734  8.8851489960407743
 20.7635119297990940  9.4748525013529328 15.1051163578210694
  8.1523014703817225  4.9005879659268938 15.2100673239676940
 10.6258064546099646  8.9485929181942367  3.4211228590182214
 23.5107329205214874  0.3844983560486067  3.7682428604567191
  0.8860967780260669 12.7988002062683748  7.5483744086164846
 15.5258016718751772  5.7925108532469123  7.7114171126272408
 17.4497901223726934 11.5535764775042704 12.9249893021635955
  5.7406922900805073  2.6366900941774785 11.4280319356525997
 10.9433527707289517 13.3486798860948426  3.0389014934455738
 20.8594315634134020  4.7139348549632638 -0.6641235528094858
 20.0023981373664377 13.1414941603533091  7.0207281430248214
  7.1352995745612482  5.4446845628698339  7.3848850575102443
 12.1742836313329370 12.4652184418144696 12.7956103894002151
 24.0132210771126218  5.1598471453649886 13.2689028266116491
  2.2787060195605289 14.4790178647167025  0.5638801156523356
 16.3064158494994373  5.4995539581624744  0.9183464966379493
 20.7025429701533916  1.2832600578113260  9.3792387849409735
  6.6523243972081740  8.0060327741281387  8.9807262096518006
 10.6199561636556066  0.7848907050575589 15.0542444510766007
 24.9170635807444967  3.6497724617177494 17.1508057721494254
  2.7613636895452105  1.3976871136215598  3.4332710430153095
 15.2326827602844617  8.1358354560933108  2.9962284460854667
 23.2834274195366255 -0.0451098518658651  9.6088357422908359
  9.2627712672014919  9.3951197110196709  8.7085309477013801
 13.3132350998541114  0.6381082129866303 16.7091752072713646
 -1.2792632975267038  8.3623621039009208 14.2228835024013893
  6.7882712742146714  1.1336909979762293  3.0817454906383959
 19.7329456115831761  7.8455980390368643  4.5941522718005201
 23.8421415140742532  0.7401215803593210  7.1153167313552581
 10.5569220368003265  7.5862060756373086  5.9656795303420287
 15.2360568706189436  0.4933864526635624 14.0907268892629620
  2.6940823481295451  7.3106583605327691 12.5099504618531228
  7.1303195044712595 -0.5463570173311629  0.9098002327384137
 19.2408705639936635  6.2927109673952160  1.7149926038915042
 20.8510579917184842 12.7651598361989844  9.2646621434640846
  9.5876955486354660  5.3159239319404632  8.8885399739948650
 13.4563742608395280 12.1179415519467994 15.9665432424168294
  1.6886136984580229  6.3136715763024682 14.9025104975748057
  4.7196095237312008 12.2927250011985834  2.2472995451346889
 16.9933750485399955  6.2118031064532522  4.0048602988767517
 21.6006520878905235  1.3397556441425293  5.8053057826651413
  7.9985137505636184  8.6279292180316070  5.5559202389003408
 12.0622440049076101  1.1663400067267722 12.7323132988897054
 25.1011187541946938  8.9150438398391572 11.8462253400914452
 -1.1696350404136553  1.4284555772669965  0.9126312134416847
 16.5100528249545420  7.8903102968354855 -0.0660432229569222
  9.2877377105182823  5.7993226893036951 30.7861841230365378
 20.7004798612359480 12.6247934549864649 29.6895160515841923
  1.0819415840747222  5.8873340571601034 23.5840951228336344
 13.2624884389484414 13.1245698448154879 24.8276923457120944
 18.2368317545957908  5.7842572445072955 35.7707887813997303
  5.0786418417783530 14.7132625114800941 36.4470196953946015
  8.5757629294649913  4.4719912472023724 28.0898457130960679
 22.5681553602368581 12.2822787250555461 27.2807200802063328
  0.2169154699530360  1.1715025054900130 20.7402788921266996
 12.2843902011506270 11.9562776006651763 21.9631646084702936
 16.0466356286283407  4.0976062231884081 34.1529786849610275
  3.5786684315628743 10.3815481735886177 34.3887957842208323
 11.3470300393628882  2.1319009090886070 28.6916020641885545
 23.2901016294579364  9.0883634310235966 27.7744802518068781
  4.3018279913590689  2.7656212711786008 22.5210468155905055
 13.8167925070275199  9.0183665697802429 22.2256838092519864
 17.5544269404744782  1.6356309851780819 33.4171790987204957
  6.1955543318758295  8.5748873546806283 34.6891370974566584
 12.3290469064114951  3.3719764150583571 31.4141763294447287
 24.0206141505321575 10.7954920575997999 31.0311050827588240
  3.3793054996921450  3.9356652735854420 25.2576133733491659
 16.1077601440806291 10.8780084577722977 23.6285755290596988
 19.8327187642591447  2.2888469541225827 36.3051061984164818
  7.9083048106668947 11.5502734898936019 35.3131953494116146
 11.5218867280485533  4.8531121086772906 28.8390602327727414
 24.8535744504997602 11.6685545600917830 28.4621725265654995
  1.9387041135827545  5.0088826600394594 21.0780089930155725
 17.5332002743015920 11.3258362254525444 18.5836020333667911
 19.9043218985581234  4.6739436701117150 33.3905529183085505
  6.0626207614735099 14.0968230758689241 33.7683970720917017
  8.8933232087910099  1.6945112796654116 30.6656688784943761
 21.0252550717934312  9.1287960219431934 29.7303607661280402
  0.6746896912923361  2.2995698250906424 24.2694813778352554
 13.6717066989836393  9.0391507277249499 25.1819944977388595
 17.4002549975346490  2.1779443891213983 36.6877573184095525
  4.8300988634184483  8.3596545208148214 36.8081547247538339
  7.4810644382091267  9.6198582249359035 24.3183366989367649
 19.6726020679283167  1.4939187767377458 23.9526291029471636
 23.7834225964671404  8.9284069923546134 36.3777105813167054
 11.5465917697567004  1.4371500948505826 38.5675089889812810
 15.4264812995711278  9.1005110567830823 30.4178187098970199
  2.7880067034942173  1.9997544468134980 30.6989659534497861
  5.5677718893302020  5.6542968519532559 23.2315959065451985
 18.9628384003437702 14.9718658598164787 21.1670101239041522
 22.1639248766072434  7.5091432291212881 33.8620558789467552
  9.5979946290253739 -0.9555186856955151 35.2924168320675875
 14.3733077650402254  7.4478424594933434 28.4351164110027348
  1.7403863210170778 15.2495977859027558 28.0655216452631144
 10.7167117887112919  7.7594907609089194 21.4835679295541446
 21.6650232287153877 12.6176757566000077 21.5854108503289055
  0.0687212781937732  5.6803472273301594 33.6953348148576382
 12.4895023220091890 12.3149909206053856 34.9524356943047252
 17.8140912439330457  5.4594598586996179 28.7702741057299107
  5.3519906782931450 14.0814997994381415 27.7379581708501028
 10.0184274460036260  7.5626491142960992 24.4593246437382170
 23.1740983664490763 14.6879686180307214 23.6311761401975353
  1.7833806441263056  7.4964595732691937 35.8507585599748424
 14.4420743670009379  1.1794318010054372 34.3379971440086322
 18.7378488342429641  7.2364533481513327 30.6707929641112358
  6.1004117579651682 13.9047686919615678 30.1456930388145921
  7.4870478062344681  9.0670536309064840 21.1432826798025530
 21.5155288400965041  1.5515985411987188 21.1484834723582082
 -0.2132961604522584  9.1967235927995148 34.0673308834231250
 11.7160694757444919  1.9597926320309114 34.9996524095489789
 18.1397181626623158  8.0539588830465298 27.5575992948623743
  4.3381310086345310  2.3730697267520133 28.2589784679164104
  8.6709340603491682  5.2789241976129286 23.1026581485997404
 19.5988994707901547 12.4840785290305352 24.1029413466850677
 23.5362087892190885  5.6523043412504137 36.9649523203811086
 12.6934805095279657 12.3619626210965787 37.6482454941540610
 15.0808874758974909  5.0674642821600413 30.6825652580200163
  3.1149204915086419 12.5432444414392261 29.6756355160756335
  9.0829020119211954 12.2432350798213072 31.4247911511073106
 21.3523698731119467  5.2814027569776796 29.2717768631506310
  1.7412526043140903 13.5210500241078417 23.4406202340134335
 13.2931288340381535  3.9151307715527537 25.9676042632002506
 18.0369063481413647 13.4890221457677715 35.9748727119429077
  6.2519856467765003  5.7963308403778422 34.2218962213199518
  9.8867460889514653 12.5145398683815241 28.3300898254576872
  2.4631098771363593  8.4298460895342231 22.4785039960761104
 12.7259334699921371  2.5750198548812890 23.1110755193148023
 16.6286713726440034 11.2551844109582806 34.4444722699653241
  3.4191795231964095  4.3770445086433885 35.2206975329996581
  9.4242291710751012  8.8287384954873716 27.8545825675679666
 21.2684293792626669  2.0966976385249954 26.6757846555939437
  3.3903006672091585 12.1267772101936018 20.9286213575185371
 16.3272952869484023  1.9859350186369162 21.9624259263030090
 18.9852783791083439  8.3489194567292682 34.5446268360199014
  4.8854681815443461  2.3725965314353310 33.8862782475561772
 12.4966519281418140 10.9097847022918195 31.1026849280744280
 24.9271996698461997  3.5682075796780528 29.5731301299697371
  4.0800500095898258 10.8990341389161731 24.5438073082275388
 16.6426113750325015  3.3136768737149578 25.0064905648333635
 21.4350313756027724 10.7363599346807970 37.2068011439876898
  7.7010321912844644  1.8494335709390541 36.4816681966877425
 11.8719666976890856 10.6951083475565465 28.2903016670721534
 23.4354167817628429  4.6680135143443131 27.1245935824354412
  0.4547960910842603 10.7088739278779990 21.5423034595481866
 13.8603740823770867  5.5394663349924782 23.6230143881514465
 20.5384114825258379 12.1305546040117314 34.7083841393972321
  7.8172369073179233  2.9821702411653916 33.6475809684279810
  8.8957827004169463  9.2121614929117417 30.9969626309043420
 22.6161562341406608  1.1873477112922164 29.7219960090049078
  0.9738854968457559 11.0495210028467366 25.1973561052205390
 14.1736640195269317  0.5358121974941182 23.5672551299576014
 18.1636591522141906  9.3524827640449111 39.3531281440317926
  4.6918655917476508  2.2684224826926238 38.9639965405290738
  2.5290804629321491  9.0439276558820332 31.0667309208562372
 15.9262675146252342  2.0223876015783846 29.3718216940686503
 18.2358223916052609  8.2399855646008930 22.5812746867459495
  7.6739225792531522  1.0728473902461493 26.4878150943160264
 10.0350489181120377 10.3701067871789778 37.1982949344716189
 24.1656296987573214  2.9410229544546072 35.5674036444800308
  1.7025341583705933  7.5916826388122010 27.6686589265409815
 14.0316670983654586 14.6252954247135261 30.0704218315422942
 21.4837972129204964  6.0946106880305315 21.6572954616795492
  6.1611817578648465 13.4926240968806876 23.8922082177228461
  9.7817018586430322  7.0710536155946508 34.7359284524509206
 20.6914138528873472  0.9082730565331998 33.6462025719887521
  5.7545994068700237  7.2837537361054787 27.8837235635592116
 15.7621871378878105 12.7082254374872718 28.1313849255323412
 22.6057370646870091  8.0708609475552375 24.0245243863234954
  9.8963071844805324 14.4262459576556985 22.4332557017415972
 11.8942721764717234  4.5153382153127239 36.2451914092325111
  1.2574023249287443 14.1410702654186018 32.8265524751655846
  5.7087746582701469  7.6105531663240331 30.6953176125257627
 17.7311818390496754 -0.3988124055053336 31.4033936221401397
 20.9373867626995391  6.1310071119705984 25.5018764744419570
 10.1681417656083681 13.9185724953269556 25.3293443199972756
 14.0980275845881593  5.9106774839481435 34.7955790567656962
  1.3846910731166979  1.4419832333713993 34.8063933547152402
  3.8919701888712837  9.7653656429608713 28.1692989248539725
 18.6115027360761154 -0.4872081471619500 27.4362211549434249
 20.6542868011030976  9.8514782209926288 23.3473532594455015
  7.5909799919373855  2.2340574695327327 23.5795029882744913
 13.3462423385402520  8.9589432312828770 34.9161754142873875
 -1.3490787860981759  1.1059106054954573 32.9071908282392940
  2.7852997485507287  5.2278384169541114 29.9781847343474404
 15.9028645865286116 11.9712597629778390 30.5641496178676348
 18.7741859985651764  5.6036648800502071 23.7904814543672707
  7.9700579045729096 12.4529683711261647 23.3228571723240350
 11.0163951333327486  5.9921320647553262 38.7876584314094046
 22.7018894836295431 14.4864821686176413 35.5552073569555276
 -0.0738441258430579  0.0823898410822128 -0.5157037746782452
 13.6527423401333046  7.1375363345744356  0.3444944934515994
 17.0063391234059189 -0.0103053467099224  6.1267635066913764
  4.6672407947751902  7.2380812637811376  6.2117389607597637
  8.8802152615943228 -0.2869472498640174 12.0083797647784998
 21.4140859050875498  7.1077330815381679 11.9688381168799989
 23.4392368687783623 11.3364452868577228  6.0952647602269678
 11.0009116886408229  3.7109731562078734  6.6294605679413392
 14.8433768909433450 10.3066136780920008 12.2279062353150820
  2.6050089316029221  3.3609733565404505 12.0037152174543653
  7.2573205569859525 10.2127732246961465  0.4972106441805929
 18.7752992915008043  3.9883495330062781  0.6454030386020898
  4.7637831987141634 -0.1107356157760808  5.8781158992072102
 17.4650269774661311  7.8423801953282668  6.3090244898964389
 21.2645543600169198 -0.0395308948732856 11.8846718785582244
  8.5349045613487249  6.8029163437236742 11.8804653247736685
 13.4399813702394439  0.2731164501948872  0.2426564664798648
  0.2625291348691645  6.9577272008997886  0.7500301492783648
 23.6617995219256123  3.7749441529978314  5.9171826086817303
 10.8656581608314795 10.9361880253888604  6.3232241884764013
 15.0508521792848242  3.4329042894074360 12.0907766511973271
  2.7812175140973872 10.8869736085192539 11.7798976950608001
  6.8579144234586460  3.3201734766425592  1.3145768057339060
 17.8060866036680387 10.9645164020542065  0.4632167573244830
  8.5127278396848052  6.6542081991436728 18.3488406535988275
 19.8582961110142442 -1.3224181153602650 18.3090514725967211
 24.6032711353796003  6.9491309752635981 30.4795562279241281
 11.7377728101239214 14.3586216408510374 31.7708201022521521
 16.2712920273495669  6.5766816873427647 25.4617668381570255
  3.8588959026586735 14.7380689190143581 25.0485108966309440
  5.2572468908765559 11.0439208609336514 31.6160182724490717
 18.5075399911407743  3.1446490746969520 30.7058864519771930
 22.9231509250981311 11.2354842195637872 24.6017770642824551
 10.1070553071271600  3.5576885591018699 25.5209329265745346
 14.2617549555566683 10.1222670321252046 18.9036540187282114
  3.2836070959808019  2.5507466708475333 18.2774777249040845
 12.1519271819441954  7.2999237187739281 31.5478908525354953
 24.6268884166038795 14.1398467460296509 30.4576119635603142
  3.9328231283499338  7.5729726817294765 25.0264714420133600
 16.4454882150325048 -0.4475024519024003 25.2096941468241802
 21.5979449358248843  6.4228701279197029 18.0116918641102650
  7.7708619703704391  0.0129477215276460 18.8799856281483116
  5.7722460181047293  3.8643656738506311 31.0167863933514134
 18.7514582909079017 10.7292229743159453 31.3838462175528186
 22.6620710262851155  3.9226029048055886 24.0119254655343894
 10.2896032120440353 10.8844598554620138 25.6746375268765448
 13.4793440257742390  2.4963458191825052 19.0866411695684555
  1.6297940199987602 10.3418452201106650 17.5463818990727525
  4.7330867702156203  0.1463989691782287  7.9539472002024141
 17.2876404444114016  7.8626040077239683  8.2943543189038120
 21.3182033420958383  0.1661733243203088 13.9415698616966726
  8.9491531072969615  6.9071780546147066 13.7907639464391032
 13.0902880238658366  0.1582863820306499  2.3537428290085174
  0.8322019506365489  7.8480958782948225  2.6847576709337648
 22.3861909815500191  1.7019220903627295 11.3271534212176057
  9.6287670138687371  8.4281485678270904 11.1762628557762387
 12.0521489069836427  2.3929576732861286 17.7941871446757425
  0.6577516498625965  8.9071393918579904 16.2582244771852942
  5.8166521252784635  1.5663763228328655  5.2614893927825284
 18.3526265818672627  9.4967685596424793  5.4849722273920403
 22.4823588618695389  5.4412566088308001 11.3057623672094660
  9.7522697433336081 12.5310383819852031 11.6486440878732758
 15.1359121123719813  2.8088152411175287 17.5698871353427073
  1.3715246458137100 12.6979276933669869 17.4756902346444782
  5.4831864998781512  5.6132535977390887  5.2370181083858167
 17.9121403765522835 12.7131293840842083  5.6424660384446801
  7.0651142492932806 -0.1244969388635537 11.1477561362947810
 19.5060580175772103  6.9263733755878283 11.2907246589879211
 22.8728282136958434 -0.6734414057415595 19.8624621728681952
 10.3014141926132812  5.7648530188773082 17.7020346072598294
 14.9843371478971772  0.1177724435781978  5.4746787049283254
  2.7648504424570510  7.1369396854427913  5.4890636473201520
  2.2989457457401610  3.4940051381408392  7.6824454407756670
 14.7871645040015913 10.9127144306301158  7.6134112627032922
 19.2022039896493553  3.6370661834198423 13.4709394101424955
  6.8342100966052008 10.7054681528033946 13.2762798212219550
 11.7073226177735812  3.6549832059840837  1.2688787367394234
 23.5660239610196918 10.5281232119821357  1.3194090014008242
 23.6998856958587005  4.0010340186687250  7.9743858186589813
 11.1031119951733270 10.7871384560070673  8.1732839261454604
 15.3950678189877870  3.1714512607283094 14.1242210558635541
  2.9630826719156484 11.0302195086433219 13.7630193875561044
  7.7135571188481400  3.5864741598735788  3.4045998945038289
 19.6271007013405985 11.0823632075921221  1.7464430625603624
  3.7886890097096706 12.2902795376559801 10.7577686311652094
 15.5613033969116543  5.4130833693403364 11.7734374628044858
 19.2202335724848155 11.9363720264180682 16.8877161795109814
  7.2872969242294277  7.1302732165721228 16.4223686999343670
 11.7663905563759972 12.6133526363122925  5.4839138432694323
 24.4304517943392234  5.6012465750390898  5.0419350688654205
  3.4153503231819302  1.5768245021796430 11.2744869676642807
 16.0474388864475586  8.6648455500151975 11.5251685237716668
 19.9399789364070514  0.8827647204374737 17.7819346663866185
  9.0197921542235502  8.4929226400261211 19.1568875452443699
 11.7862869046106908  2.1373375827372096  5.7363453980610180
 24.2085525146669269  9.6970756865386196  4.9928826972378575
  0.7139275203305883  3.5262040984061178 11.3888163496809653
 12.9173788893211263 10.1921005931348478 11.3975714869583111
 16.1664063986427351  0.3189734305545153 19.7716967708929197
  6.0102318971106552 10.6953164825441647 18.1866872043977104
  8.9855698470559702  3.7387744074073095  6.6579392375096829
 21.3669307623277156 11.6570319619160632  5.5735314374089491
  0.6340959842384071 -0.1900434091919254 14.1501883909587907
 12.6720132898167996  6.8096983395930266 13.5856090431746086
 17.5381983620058364  0.1321701830517530  1.3867064181145248
  4.8357479012368891  7.0605800999467272  1.6430485643767037
  8.8388933743473377 -0.0541607131930193  7.8692663792726023
 21.5498059975048299  7.6361220642601424  7.5406765813283023
 25.5985369090271142  0.1758336743922383  2.2573116567258107
 12.7033817780245464  7.5263285149000128  2.4837017209113124
 17.1714237612274978  0.0858574524036942  8.2793035438446498
  4.6726128663773032  6.8070928249747729  8.2144414609873149
  8.4955931530079472 -0.1069397562074959 14.0932973046839933
 21.4092040898829552  7.0655375587871108 14.0295863294033278
 22.3757701149181223  8.7361012938173292 11.1689686021047780
  9.9684631406799742  1.4286108517415086 11.5021632561679592
 13.9516352843492637  8.7402894005589591 17.5245173893077144
  1.6113015876255343  1.7357641061278530 17.0408084559988602
  5.5775477459974194  9.1010024164470433  5.4600968073839748
 17.9981504607393212  1.5269956357494425  5.1960176366884951
 22.6111485410534527 12.9819419672292256 11.1277847924973052
  9.0129520259509288  4.8861737664756983 11.1448186784602594
 14.9235388379949097 11.7590978678002198 17.8452813078027752
  1.3666428682779295  5.2859589392286894 17.3480284649754850
  5.7517054669198986 12.8486999127148867  5.2004401943617582
 18.6470470788679812  6.1448939332129155  5.7447074403853851
  2.8368552644899911 -0.2495882889272481  5.0945703246680916
 15.4729560305596525  7.4675391984329460  5.6409311529912358
 19.3619447624397729 -0.1091360526742692 11.0511638066138698
  6.5599122726589139  7.2988498113154296 11.2642460625864942
 10.6303054814200717 -1.0238045660995261 18.9061702974500143
 23.5312267837569600  6.7462293446244832 17.3928764154534825
  2.3339473846599392 10.8792296530529384  7.2809977440568447
 15.5136730761394546  3.5360788570057138  7.8011184152197064
 19.3768055765009493 10.7920234831923629 13.3803092116201530
  6.6547639345379928  3.6769161092976606 13.7706710124744660
 11.1257382362817374 11.2184870891290345  1.7923332643218430
 22.8539798197876109  3.3261495797116538  0.1549829032274229
 23.9501175046147310 11.3570464669536495  8.0035988299224066
 11.4883816730980346  3.6918142531348441  8.6112413145683995
 14.6453192136361725 10.2735255839731359 14.2697340445695762
  2.2987863350582396  3.4617338711761336 14.0787578868786643
  6.7164843275734301 10.7314662006697539  2.5934031216575630
 19.2538751658406291  3.9040150684037349  2.9814717788710627
 24.5900559959957228 13.1017583143226961  5.3427700258433193
 11.8160080641509495  5.3588928409229188  5.5102942301351403
 15.6524336668730104 12.0113332036114340 11.3177123072511812
  3.9004920730629431  4.8538064245651142 11.4653734033083108
  7.2858714725372904 12.0849777607057423 17.3899526228285346
 19.9350712401896608  4.0188521592724751 16.6725296985771401
 24.6201070982948842  1.9637268128455168  5.2837342028694199
 11.8771433394007726  9.2687898676480494  5.4319492243923051
 16.1770158285865193  1.8096612572458890 11.2038591962011864
  3.3029905792621101  8.9890769449742329 10.8443483485906516
  7.1638742035050225  1.2191485631361125 20.4793552911337358
 20.1367277299325735  7.8857358559831114 17.1430296383818508
  0.8015654141595113 11.1405045299277567 11.2265237878292954
 12.9963818398814936  3.3758912114165791 11.5602307194020710
 17.6830848507869227  9.2403817021200130 18.9499746571145096
  4.8650407901874670  2.5225087563096680 16.9114580641872720
  9.1165233826948420 10.9966643715387100  5.3075184403807301
 21.7407870641922187  3.6974375851158130  5.2021285292951029
 21.6664446437187443 -0.0004218438400664  7.7356319449525426
  8.9171367065233991  7.3639434207832402  7.4912360312776558
 12.9861681180581598 -0.3898233856293583 14.3012094363619848
 25.5935641024360798  7.2250253373625872 13.1438391421068612
  4.5321744201591629  0.0421412848473680  1.5003916835065692
 17.2765252885883633  7.2611931399030940  1.7804817682938383
 11.8820814240956452  7.5970974920253900 29.5244638774692625
 24.6115168390833325 14.1000294734819285 28.4763816613416729
  4.5349882500471006  7.8766815120364981 23.1900335501724442
 16.1383214639705166 14.1296255173036283 23.2295128931900337
 20.2612231479991749  6.5613766871409984 35.1259898044030550
  7.2665725429392474 -0.5080770151014048 35.7381115024560643
  4.6706472232462062  5.8050829656228480 25.7259126633360999
 17.2456233128116736 12.3141129101216116 25.9091636661109170
 23.4301275669358553  6.0219809670353888 19.4231305093012665
 11.6322816233346344 14.2581635034630363 20.5428526367934374
 13.1119437467925692  5.4728629990809461 32.3678067836685344
  0.3984856669191856 12.5381666826864553 31.2868395610731369
  5.1158037349898740  1.6502135455579050 25.9005415894489204
 16.6194730963159749  8.5358875349817662 25.8029160055484574
 19.5715788690787562  1.8427186667716782 19.6409341388479319
  8.5084821332932634  7.7763205866405691 22.4090589308128294
 12.8192938736175890  1.5399239670928360 32.6895351645742522
  0.2649671824171596  8.5494932318332388 31.6664455485375989
 14.3894993875931672  6.2412127900981886 26.1427021771601211
  2.0516324390601599 15.1198558853552196 25.7854677652839683
  6.4606266052698293  6.5350422709950777 18.2804135258402951
 19.0338327492691270 12.8203939347526035 20.1509809925423866
 22.5608639772269193  7.0539691763353005 30.8529302745001992
  9.9392438973581694 -0.2479609607300567 32.6155470313689761
 10.1423450266498545  3.7393661749351295 30.0015704420016576
 22.7421478118102947 11.0189496444825732 29.3215073361289882
  2.2114691228405201  3.9155479094368948 23.3381502896023107
 13.9758142879493814 10.7498942310178283 23.7716931159674765
 18.0551060539288990  3.3936693806362821 34.7990572329195231
  5.8190984768763174 10.5813337100167004 36.1696393545418005
  6.0627575121763861  3.9067196436038634 29.1458213284129997
 18.8441912187202263 10.9325585570853541 29.3485820967834066