Cl48Li287P48S240 E=-2518.024772 eV
 1.0000000000000000
    25.1819793006824639    0.0000000000000000    0.0000000000000015
    -0.0000000000000009   14.5388225279766061    0.0000000000000009
     0.0000000000000000    0.0000000000000000   37.2126966544236950
 Li  P   S   Cl 
 287  48 240  48
Cartesian
  1.0626529486680985  1.6435134906522959  6.9225357320434533
 13.5667601414369994  8.9863768337702314  7.1814503513449779
 18.0668736816795423  1.8757540739816996 12.9290770995003346
  5.3377624365862317  8.8742114786122261 13.0423609628969981
  8.3111732788312782  2.3899703838906432  2.0335899547021463
 21.0686498660304551  9.7585700895579386  1.5559718937112490
  0.2434376875614622  3.1784413824582658  9.2836170395371678
 12.8101900627190677 11.0976693827429678  9.4538993336673940
 16.8920913862793434  2.5054482950509049 15.3771909199418175
  4.3327495559572524  9.7049134356514557 15.4684236974945311
  8.6731904921779464  4.7241352336555824  3.4508315066280524
 21.4317358269335259 11.8596349683909104  3.4163040885233449
  2.9514774140157827  5.2495042693754890  9.3374249324694851
 15.7752458063173115 12.4810944697881148  9.3891255646339733
 18.9344833551314338  5.9670577079669913 15.3899324229529473
  7.2239922341820062 12.6317782078091163 15.1698088394892689
 11.9323653594163464  4.8783811297440929  3.6041121255216102
 24.5295479224948565 12.3820443879597821  3.2584274355662579
  4.1998066430921410  3.6983239395691232  6.7830970901727143
 16.9474349040144148 10.8097230364633905  7.1180664662700135
 20.9606345944645014  3.8831450804041681 13.0357898281157709
  7.9777336757895903 10.9419596059044792 12.4623781723175622
 12.5892421359592817  2.3905862837123406  1.9346159613434273
 25.8083063412274285 11.0999003580932136  0.4729811166834837
  3.6761053463420232  2.3392275271172869  9.1952326746959443
 15.2356369943028920  8.9224726585622047  9.3913093401588483
 20.8361456457275551  2.4551358153840375 15.3580585845587709
  8.4152341072550350  9.6656691652122415 15.1578063604884701
 10.6792670544073474  1.5817812605330834  3.6794873300218072
 23.8686437037228352  9.1628257995678677  3.3254451858373746
  0.9407758510107450  5.6270914028195458  7.1091201648548941
 13.5172835644047638 12.7941260293599992  7.0946986370746963
 17.6399577148126916  5.3838521681127594 13.0853924446106920
  5.0301364019355486 12.6642166401636587 13.2247347353764777
 10.7246616015257565  5.5288393085718965  0.8744219685523648
 22.6144626100925805 12.8154683011972956  0.9013458139942686
 24.3305636942801193 12.7597360242563980 12.8131889764312916
 11.7148256220194771  5.3091764905055490 13.1080589690797158
 14.7437525968099585 12.9235002613723093  0.9991985513979033
  2.2427243202864036  6.3985553580025973  1.7060890913178197
  7.2526170421812077 12.7121608535251376  6.9780413256047424
 19.8830240220071843  5.2888030620907927  6.9971423787144005
 23.1575121010005063 -1.1106984346069024 15.2808144027379313
 10.6134747362476141  6.1396289851298063 15.4443080471205736
 14.9070572269136719  0.0523317205622737  3.4401262294511961
  2.4138298377073446  8.3965209882917673  3.5494297975396178
  6.4501962141081162 -0.6311552954362630  9.3805765529655289
 19.2213199740992380  7.1910219854055724  9.3937490168161730
  0.2395067315757246  2.1967427596678033 15.2680967711910540
 12.6864888004380898  9.5990189438108455 15.3947336464393629
 17.8875904041504796  1.4424450140356195  3.1889495722502463
  5.6971623273292122  8.5268082202149547  3.8320494810256567
  9.1969622885424300  1.7227209121119920  9.4205953258114157
 22.0660195627602143  8.9025800623187887  9.3153146033679572
  2.0996964111802612  0.2068150284961131 12.9414783666296991
 14.5092301835043056  7.4303829916725528 12.8744956539049547
 19.4180317744433211 -0.7730899515044735  0.7994781809399891
  6.4057514300416161  7.9043619557125400  1.1088556895790078
 10.6236443777129086 -0.0060702473393949  7.0765398052616098
 23.2619898654196362  7.3113901693187007  6.9915277057019045
  1.8826648636438319 13.3976762448054973 15.3642710597090311
 14.6016218488632070  6.1251457497901445 15.3682330659646187
 17.5791135589635772 12.6422090502577777  3.3120307893642167
  4.6968192425297035  5.4766917640844772  3.2841167536997338
  9.6404230145647727 13.0863672764037471  9.3877818786843417
 22.1620190234688188  5.6650766994706263  9.2875599562009654
 23.9931521349637400  1.6977279826849510 12.8998828959747556
 11.4661608950315852  8.8524818900401563 12.9119055918131860
 15.5138768795373885  1.7241238703259234  0.9495749261010618
  4.3860919368819991  9.8800859066351094  1.8100212399623674
  7.0409892935097842  1.8545027053994998  7.1430033378198168
 19.8727580839905009  9.2203986073599680  7.0481941229812612
  0.9285068594674082  9.0179909509176337  7.1627293648302484
 13.6352534147411841  1.6359154499743442  7.1766448597943215
 18.0563667149689735  9.0984916591794391 12.8460520215294451
  5.3262556252928537  1.7106844790562763 13.0117346585560814
  9.2918191268031229  8.7220004409405441  1.0110146055651286
 22.1624274551022751  0.7889382989041642 -0.0505682020070963
  0.2730583383765743 11.1943943761480433  9.4005331875302236
 12.8131115523587500  3.3688121849673021  9.4548452492162589
 16.8883828549557968  9.8737905277467686 15.2862131078446915
  4.1327117128620969  2.4518595491077719 15.4427635982235820
  8.6007830450286669 10.2173899521668083  3.7364114744442816
 21.4079860825992547  3.7903580860136983  3.1443409769853075
  3.5627057412364307 12.3551336640169502  9.3194868496879995
 15.2139185715743483  5.6162879114856761  9.3781258600037187
 18.7841582119227866 13.1636571552355957 15.3343019306557284
  6.3104290896103334  5.8966153193993964 15.3969005364840523
 11.5034372677149559 12.2885285136703715  3.2377145460145993
 24.6667743330454066  5.1512355375794607  3.4624307671134988
  4.2725864301147007 11.0954769744717723  6.9558811651142261
 16.9255309296555900  3.6864927325899455  7.0323600563360786
 21.0362178624441967 11.1363279222060001 13.0155576965651214
  8.3793078078682814  3.7348796547155816 13.1339214137781362
 12.0795115100611845  9.9134861590007315  0.7123594461272186
 25.6032327002027742  4.3581568223812983  0.7931194999538670
  3.0169959945467366  9.2633249859275484  9.3354552895158953
 15.9840059420336278  2.2028549485793345  9.4290817122243258
 20.8317617783766238  9.7356026538126219 15.3381987189069342
  7.7481635760329945  2.1374997789491408 15.4744740019727516
 11.6059924389448081  9.0135234565489917  3.5617056981679953
 24.0599234777879296  1.9218628167112293  3.0812858490831148
  1.0353993099589709 12.9412744358181833  7.0273758501561039
 13.5692246749477157  5.5404021425509828  7.1614108336303559
 17.8401115494433000 12.4566823016782688 12.7218148097435950
  5.1514161311443596  5.1687574291636356 12.9174012314230993
  8.4021837151440710 11.9386299652168901  1.5427668205427216
 22.7643620637961810  6.1336629803044849  1.3813559369437862
 19.8602102239665044 12.5534489759271430  7.0250591639354996
  7.1369518028573689  5.1590201370271025  7.1822576751175671
 11.6444716278127114 12.5539119049534573 13.2466099894395022
 24.2896740639138962  5.4336668476629972 12.8520463400683322
  4.1325248117295352 12.3097205416403916  0.6337728421119682
 14.4462610012441139  5.7801424422447205  1.4579165103396361
 19.1137520583694069  0.0353872032388416  9.2984054979320465
  6.4965606140920480  7.1318104598346626  9.5158321357511078
 10.8393029918200714 -1.1014258811833992 15.8500127472176615
 23.1881192681394452  6.1139458184783564 15.3205097281643106
  2.4572432082644862 -0.3818941311153078  2.9995127509191755
 15.0735397660897892  6.9507139692887483  3.7118094439676588
 21.9255642944641664  1.6274687678874444  9.2992386551184243
 12.6120406512780576  2.3056574608624985 15.4176689179330868
  0.4642795543188123  9.3656496998860845 15.2976709745551140
  4.9945468544050984  1.7380735183007310  3.1232887198922246
 17.9723890271829490  8.7252768517722554  3.2283692376326969
 23.2369360758040600  0.0523026657837705  6.9190178512119784
 10.1880463977958762  7.2716256217142794  6.8738161798125086
 14.5647485460333996  0.1376236974221897 12.9695242112858420
  1.7903531105732964  7.4164816521686241 12.6282827159211433
  6.5861871434466641  0.5580914998046126  0.7159970207219674
 19.3335062519556722  6.4921529572676384  0.3013564636208595
 21.9579463107330852 12.9073553386121311  9.2641421716361680
  9.5069851603306041  5.8114511721167883  9.5278164478717908
 14.7157331887311109 13.4032005974432611 15.4638477117317130
  2.0144437270176674  6.1434617130001676 15.2852046951690994
  5.7039482429035591 13.0844543617139859  3.1537883075581861
 17.6661371334678350  5.4661357233631040  3.1202230784776632
 19.8569359058593484  1.9402843986470288  6.9242591847051651
  7.4598192553081200  9.0582374143389348  7.2796612085154697
 11.4032006282723888  1.5668916857580839 13.0743125366214361
 23.9227857998362552  9.0496930278180479 13.0736886847317226
  3.4026521218648824  2.4722540547252936  0.4233274660581915
 14.5224616756934992  8.5725469291012200  1.6658755729364820
  9.3332746009543275  5.6044082679688483 30.1296350099371857
 21.9660696440669199 12.8509207687268230 30.2443969617985502
  0.9821333876182272  5.4723007746473806 24.2342320023436493
 13.5175192465226335 12.6296407164855697 24.3167324428191556
 16.9641134024324245  4.9105786424217994 35.9517596102915391
  6.4475123984706029 12.7485172415882460 36.0740103894297590
  8.5929202303893213  3.8355621718844897 27.7630463531328644
 21.1893659172446860 10.9930153166392639 27.9042184575775423
  0.2492343327360279  2.4745203833935245 21.9245609803289128
 13.4085170919154262  9.4629442604809348 21.5508763005064310
 16.7109882980929960  3.3316670948277367 33.7630553417423798
  4.0478270080425895 11.4949712840178755 34.2367114047141712
 11.3757313531008872  2.0715322733602637 27.7504948801464693
 24.0545944411998889  9.2440740657611951 27.9174757790731078
  3.9570549923907157  2.6659383638720415 21.8437565507317721
 16.6271489049390588  9.8373283780455658 21.9769040489849665
 20.2740143466680394  1.8756941843874300 34.0879166151183952
  7.5464828983115915  9.2015019037359913 33.5093164127590555
 12.7517690162649568  3.6062826905338534 30.0225160821765336
 25.3174017453897449 10.8451192490017707 30.1878188983552853
  4.2462448603976757  3.9020754235929034 24.2148928165594981
 16.6692797351841477 11.0852201472980436 24.4397770171369721
 20.6254547777620445  4.3525793201711549 36.1944404475379358
  8.2521338863062716 10.1693499348155392 35.8691860263202216
 11.3726733054855558  5.4451057420120197 27.8696556779399174
 24.0417158193641711 12.5537310776869333 27.8978578793517222
  1.3614643008251073  5.3597829733944744 21.3741779049689171
 14.6029647353840435 13.0585216375862014 21.8013194265524959
 19.9014735145047155  5.4675927791533283 33.8282368672512916
  7.0194398427122318 12.9090775888022868 33.5587337019389409
  9.3864842937386914  1.7088130144716107 30.0346024569059438
 21.8734914740774293  8.9719843858090780 30.1417541384153260
  1.3095505780384125  2.0183650189997810 24.5452914077548812
 13.7684382690824769  9.1399269594763961 24.3674845689080506
 18.1584489226132710  1.9940635118984595 36.2745553015882365
  5.3661209167064845  9.1351881936850887 35.8756378509528346
  7.1345852631901270  8.9881369479468276 24.2209200018196853
 19.9859395586936088  1.4443948462696343 24.5125217106114768
 23.1845445287653291  8.2333646736747639 36.2973042992636437
 11.5852317156802727  1.8015534969916607 36.4518168577558797
 15.6490947168649548  9.2103994470672106 30.1065297239737184
  3.0481470283374446  1.9887803232283636 30.1217815417106465
  6.4153122427538234  6.2166429413265716 21.8310730718148847
 19.0578003381666647 13.3990499879660270 21.8291261335658184
 22.9418863910625923  7.5377401863647329 33.7417979780453123
 10.1121236543269504 -0.0546388157757996 34.1473856270390854
 14.9212736594950215  7.3509560592793468 27.7696985174195241
  2.2609090206262485 14.7529593337727505 27.8486210722693883
 10.4345200581202615  6.3027138608967492 21.9530974725884533
 22.9266480564960524 13.3902057462396442 21.7859987013791887
  1.2384265424010636  5.3733288739321488 34.1412508338464633
 13.3387300484930869 12.9420639677329365 33.6326879191205137
 17.9090746102016745  5.6606595314589212 27.8388428813164914
  5.0879115736573093 12.9992337690199822 27.7659453222069885
 10.1492245108774615  7.4243426006347271 24.5489074932489793
 23.1334612502966408 14.6538070679145687 24.1832604251836365
  1.8307582857243241  7.6031119811245960 36.1620679128066129
 14.7174860010415411 -0.4392668379735104 35.4973005296342166
 19.0239990711713141  7.3106632393357742 30.1472749438512757
  6.4850297729531787 14.5975162739517348 29.9691429488561667
  8.3099533395233909  9.5370276601783512 21.8233695512960360
 20.8713949270408321  2.1795986435913060 21.8844161621138262
  0.3911103974338797  9.4816649467180945 34.1541541159606368
 13.4331299883717143  2.2272961063149843 33.9309383178205906
 17.7654830435375786  8.9383799719642436 27.8379023981311313
  5.1111376286994208  1.7855960932829817 27.8193519396022921
  7.4437821712547994  5.4246355638165289 24.2273300611645759
 20.1324762351939306 12.5342648890602621 24.1610824929220556
 23.3252214905751494  5.4719934150980309 35.5069493366833555
 12.5291069085530342 12.6011862660919824 36.1938254657205079
 15.6839292602512597  5.2507015710356253 29.9612014198193748
  3.0433038832312369 12.5788887265150571 30.0090662199919116
  9.4168964689737624 12.9344894383247127 30.0280454379503077
 21.9095596801777397  5.5892889201036073 30.0602069969781773
  1.0186338388095000 12.7692445511946921 24.2477463445842609
 13.5424605547752908  5.3073860651221647 24.2693012848294210
 17.3461837728972554 12.5567083097555408 36.3124167710006631
  4.4539934209976080  4.6881663413751857 36.1802984238189822
  8.5156720905657561 10.9836188935596901 27.7890527840642534
 21.2277239863109237  3.5989550963487873 27.8277009702021410
  0.2360996096722836  9.6790489272620608 21.9820405197704964
 12.7505251967485780  2.5231557654606771 21.8665146810924860
 16.5596515127516959 11.1103920942628100 33.8830932658679416
  4.2195377154318248  3.6638464869692635 33.7418328591662018
 11.3879457792645962  9.3424474827825783 27.7319745860047711
 24.1008170909393833  2.0423353804504543 27.8544321974791913
  3.9647811020307278  9.8940275003506137 21.8377158311488735
 16.6732792029691552  2.6090805819739633 21.8362797119987455
 19.6850943244515655  9.0302838787804269 34.0885680584341557
  7.6023414478483966  2.1257590344326429 33.6550093656904323
 12.7498714708262728 10.8756395063375351 30.0045311373794306
 25.3242424128664219  3.6589409173738550 30.2191819361333458
  4.1374358470255572 11.1422959705869253 24.2961387754950735
 16.7016453067929369  3.7810073463800093 24.3421520418743249
 20.8977403971303701 11.6944795741544230 35.7934100448238794
  8.0945032578697926  2.9947080668484243 36.3004140447283135
 11.3896737264635277 12.6334481907910359 27.7619021858069743
 24.1463668871932633  5.2541970286746693 27.8658348926700938
  1.2775652884063000 12.5730976134749248 21.3782704267160462
 14.6743563580872767  5.8593349622897293 21.8382327679706769
 19.4064394995391751 13.0249989269843063 33.9765332653265588
  7.3379697629693883  5.7824997165803520 34.3427833051578020
  9.3637532864046857  8.9505446171964067 29.9675637811637330
 21.9738328110015111  1.6545189333441088 30.1470196007623059
  1.3208533730061600  9.3258211926871866 24.6331253650348891
 13.8427632546308956  1.7438920998825549 24.2237699770823944
 17.7439310999414168  9.4317603463130624 36.5546805766798144
  5.6072667127772560  1.2137929275532091 35.1457896257874438
  3.0163576885635695  9.2218192246046922 30.2667409567112813
 15.6522073162894220  1.9220957565715933 30.1353962410300085
 19.9031184584723171  8.9265719711788769 24.3340785010435532
  7.2721827947725233  1.8812110601920904 24.0373477219982661
 10.9235001786386139  8.4013552535252920 35.7908377002104103
 24.6928607616324030  1.8330918692177685 36.1489590717737315
  2.2841782395229422  7.4338244894791794 27.8483532511618606
 14.8623312852915301 14.6395563951874017 27.8574036737979824
 19.1197415891144296  6.0772279565073646 21.8586135426226171
  6.4162252663669141 13.3731243442996952 22.0324446436556052
 10.5609656907706100  6.9912750413101490 33.7232886441276847
 23.0049883642393489  0.0170370327629926 34.0673948152464021
  4.9371192658240961  5.6454583782418828 27.8043501953459931
 17.8021427367874132 12.8970650935963960 27.8649458693606391
 22.9198415666961068  6.1256791908327690 21.8253014230224416
 10.1161645870905232 13.2544423518356105 21.9115198568361009
 14.1052995064656734  5.8534517017703207 33.5400294778713857
  1.4501740816410897 12.9802987914798624 33.7203633352234533
  6.4587513065338200  7.2021576968788024 29.9929224322597747
 19.0474335348136670  0.0061582502654724 30.1794921841201678
 23.1403827012531629  7.4546010132547424 24.1793547725084537
 10.5291637762973647 14.8027571018302968 24.1981841315760953
 14.6837392491235743  7.3116194021619014 36.1308798857328881
  1.6936732394744547 -1.0416016934631760 36.2351198017967064
  4.9776648393088783  8.9793875124380147 27.8348038205746668
 17.6805262636826122  1.6707176412975384 27.8401433126772666
 20.9715557160263053  9.4664348981174733 21.8414132882761933
  8.2366202748203321  1.3976994783240648 21.1721274878493624
 13.3388650174860803  9.6233124210727752 34.1515448612619963
  1.4798834957540101  1.7238637119621052 33.9333260602678450
  2.9645336989329585  5.3862942466432662 30.1490041176950072
 15.6696424263520004 12.5568485571012154 30.0626894051392455
 20.1714700547522945  5.4869952488801035 24.3679412613456421
  7.6311429331869247 12.9565470919721459 24.6360415057126119
 12.7726558256614151  5.1868712941213557 35.8534708816925871
 24.5870920218521292 12.3065221997463770 35.5051985182939021
 -0.5123031257867844 -0.3289150497500542  0.3900988804148587
 12.6308512790032825  7.2574264085996987  0.4567573698290213
 16.7760172112829906 -0.0194606178771026  6.4061456657523026
  4.2161679346630310  7.3394125030935431  6.5430911816109347
  8.4196697865109957 -0.0553003170486053 12.4935307768311894
 20.9983685464798953  7.2832832880731866 12.4592952757001463
 23.1409249921215583 10.9432489034098968  6.3663662003722372
 10.4426642630021558  3.6556846879379710  6.5667633321237151
 14.6959162074257108 10.9123818247870847 12.5186522146989265
  2.1077536212374040  3.6451725559755550 12.4031746506616045
  6.4006139530525488 10.6932949855029609  0.5037363451573679
 18.6470218647841932  3.9248126750691652  0.6268700385230539
  4.1887891820416243  0.0350767829885368  6.2412971430896418
 16.8542003666925666  7.2597004035825217  6.4588511286308101
 20.9739656439633571  0.0315137932370388 12.4355854540716813
  8.4273376831212836  7.2277627031148999 12.5962086522810832
 13.0468134761130212  0.2674901407091230  0.6415508920576446
 -0.0400111305919751  6.9452851384058434  0.6500137994440638
 23.1235761573714313  3.6222152741178175  6.3222304640899685
 10.4938920573087398 10.9093434489665881  6.6039220294772054
 14.6889028176569010  3.6218153799825754 12.5432735156102453
  2.1490222039616143 10.9104456815462179 12.4563687819965079
  6.0996762646994291  3.1566583675024407  0.7310753933204002
 19.1978549623619728 11.2355950585117021  0.6031396739822381
  8.3890144657925347  7.4419827052828698 18.5869989213375852
 20.9472854082410223 -0.0518100578444647 18.5612176063233747
 25.1698558282612552  7.2731027284727263 30.9179754902575574
 12.5179958568574961 14.6018803137222761 30.7942337420338603
 16.8254503858100044  7.2675904878741937 24.6820619762437943
  4.2572386874243104 14.6647848902382538 24.6953976218598186
  6.2211334171692441 10.9604547662895317 30.6605748270411631
 18.9159790362099862  3.6062201955712609 30.8238215220177487
 23.1066233544972484 10.8993815905106928 24.7657681851323161
 10.5490445437636939  3.7251310959531194 24.6560718004922848
 15.0168221474011947 10.7128270185321082 18.6186300712993713
  1.8616986261137085  3.6397182830053390 18.6026016837128303
 12.6049818089077696  7.3687749651269341 30.7110252762555476
 25.1896331753023581 14.5659175816980913 30.8688110069431829
  4.1947995762087151  7.3687549026331514 24.6864684971078425
 16.8269050057996843 -0.0121423086319850 24.6969822330984101
 21.0117299289587152  7.2159901887311966 18.5835306661739068
  7.6349437998924241 -0.4931959175960259 18.6300554569903447
  6.3117606546407110  3.7403330582221810 30.7675488456452975
 18.8535841963515765 10.9037606473541810 30.9230848992913430
 23.0865006212964623  3.6289066372080465 24.7102352517026453
 10.4379686841698653 10.9012701653072135 24.6289588210717092
 14.6281978909309203  3.6334368358721205 18.6093320360351022
  1.7453433863575532 10.8493080283416354 18.6259751490549199
  4.1466161437517473  0.0698798888314611  8.3061900503689365
 16.9794256248402853  7.2466473395701803  8.5206843825067136
 20.9572476927259856 -0.0049685195410983 14.4927461418551200
  8.4118283138432712  7.1842073324850739 14.6639315699512824
 12.5393322918637651 -0.0003563036568636  2.7300706927799112
  0.2695752020463522  7.4112284695368498  2.7641647671561906
 21.8156234094720389  1.7889953190529124 11.7480161719876310
  9.2690029825874625  8.9289347016450655 11.8605200537498607
 13.3128761918317853  2.0415330783418995 17.8165826254393806
  0.6649016543401505  9.3474700240953776 17.6262465931321941
  5.1349060327922258  1.7241345981512373  5.5269838201600869
 17.7772861211678048  8.9311321178596668  5.6869708521067439
 22.0550634910343639  5.6581357954808169 11.7357231789503409
  9.4617662137155829 12.8395463625027908 11.8053548780388642
 13.9431371231360899  5.5660840573519836 17.7459293050015141
  1.2555809539265843 12.7863030568916933 17.6878542342486753
  5.1786397858234308  5.7214970734404460  5.6950041569719740
 17.7165685657336169 12.8229336727181220  5.7269856931781629
  6.4530092451127805 -0.1969721185156329 11.8669150759496578
 19.0481731362415481  7.1329821268023483 11.7983122148732473
 22.9560289083163696 -0.3842946847175094 17.7246155730169690
 10.4057154013464412  7.0352220407918162 17.7821056644792037
 14.8075122018411687 -0.0485148406498570  5.7931729664054972
  2.3071563333845320  7.4275067878140648  5.7977278762933722
  2.0868374976301429  3.6330459088422207  7.9128219394161698
 14.6967161336512024 10.8899567340087948  8.0808241869479538
 18.8929424756212860  3.6716516620384114 14.3175478454080736
  6.3176313177376411 10.7265864309824224 14.1573322608709571
 10.4790292275239150  3.5051857841601199  2.2584650761835054
 23.2218891393469313 10.8839567637754318  1.9517878957778536
 23.1189741446868595  3.5691674982901525  8.4086796307372804
 10.5311936685699159 10.9716312820125452  8.6342784695622630
 14.7041484267070910  3.6447638724855409 14.6025904555762818
  2.1926692617905137 10.9324387789672066 14.5115364014299395
  6.4177757306926093  3.6990457506000931  2.7834055772735655
 19.1388142781299884 10.9091928338958475  2.7522307253660747
  3.0277464403842482 12.6267110487588052 11.7358393182669207
 15.5330581273886938  5.3644287778678006 11.8264498329232097
 19.6342045974142074 12.9375419432963756 17.6996486865116118
  7.1028620562820484  5.8534887647480760 17.8021984440054908
 11.4166268919292389 12.5217471028577059  5.7027331354879349
 24.0830825411220673  5.3493583457920000  5.7327386363978707
  3.1914275966610099  2.0589730924184249 11.6584074738742238
 15.7540211479108017  9.2802964413371658 11.8083729348643942
 20.2532524264102065  1.8829797638386607 17.7428401675065714
  7.7088068370604734  9.2874699302442831 17.6426992935271194
 11.4971613684291842  2.0215083817416200  5.8796674071585420
 24.1239283788004641  9.2605291458065473  5.7031308786975021
  0.1578087471556618  3.5275983466359842 11.7085500967676648
 12.7455577997618246 10.7994848441658355 11.8519145197162477
 16.6462541029298876  3.2718535298752651 17.7651267982517140
  3.8006760809283979 10.5001214289699067 17.7648912980217624
  8.5375033774401299  3.5903417088000449  5.8007431424022160
 21.2115381281154143 10.9160739584509816  5.6742386460059020
 -0.0347283905302833 -0.0016902266571034 14.1647118787600146
 12.6060983451221311  7.2577001967625021 14.3156571852917960
 16.7069048011629064 -0.2097342783917732  1.8348069967889218
  4.2727599090625565  7.5805540046811437  2.2179698869247062
  8.3624459617317761  0.0206383929538181  8.0636504425038993
 21.0550383400526115  7.2586347695079683  7.9697296072304509
 25.2936442660692720 -0.0311114486272550  2.4314526412346797
 12.8017158666420343  7.0448616369794728  2.7882582674546983
 16.8062493515273772  0.0247106381616323  8.4903443118724002
  4.1694670617224272  7.2101788074721496  8.6126463081149041
  8.5321320587553799 -0.0145693292023595 14.5444499838957633
 21.0271212018056843  7.2831938484738785 14.5218334960231079
 21.8460880695051252  9.0257941775912283 11.7456148181541717
  9.2809820015671090  1.6998078061093356 11.8146921128141322
 13.5497235818967283  9.3296405066955241 17.7136207755990611
  0.8420792121331753  2.1276036748287210 17.5416376253913135
  5.2693073728356854  9.0478135949660530  6.0590564469065420
 17.6896918108783332  1.6458710382580817  5.6273764549599292
 22.0543386181004024 12.9644127018442319 11.7024964331326373
  9.4821936081183260  5.5797781562848607 11.9156419340175574
 14.2711242104707452 12.6866548338597713 17.8200733470566810
  1.3920439894326959  5.5709489066787308 17.6531719805260927
  5.2123838848617607 12.9193286869353585  5.5475317034020817
 17.7410045056921355  5.5882952581094951  5.6368170204894508
  2.2731586558285177 -0.0272030043711607  5.4827920782033139
 14.8593504453658500  7.2868313858565790  5.9408508383549297
 19.0264596892119187 -0.0804632917182695 11.7382753065185064
  6.4686987963967990  7.0559103056806283 11.9143570532092458
 10.9883349181356653 -0.6730210766280105 18.1833842237558017
 23.0137931131989504  6.8694620653845391 17.7358460962936171
  2.1125506039972679 10.9674028524086768  8.0012078269734097
 14.7015026217643996  3.6267675180956944  8.0883257304233087
 18.9141766323329286 10.9041363821347481 14.1818153174810480
  6.2309972142720538  3.5456013253543928 14.3236403196373470
 10.2803192950719442 10.4991927412095105  2.1981497128728829
 23.4756292176756993  3.9011229372520080  1.8555364187369616
 23.1676131315434723 10.9475668950279292  8.4538641340669045
 10.4651175190352479  3.6674853505940694  8.6437329318542062
 14.7311339156848007 10.9353210762645183 14.5683672790356571
  2.0894647478289583  3.6598832927049125 14.4555514778362699
  6.4537909320203593 10.7114409506526655  2.7851609193894262
 19.0433562953917637  3.4969617453413271  2.6780561047153233
 24.0972377774258604 12.6136192304475614  5.6393063677886035
 11.4019369315881072  5.3703365217971779  5.9018190715323016
 15.5720601276817163 12.6542161567393734 11.8055278134488013
  2.9801137093751393  5.4055633346640448 11.7398627468892549
  6.8385582698999485 12.6611997673119703 17.4562693094969781
 19.6835487266499776  5.6548178428090985 17.7506807092779866
 24.1094146189745260  1.9877238695030832  5.5632193066962863
 11.4232214154729181  9.1603554653997694  5.9646578199939411
 15.7782851731186717  1.9995834234999519 11.8564823764895273
  3.1631558456677031  9.2445403332711980 11.7548309687933585
  8.5070364019071665  1.3115414573343624 17.6625160289848324
 20.3020168002605885  9.1236394938448768 17.7477201027172455
  0.1829729764285427 10.7909470327155361 11.7956927237832474
 12.7454359241329733  3.4439893912886252 11.8677906647188021
 16.8261437472128144 10.5946750301224295 17.5454726308629354
  3.9968981436771598  3.3049237929029429 17.7488473854376423
  8.5132439584962007 10.8351545096725630  5.9907511736822263
 21.2002995930575970  3.6462538037110117  5.6031165756758341
 20.9905595779151213 -0.0004561274832220  7.9068124997965485
  8.2435138956356866  7.0306267427832028  8.0517856197626223
 12.6348490507455935 -0.0271295459543806 14.3902075960068210
 25.1678104367075761  7.2480425521339722 14.1684064521520607
  4.3876076342619195 -0.0196377696050167  1.6012302691562019
 16.5471895763631842  7.2225243951123685  1.9478298551241822
 12.6125609456507437  7.4372230149928944 28.6228501254042556
 25.1513649225616085 14.5785759549174205 28.7800055869584490
  4.2108628836194848  7.3772212333393794 22.6606255178203746
 16.7945181993698007 14.5123080313092974 22.6450924186819194
 21.2563332813396428  6.8321503069627800 35.3334830661162940
  7.7523530718870983  0.1544140326158904 35.1375258945017137
  5.2577346853248317  5.7572280938030493 25.4427157828877526
 17.9179989889809832 12.9205522299599860 25.4250008946170816
 22.3835559723371489  5.7213069491159105 19.4096401133707310
  9.5298195540464352 13.2894242964819469 19.4640971574777986
 13.5699199574613178  5.6328183938862662 31.2502186897058465
  1.0021697751409375 12.8475342257251306 31.4212010279352718
  5.1857233346722236  1.8213277562755332 25.4357473020419107
 17.7007605589300994  9.0060119509819749 25.4057822224149952
 21.5352038912954669  1.8701435580476840 19.4422854198516255
  8.9614405475554690  9.4119637834667085 19.3631067361726110
 13.5333625901196193  1.7181835177303333 31.4878504474567897
  0.8957920110333417  8.9676712757866230 31.6477794671266928
 14.8788097026931556  7.1641624806193356 25.3718387012189446
  2.3138877725059790 14.5602905058379282 25.4589414136875867
  6.4055886014429477  7.0078823092818929 19.4452897201298853
 18.9615772576440058 14.0362152134297116 19.3900651840405160
 23.1716723863349863  7.2418872781356862 31.4210733538575475
 10.5855307148482680  0.0364975136456054 31.5151941248984961
 10.4791856783785722  3.6958606058306565 29.1563614366910286
 23.0787289497584460 10.9052359877777256 29.2598188805834027
  2.0820552344476511  3.6785797832350604 23.1038240813424736
 14.7112752418985480 10.9327332416010723 23.1198723447776366
 18.8391492077334561  3.6280597175580134 34.7938364384630390
  6.3335069917449296 10.8921001772693344 34.6298539728344466
  6.3021020406587267  3.7914676062771977 28.6836996220527993