Cl48Li286P48S240 E=-2534.838818 eV
 1.0000000000000000
    25.1819793006824639    0.0000000000000000    0.0000000000000015
    -0.0000000000000009   14.5388225279766061    0.0000000000000009
     0.0000000000000000    0.0000000000000000   37.2126966544236950
 Li  P   S   Cl 
 286  48 240  48
Cartesian
  1.0717182814922095  1.7244713770770332  6.9379284403548755
 13.6362905083536905  8.9333560456532446  7.0029661595256849
 17.9022833930298546  2.2840275489414483 12.7460746725268361
  5.1875645186946580  9.4212330561553603 12.8217163391065281
  9.8189636803652434  1.7497552527229125  0.7054129552357683
 22.4208767244602853  8.9848917050905008  0.7385324711507699
  0.0724205612343164  3.9041317630890076  9.2186891086017138
 12.7210942254891339 11.0041388003084784  9.2306822494694067
 16.7749023462958640  4.7935077952086065 15.3461964449036170
  4.1619003178767890 12.1147349212685764 15.1754806774534696
  8.7425903590400527  4.2814428218667704  3.1565717216140690
 21.3104071851249657 11.5427200725302210  3.2648027472219194
  2.4880361228079475  5.6386016793606792  9.2649350290600356
 15.0748382105654599 12.9611091927787214  9.2205966595976872
 20.7405658964140542  5.1714088578149209 15.3263713139071474
  8.1618979215688121 12.3822091445609317 15.2078111321049931
 11.9229558632987498  5.3802846828926043  3.0912464953306658
 24.5410126817132053 12.5924426802044085  3.2419988121656029
  4.4070479392069482  3.5395331773276006  7.2658596812791183
 16.9471562925398516 10.9140789011970440  7.0584093831645074
 20.9953065725955597  3.6349749242982101 13.0296249125579564
  8.3774768800081603 10.7830186222152378 13.0011863476342171
 12.6553489494930034  2.8513797574156579  0.8021712608242573
 25.2320539261480121 10.1192093903735465  0.9071164374962020
  2.4429971981926379  1.7475248014772968  9.3695557711627497
 15.6144506407136490  9.4230153102686618  9.3902568271517914
 18.6368290213020344  2.2347202643543280 15.7451122209546650
  6.0341945367612180  9.5234311348145120 15.7516226068086205
 11.2105617485787050  2.2279324423346205  3.4330125743526820
 23.7310052680138561  9.4183587668289803  3.5226576746915903
  1.0244955919616672  5.4862463703181614  6.7903428811245314
 13.6149224920987990 12.7888496183574887  6.7634149351232020
 17.8786918764037743  5.8865085937294905 13.0257622735684482
  5.2860098684511785 13.0832651987691246 12.9233655988526923
 10.1255246917308614  6.1364221573678979  0.6383607741396888
 22.7123810412928577 13.3757113617868750  0.9091523390953719
 24.1154187487042648 13.1955835894952891 12.7698271490829480
 11.5311931408210704  5.8460163796061471 12.8201193964998108
 16.1077146250460395 12.6529249099930414  0.6568747285304847
  3.5433832424592033  5.3007630720040924  0.6550070464400903
  7.3953979051563108 12.5986487249139252  6.9799179737447234
 19.8682730118569353  5.3717786329911128  6.9392021970634437
 23.0852454868273718  1.1559827846720656 15.3802890214926986
 10.4644893971882595  8.4368148661628783 15.3089699950221885
 15.0089733062243784  0.6087915899559903  3.1641712056934623
  2.3766447978123328  7.8464338008170493  3.1746971565610198
  6.4901654166998526  0.2418930576154200  9.2252624362698352
 18.9818577321771436  7.5784588234430688  9.1980288958211620
  1.9241764657204907  1.5002355421173386 15.2584430075404871
 14.4550685094604550  8.7654286619515851 15.2782171632927017
 18.2178813374850712  1.6767548185777932  3.1646403890388597
  5.6067217935723299  8.9368406292383256  3.1658075049415357
  8.8188267140199663  2.0702581379002503  9.2266922022031501
 21.3184149925043158  9.3232186238749435  9.2603859792324030
  2.0955638466306881 -0.0860137237861835 13.0216684123832795
 14.6666845460350874  7.2221929549090964 13.0246158911522176
 18.9333323970313927 -0.7645223759918355  0.8452381327298686
  6.3562883038342513  6.5000199741474285  0.8484349676448545
 10.7579751673158022  0.0170348767796521  7.1407272431891800
 23.2737104023281205  7.2605340463500170  7.2438864943124148
 -0.3960178935789717 12.9871795042400215 15.6629048292449404
 12.2527168117192904  5.8984934993991551 15.8002777035712949
 17.4506715975375677 13.0806757590505960  3.4310656662668961
  4.8453870309345657  5.7563990273925318  3.4545879357170501
  9.2472702492319456 12.9979554260653991  9.3846264579926419
 21.5116302146214231  5.5698989221500943  9.3753897505253736
 24.2103795038977303  2.1964669081316055 13.0219713649184676
 11.5498397538797146  9.4601502154563413 12.9724804437754546
 16.4432841426222929  2.5070318524834962  0.7186129890079612
  3.8444401644525552  9.7314030816966319  0.8148936077977603
  7.3723465126519496  1.8809916693944226  6.7517756556091291
 19.8945244625140631  9.1534228380878506  6.7573087350649814
  1.0887411650235093  8.9468347575720824  7.0038821462606027
 13.6915891839245454  1.6655307690075725  7.0081809694209714
 17.7956610119367973  9.4929182701952790 12.8384261197182976
  5.2318348756578459  2.2288536715344880 12.7856524583595093
  9.7710700236983197  9.0487395000900346  0.5395840079754667
 22.4102861085190916  1.6795148473337980  0.7495729239690331
  0.1218970168669353 10.9672706789405154  9.2751886695286547
 12.7874096710271079  4.1155035070795734  9.2302337610358123
 16.7179528314894199 12.1231684493665046 15.2980846326928930
  4.1926199313807624  4.7547796052791416 15.3218630251540269
  8.7005084969845470 11.5794329490591856  3.1154128500047085
 21.2861981886122358  4.1677230263716440  3.2814043711090313
  2.5288444884773869 12.9534639957925570  9.2913554373551666
 15.6211094453923796  5.3922136199541288  9.2685778547301858
 20.6961516242171726 12.4260980665397263 15.2946775065409035
  8.1766076327339849  5.1169428474982732 15.2578525278366079
 11.8902452358488713 12.6324320730035033  3.0857258333137452
 24.4577157953930957  5.3125854427188459  3.2778309272766424
  4.4050507801715941 10.9170458128188042  7.1304978982543732
 16.9929353943377457  3.6244929846697587  7.0380513521532695
 20.9508383804639777 10.8460716494973113 13.0540540176979754
  8.3975285169711746  3.5426638645558368 13.0101326454736927
 12.6358234482994742 10.1313484749600047  0.8058149117242469
 25.2538029202676313  2.8821118939265373  0.8983007104598230
  2.9222352514573151  9.3452836682909233  9.4170616814995114
 15.5067177269506047  2.0453220385820394  9.3650342465122076
 18.4452816011941607  9.5558230566891069 15.8125443505422929
  6.0591683178729543  2.2886342918623042 15.8044984237037038
 11.1007472600027377  9.4517697797954003  3.3626060792281871
 23.7965070355729722  2.1145679405758586  3.4490025684838592
  1.0767917985689430 12.8634633354271699  6.8876134600851175
 13.6575639043751860  5.5963391290176547  6.8194728113292973
 17.8734506828271194 13.1493878146424059 12.9586956211054307
  5.2681006399990071  5.8152208910052545 12.9685986137901264
 10.1087303842984184 13.3889090275727565  0.6187027990239901
 22.6930175771804272  6.1029151821080845  0.9430242395699039
 19.7947093831233154 12.6697386250422603  7.1700415747914636
  7.3960014642801006  5.2971530711363357  6.9735020055762398
 11.5473014626108306 13.1562909972200242 12.7723614548072497
 24.0699432403582030  5.7603688612551300 12.8587877769547454
  3.4880453269538849 12.6275526568246548  0.6007854320080261
 16.0372299428975893  5.4237418481924529  0.4348865962763726
  6.4327481579492414  7.4196278427103337  9.2059394346492436
 10.4892132215678622  1.1618541934629405 15.3112535974311896
 23.0222920268536235  8.4595319516879908 15.3325026975121723
  2.4649386824145694  0.6730454346372865  3.1936127031314094
 15.0175019020847085  7.9473476559168006  3.1153271725157050
 21.3507432349055364  1.7785574328577725  9.4131076242309604
  8.7591701361178416  9.3202085289786876  9.2155483125219160
 14.4890234712031578  1.4873038557229106 15.2760409729895201
  1.7510394336286970  8.6755449547096823 15.2302979540236620
  5.6652830138703614  1.6781571872566785  3.1317014486215795
 18.2068014436783301  8.9757631955198054  3.0550602025050533
 22.9130039334446458  0.0343209120252722  6.7223861050278586
 10.7070288908873170  7.3055707078725529  7.0860512390661539
 14.7050738077579961 -0.0487862474095639 13.0096375764979193
  2.0317021265937227  7.1111749680362726 13.0347148813772211
  6.3574228561491442 -0.8058210963147598  0.8337751606946396
 18.9417449608292827  6.5009003401143541  0.8222344301975334
 21.6896730990734419 13.1026791842202570  9.4851663549243348
  9.2790325070935129  5.7661769147789297  9.3635123269250435
 12.3438689608299406 13.1709331064627655 15.7810317458870362
 -0.5705917593626803  5.8032279502676820 15.7952762181113471
  4.8323600022312370 13.0290394567490164  3.4098477831200147
 17.3876638958888350  5.7802386187300492  3.3101303292231448
 19.7034762273403459  1.8527072333851962  7.0451836194026729
  7.3393004892895313  9.1680457676127727  6.7490050696155874
 11.5840735604169431  2.2014227902120753 12.9606100574014285
 24.1103410426489546  9.4365911629435573 12.9826423976410688
  3.8662644943936031  2.4622841467051355  0.7454653324407353
 16.4159612288893406  9.7809697294413294  0.6021309854509260
  5.1272213525123647  1.9394146782575630 30.0554530587502668
 17.7435252912979955  9.2627339544740650 30.0081331548204311
 21.8610146351043824  1.8629693620713130 23.8081363565509783
  9.3563284019762563  9.0580031363400781 24.0196015213562006
 12.6313881199922378  1.1055125355335951 35.7143645597535837
  0.0651629802699701  8.4357064596189577 35.7939560612663286
  4.5664646099925497 14.4992836823808116 27.7502721159769337
 17.1443878754604953  7.1886893194095869 27.7650963529145258
 21.7875274586164274 13.3596668017049716 21.6227154443197271
  8.9770733743048847  6.1466302368049943 21.6891276755147508
 12.7050008025599830 13.8571758696053156 33.6334070911149823
  0.1009901492310063  6.7260558694078956 33.6620977033097617
  7.8048353752495929 13.0757128079854859 28.0057002612194452
 20.4332448113318179  5.8542412199616738 28.0320018144216334
 24.7222430216297617 13.0889100289484013 22.0062500492308004
 11.9387686074715873  5.6803723112599105 21.9423056387325950
 15.7824646154548098 12.4147983213777291 34.1240582742519649
  3.2067764021768452  5.1971216122389174 34.1432692178960977
  8.4351979147720400 -0.0396026006026686 30.4096947106133868
 20.9893977292399612  7.2890801397794993 30.4618613036351888
 25.1881007402002304 14.5547804906969365 24.5827782706861235
 12.7679260673037689  7.3226014751824069 24.2864533683489405
 16.6200297100432337 15.0120852976753376 36.2226485236864661
  4.0062983263306799  7.6764123959768860 36.3017699915802154
  7.8024047943591253  1.3721949981009751 27.9528833281910103
 20.3875442527569355  8.6692172864302091 27.9509749649922341
 24.7373474678079717  1.3281950376194207 22.0616320005034154
 11.7358980953369354  8.7504428192322834 21.8179551356005348
 15.5523863620473435  1.6297346148198530 33.9512374650381759
  3.0050275714717896  8.9199118760859051 33.9957901488743417
  5.1054034850646639 12.6447823746523067 30.1296759644150107
 17.7420758001385650  5.3134162117605390 30.0829340776822036
 22.0979993011263325 12.7549757667296628 24.4224501012195567
  9.5601450643432635  5.6463469188109050 24.6229742949637114
 12.7959965906846218 13.0331629013951940 36.2929764991956461
  0.1383753826246400  5.8462357468869204 36.2829993478087545
  3.0144241972159764  5.5253937531847264 23.8417278717684127
 15.6372725814774824 12.7785695282417340 23.8545788385159874
 18.9653176078435806  4.7803532197788741 35.7603964217289771
  6.3959648756246326 12.0410685512684505 35.7311927687444566
 11.5016192822781225  5.5887430164568901 30.1690052495821988
 23.9990683066149266 12.8811194571796559 30.0621013108430297
  2.8434369899753595  2.5872234572258810 21.6068732831049246
 15.3707813281889560  9.7328688428541366 21.6546788536276260
 19.0034189337543715  3.0046526115303203 33.7008845362857770
  6.3848967880661576 10.2990453715043540 33.6191939600047149
 10.8025400553873734  3.5360223234441848 27.7807362806972620
 23.4427405687062773 10.8839815726120932 27.7507007112322022
  5.8248281653773963  2.2216925159161320 21.9652908519986205
 18.3169001951278574  9.3308149428572804 21.9801078567234356
 22.1402034170447237  1.5644678719315850 34.1872329958644912
  9.5056117721748041  8.7419689101049993 34.0618248630795790
 14.2565584606727729  2.4499225162331251 27.9265728575651089
  1.5385837656268906  9.5181145261764470 28.0413517048895322
  6.3822800857599722  3.7190731798257652 24.4403946305094877
 18.9786448033075565 10.9123363675294165 24.4467081782915514
 22.8932524160431896  4.0567629013490096 36.3609347632366351
 10.3619284160302723 11.4175496179607521 36.1061876536487105
 14.7824501226875675  3.7317357477707929 30.3101608856092817
  2.0541458661851242 10.9562207831812426 30.4760148113722309
  5.7710588089217332  5.0217566518129049 21.9578570951731074
 18.4050982507503811 12.2580895887386951 21.9717380191420659
 21.9058476343761015  5.2998264799449126 34.0280210859286996
  9.2617466416925875 12.4622867714329946 33.8708623017407362
 13.1604179072434970  5.6259558136122001 27.8915319334906080
  1.5227043650936627 12.3240895768296692 27.9690763762810768
  3.2671737224742605  1.9308825416084918 24.4614759533859889
 15.8312225149472727  9.0782953829377728 24.3845733180982371
 19.0735022567523522  2.1566160762842821 36.3165140185086841
  6.4510500236583059  9.4379196289922707 36.2405545578481068
 11.4877865876825211  1.8101014298072822 30.1803120283102366
 24.0071598627791758  9.0200860935876470 30.1383133012348914
  4.9487034851438896  9.1986998137728726 30.0226578938947561
 17.6870321592972317  1.9367649234846704 30.0610909844696614
 21.8647028396639094  9.1334836945687137 23.8098789484140028
  9.3480236133587233  1.8056072198072075 24.0165290217255780
 12.6687070217539741  8.3682652170464813 35.7478582468691357
  0.0795147406468991  1.1502214507608013 35.8377379763818951
  4.5769948452429459  6.9120679116427608 27.6487688276739121
 17.1367236917726089 14.4440165751034311 27.7979837352967571
 21.7006605505330725  6.1171481034855377 21.6549780519827735
  9.0995091045408873 13.4578737273858398 21.6082162679759300
 12.7514595689774328  6.5169346849456726 33.7528259780882536
  0.1125634644770737 13.9601891825414395 33.7191049875422308
 20.2646667124106443 13.0533984888862395 28.0429114075120616
 24.6584523794957029  5.7600608223648537 21.9523599654753347
 12.0703083265311246 13.0206075371464198 21.9609812944138909
 15.8441459556811353  5.1429344342071550 34.1264110108980248
  3.2347065276366638 12.4805993768995798 34.1502325789262926
  8.0513641788955184  7.1010815803712237 30.5157699920674226
 21.0304537772821476 14.5666344816416071 30.4439772981144081
 25.2605288000833959  7.3041260455881041 24.4522437968912030
 12.7061971424083087 14.5738533936080863 24.3995062748427856
 16.7002201713800567  7.7797563640763645 36.1818252765690715
  4.0654315920902189 14.9881523322646437 36.2562704469134047
  7.3965409693794220  8.5771395027569852 27.8022138453707228
 20.3187250200934635  1.4177832425375998 27.9619072066298067
 24.6797557147955011  8.6205297788780939 21.9719563950930379
 11.8777929398757554  1.4369430615058743 21.8874538814644310
 15.5453776907799615  8.8699132981164777 33.9771336774331800
  2.9702148563095911  1.6537345712320222 34.0215169401489206
  5.1494810290340061  5.3306706038996650 30.0950513525940764
 17.6899839225712938 12.6244504223096907 30.1477738978983965
 22.1646822714459972  5.5599120651743199 24.4976634148490859
  9.5105240668116497 12.7553473071061205 24.4013390533681758
 12.7969324620723039  5.7482382985515228 36.3731327673305458
  0.1593023706440437 13.1070508337615461 36.3472039758868135
 23.9216425226721014  5.5315564333485181 30.0360409581487744
 11.4598497882982517 12.8110770143300687 30.0220078353733015
 15.6434389970048837  5.5283023206223332 23.8148261185436816
  2.9811813303857742 12.8864438791431724 23.8231854350173720
  6.3800091372307302  4.7725130593885208 35.7636776629183117
 18.9323749312031175 12.0371314537333642 35.7745651011327510
 23.4549838512322317  3.3302400759598556 27.7382842489244368
 10.8028435624105832 10.9773366892694568 27.7482967675483252
 15.4228672828820610  2.4358174522260301 21.6151851207298691
  2.5322647326581147  9.8246314017764309 21.9097568720273728
  6.3872451706002771  3.0108621455415845 33.6810396759888135
 18.9941772884383724 10.2366378148794848 33.7160308887241342
  1.6095920234152421  2.2963879530613993 28.0111871564940103
 13.1100375799275266  8.8638320016198744 27.9666615608744387
 18.3873280790004863  2.1037540839269222 21.9876645383299767
  5.6738172707672003  9.4560082071445759 21.9107175765335107
  9.4893478877805446  1.4832837779598764 34.1319421405200458
 22.1331715261510347  8.8499059800904778 34.1729362117298692
  2.1187055810800501  3.6697889394582210 30.4186933223053373
 14.7810873960649509 10.8170933069598441 30.2894210751240358
 18.9263205396953715  3.6288978264774459 24.5009996986068117
  6.3203604755009355 10.9813632375819132 24.3975235691237664
 10.3448961594950166  4.0954624300618034 36.1905183387012528
 22.9043215206574224 11.3634974198698515 36.3235490176977791
  1.2289405421288135  5.1765464161026706 27.9273660079443253
 14.2340564709526909 12.0427112331532644 27.8322622920515137
 18.4432907412717064  4.9553513617352953 22.0026246499579017
  5.8497984746206404 12.3418350061694486 21.9975746725274988
  9.3020260210143260  5.2180366402419098 33.9121537819521564
 21.8859711876078578 12.5775147547999300 34.0222277669748365
 24.0243938214856847  1.7161693611231881 30.1583792610020360
 11.4632250104201834  8.9733124187449302 30.2099036353165253
 15.7950444905462799  1.8386732881292192 24.3902341100281213
  3.3172093300009227  9.2965704816673025 24.5530183690534081
  6.5034638812583330  2.1613000408678609 36.3118812548805181
 19.1194564462442145  9.4223659024046356 36.3609548730065484
 -0.5113683768528542  0.3021878310986527  0.9168498061163405
 12.1457697100537612  7.5518298540699993  0.8376707034678291
 16.7265927900078282  0.0563630030822840  6.3595082989773157
  4.1959859614044408  7.3073500619969058  6.3527844397420212
  8.3405623647051570  0.1746648963635604 12.3766072626234109
 20.9028907776234441  7.4729374686001497 12.3724319904495879
 23.0748333334256550 11.0046109490887254  6.4428619556798807
 10.5440381106854826  3.7151614816457514  6.3210682809806453
 14.6037269628600281 11.1008959603383310 12.3764987668742403
  2.0567692950331034  3.7905062858248186 12.3626732238654995
  5.8460181074747259 11.1657032005342991  0.8123826372886270
 18.4750750563114288  3.9159859185518289  0.8453999765248003
  4.2517877283870220  0.0553242682584809  6.3434213050697137
 16.7659010666673609  7.3586415809660819  6.2620114577576977
 20.8857178557507233  0.2242955644874275 12.4970782556030269
  8.3284579979978091  7.4420511492736212 12.3562885819177417
 12.1281125451497065  0.2713985000113882  0.8040385581446484
 -0.5031933975492791  7.5480395972911989  0.8773207296826662
 23.0121075933882935  3.6694936386185617  6.4153533267767724
 10.4966265050803713 10.9887227947795374  6.2887301860905893
 14.6517437980940777  3.8332975226730528 12.3977230074636200
  1.9988815859687936 11.0541271187925609 12.3977290301918810
  5.8828088971118593  3.9033284699304835  0.8581607119678701
 18.4541677416948566 11.1840943838917823  0.8740972190767831
  3.9997001631701519  3.1260076475884366 18.9274073031825658
 16.6561436652328076 10.5131415509731667 18.9548092810488704
 21.0478307007416170  3.5998924188960388 30.9005991708675154
  8.3942579343170820 10.7602628764697315 30.7543984893283806
 12.6826090979591530  3.6185512164331892 24.7845520229414014
 25.3329095289101431 10.8749265905567185 24.8266548692374514
  2.1058266959241929  7.2378296280430927 30.8452595378201515
 14.7119787746163251 14.4986594380607592 30.8191551563738102
 19.0363821599520904  7.2234125066428874 24.8271183745001700
  6.4049969062949792 14.5430231979976021 24.8005027159344813
 10.3312028001101677  6.8322445834615015 18.9133723388172470
 23.0335232957869565 13.9674317758802840 18.9992865238881876
  8.4649649294151956  3.5549549653600159 30.8039013641843802
 21.0534632902027603 10.8892528193558817 30.9039082653005011
 25.3129982582560729  3.6198211553408801 24.8020413002222568
 12.6907625227608918 10.8411355437795454 24.7681671066877946
 16.6429416592997725  3.1097899541949530 18.9336433578090180
  3.9808720733106999 10.7231979910337074 18.8302537421841372
  2.1601382102442432 -0.0000012656522904 30.8872290072233682
 14.8017201614655320  7.2424426573015950 30.9031938005405600
 19.0116165541832700 14.4990906540519191 24.8361900677120708
  6.3781953892653149  7.2581450519051236 24.7028498949168203
 10.4084634206446118 14.0858758518552634 18.9206513879346119
 22.8136255840549076  6.8167965856754114 18.9660793644703460
  4.2216242351649278  0.1464841467270446  8.3962955720797829
 16.6925478686715287  7.4235653744421688  8.3335372071226388
 20.8597744057849077  0.2962390200800354 14.5547889776401504
  8.2615699712958506  7.5248367135120695 14.3949018690334931
 12.6285449057951009  0.4013638226613009  2.8426051633589129
 -0.0008576457063635  7.6025839514562037  2.9352116773993338
 22.0233322306822821  1.7985306002222312 11.7543106012677914
  9.3907690387521008  9.0370081533476174 11.5829516902066629
 13.8024066505858887  0.4657753593632534 18.3014795606240668
  0.9790350749640754  7.9501723983539803 18.3510228443461045
  5.1977059604408522  1.7159025129202057  5.5570742089266378
 17.7324197923464872  9.0127127100857312  5.4991104477992083
 21.8135192301979224  5.7137068506871964 11.7551540286124876
  9.2446506298023223 12.9437390636548511 11.7791008086949329
 13.8666169994910540  5.9423843817353674 17.7743144408201132
  1.4328902226427802 12.9199071876773868 18.0678523832048548
  5.1694852749880953  5.5860944359519964  5.8039174350711047
 17.7312253017134935 12.8921532007249269  5.7598898412592883
  6.4037480864979779  0.2849887904695327 11.6300924950658260
 18.9633690227571208  7.5758630988709674 11.6248685481355363
 22.9026631747493852 -0.7642938952576113 16.9907518454673934
 10.1050730636431094  6.5661071092241974 16.9168630353285110
 14.8468840230438754  0.0011691217118688  5.4833345481256996
  2.3022791657970210  7.2677318336916041  5.5325006369922516
  2.0641858071327763  3.6595714635526555  7.9576805645265836
 14.6644259637755674 10.9423146035389607  7.9122492304539183
 18.8604569999730032  4.0056680663032269 14.1615951748053224
  6.2329262631939191 11.2021789464657839 14.0923120339689678
 10.5633503270705909  3.8739707359925393  1.6279254684061264
 23.1375732370341325 11.1124886308525515  1.7567508838779531
 22.9299283644089016  3.7114238506149793  8.4730335014739886
 10.4201227993956582 11.0466334007297604  8.3566024141663195
 14.5798941153109585  3.8959090391996001 14.4345830431744844
  1.9361191354656515 11.1189717303888713 14.4392183218689922
  6.3695456862107545  3.9938980507295385  2.9072308292485838
 18.9474807210465919 11.2863468937649909  2.9128332587084955
  3.0919408713791738 12.6409388059503947 11.6523350391230061
 15.7212246072709085  5.4510629833113740 11.6712352688634642
 20.0541981811536481 11.4863774186872938 18.4080433123861411
  7.3249621058434302  4.2445816739633768 18.3115862470758017
 11.4548575169755669 12.6497136024375383  5.5294250143407071
 23.9742686357043659  5.3461320288602430  5.6703490661860645
  2.9572285612274776  2.0289758611181705 11.7471144500938109
 15.5164268371293304  9.3334984783539543 11.7809742201190595
 20.2052272604884493  2.4464925211207986 17.7640700271821004
  7.4618010154676107  9.6217745131641514 17.9204324334350353
 11.5301517812083123  2.0018293985682809  5.7642920095979315
 24.0533753622526945  9.2846477682972939  5.8683303428194495
  0.1155881569442167  3.8970778199226288 11.6299560108058575
 12.6628773752764197 11.1906774275861132 11.6311178668372328
 16.5145224850757231  2.8715482490140172 16.9229267543701987
  3.8236923491490957 10.3767160861573782 16.8767855710858257
  8.6488826673939165  3.6526961322045097  5.5007611884753755
 21.1907948714876504 10.9988855393083611  5.6163927704110286
 -0.0187781074431664  0.3002314534529729 14.1905990909950130
 12.5318608413928079  7.5962088363620968 14.1523512566703413
 16.8307137707609726  0.2291302017011788  1.6416138000994180
  4.2313650508184866  7.4511186993734135  1.6807347906415220
  8.4342395901755811  0.0586502169360808  7.9107834465803739
 20.9451046744167719  7.3224129324525746  7.9221910538277305
 25.2978909703714407  0.3266436135290799  2.9411562130581075
 12.6383486327998540  7.6821596447354592  2.8754040050824909
 16.6988096825682888  0.1367527628392128  8.3853680455609911
  4.1175998651495220  7.4026439386432594  8.4159475073231391
  8.2816542831972040  0.2483733354032541 14.4156959637872930
 20.8379089912048983  7.5447751468668951 14.4092821123030088
 21.9547787865724722  9.0857046748404819 11.6234913500735182
  9.4068398441864431  1.7685978400456590 11.6082172863404427
 13.7603762837460799  7.7990835793204667 18.3731419685374036
  1.3175192065176815  0.3337884975225937 18.5302953203096656
  5.1556649861967987  8.9655712437352175  5.5784462068493621
 17.7013135468707148  1.7039179185235771  5.5574370204777601
 21.8203549672352750 12.9944147459245141 11.8970959804397669
  9.2468825318579171  5.6797214121068613 11.7606975835213099
 13.9058993288747956 13.1028556062481876 17.8557093044600599
  1.1724940531729744  6.1271206688792130 17.6886899810506399
  5.2266577644599108 12.8823877748376425  5.7451993238336216
 17.7312571916268347  5.6558830055967979  5.6548320490280766
  2.3518646466005895  0.0114279043805133  5.5340158028775086
 14.8621932123731835  7.3326202816853865  5.4749044169454555
 19.0281374448468910  0.3413031911840639 11.6724753301281012
  6.3887522711096505  7.5325459525565366 11.6124471679576420
 10.1989942946593004 -0.7313391522368777 16.9227968898851522
 22.5972715376619959  6.6048915026330244 16.9550117990954234
  2.0924593134201088 10.9540084053727895  7.9596250932502031
 14.7109784890002615  3.7021011171884783  7.9102399108944850
 18.8001035564779819 11.2475674174140643 14.1651329987393968
  6.2629561211368019  3.9568838878180874 14.1299360842178228
 10.5287026571414728 11.1375937027994727  1.5911854937231289
 23.1209386291582994  3.8325138898316995  1.7523072257836652
 22.9826261840041077 11.0894054805223767  8.5003258726072008
 10.4711399919515955  3.8060490177507198  8.3848703485153493
 14.5272712950313689 11.1711382955819385 14.4169564141357647
  2.0107312892741618  3.8710889715818233 14.3999190264112933
  6.3305277359333996 11.2302971433541092  2.8646579103533352
 18.9229429174404586  3.9835984492248588  2.8959639346357915
 24.0958771723700451 12.6405476815074671  5.6729303828685076
 11.5018838353774324  5.3581211911331650  5.5279288700044935
 15.6654702335396792 12.6921983458917964 11.6071140365001568
  3.1156743942187610  5.4038073209433479 11.6161144118250270
  7.2907524276421150 11.5588800065576631 18.1621921595706439
 19.9984642180622991  4.2597002260393264 18.4471961101408795
 24.0624049263432163  1.9996978105566263  5.7911451837427110
 11.4857653910982673  9.2910794231838914  5.7003461415606473
 15.5757122081638784  2.0893224239638646 11.7730754864942355
  2.8882409813970713  9.2775603824780397 11.8024326408134836
  7.5580075930139223  2.3617582630767009 17.8376250686021010
 20.1391131660985252  9.6610602948381121 17.7256280118891532
  0.0652480289304585 11.1860013381063848 11.6607303147368562
 12.7172857446900220  3.9425792072272188 11.6417755784634203
 16.3666480045693241 10.2784252699820140 16.9622974571001564
  3.9113266229829069  2.8315852092119003 16.9170444212648832
  8.6015336239696385 10.9451813243556426  5.4730124848055572
 21.1276287458099361  3.5843957544614065  5.6064396876477876
 20.9620727916769169  0.0504815252889150  7.8994124867038815
  8.3822481938782847  7.3228932629159491  7.8850354696196776
 12.5564355588754228  0.3352518524040958 14.1328039479454759
 25.0636124106602800  7.5361630823633998 14.1520683555400630
  4.2693842795746111  0.1955498647768558  1.6528837136872907
 16.8260169713592838  7.4979456565908693  1.5749777806843603
  8.5393350761301239  3.5667395935560737 28.7775984970698779
 21.1566672037005752 10.8795016642847582 28.8350079833753234
 25.4860699236094632  3.5816001382519826 22.7592364267522704
 12.8211150277902135 10.7985201737396626 22.7151638818289321
 17.0153307812301158  3.1709686971815860 35.1840342092946230
  4.4495357278261425 10.5200801037668743 35.1199834444015693
  1.0788262808816791  1.9791154212689339 25.6388582203871316
 13.6473348752866350  9.2110020442611180 25.5985884035973612
 17.1830236513764945  1.4446106279723734 19.9180067633177202
  4.0398844581694462  9.0977837929464833 19.9819849505443941
  9.4220784154997936  1.9023367377009237 31.6359552147872591
 21.9953028522466418  9.2158534500586278 31.6708839630081584
  1.0945107333551867 12.5602817290314999 25.5489624510854476
 13.6357366095027039  5.3133484335155075 25.4713752768317043
 18.1397185649136645 12.0595458501756614 19.2693947721511272
  5.4527461908122659  4.7090620663004250 19.2881802740423716
  9.3929024600988509 12.4143649590399701 31.4884220230208456
 21.9685859209210967  5.2983699623602210 31.6253759938440133
 10.6867675021447237  3.5880983467886858 25.3689191719024763
 23.3356671289722968 10.8183210199774393 25.3575446531505904
  2.3789145173870958  4.0438325178434020 19.6715606945796821
 15.1394049081063802 11.5101598688484437 19.8540763875869288
 19.0508849925791388  3.6078127249594090 31.4213667182280005
  6.4088614256618914 10.8527031214698244 31.3242262206662865
  6.3181853266982344 -0.0194051631872518 29.2693052928235709
 18.9222485697560359  7.2724509971445537 29.2646871575900320
 23.2247317217566724 14.4766940147297873 23.2734825955226903
 10.6254939323933204  7.2034736453864339 23.2073705593047457
 14.6078030978707591 14.2535128405268914 35.2043066685435306
  2.0188624153921348  7.0238061632716162 35.2205594643525188
  2.2646378884760656 14.5448774764776303 28.8233909373134480
 14.8853966860940048  7.2340242023387500 28.8459099690637117