Li P  S  Cl
 1.0000000000000000
    25.1819793006824639    0.0000000000000000    0.0000000000000015
    -0.0000000000000009   14.5388225279766061    0.0000000000000009
     0.0000000000000000    0.0000000000000000   37.2126966544236950
 Li  P   S   Cl 
 288  48 240  48
Selective dynamics
Cartesian
 -0.1134966537011901  2.5397789919971547  8.6865710968789163   T   T   T
 16.0466221491178445  9.5770522934605768  8.6377053770816694   T   T   T
 19.8749470104096133  3.3733084126146600 11.6103772622752111   T   T   T
  5.1318465106081490  8.1769468274984494 16.2055938357455176   T   T   T
 10.0573232660569332 -1.7229497088283541  2.7636371167942002   T   T   T
 20.4689371419687092 10.9618800210540126  2.5655043922644438   T   T   T
  1.2535907499066081  1.2648437439995317  5.4279281940999038   T   T   T
 12.3742839254817696 12.6657264148941824  6.6465003490752510   T   T   T
 18.4170515358990556  2.3195378335399810 18.8529900632068070   T   T   T
 10.6229806634460253 11.5225885648235842 16.5247618910599385   T   T   T
  8.7286074797618713  1.5261822151715143  3.4762409343145930   T   T   T
 28.2310886136077634  4.5679070285425194  8.3221887815325797   T   T   T
  7.0110793458902023  4.2978740786547638  9.9715199472538050   T   T   T
 13.8014384053578798 12.2298796984756422  8.9368303796163264   T   T   T
 18.7415021591804525 -1.8823601617012997 20.6646725784702845   T   T   T
  5.0221841477513118 13.7919409757697480 16.5839507822260330   T   T   T
  8.7464214370374158  4.9616431150121114  1.3813529093379375   T   T   T
 19.5920001446078551 16.3762325031559079  1.0033135574363694   T   T   T
  7.3171970988746793  4.8733812353710348 14.8818058356490219   T   T   T
 20.0595577615240757  8.8048107375785190  9.5686655867455155   T   T   T
 20.7657327738883701  2.7799202975832134 14.4261523627983568   T   T   T
  8.8403070181847934  8.9210566320590043 16.4240277863911111   T   T   T
 10.1795127465133532  1.2474243560340104  0.6545566709249676   T   T   T
 23.1640489552937758 16.3215824807250343 -1.2703031326417893   T   T   T
  3.1805931758916883  1.5042737207496522  8.5362889101105512   T   T   T
 12.1953507407319641  8.9977410361321137 13.5572436900912514   T   T   T
 17.4847846397512683  3.9976759468401890 15.7453350874697637   T   T   T
  7.3409419670427996 11.8789579295909906 14.3178380311591571   T   T   T
 16.4756430524685342  1.8917740431255450  2.4347760166063930   T   T   T
 27.4145817554680775 12.1473905461731349  9.0170348071757633   T   T   T
  3.1466401503467556  3.0662669782139500  5.2241735710669861   T   T   T
 15.9116914507739260 11.0457634256531527  6.0917779259076514   T   T   T
 16.9510888719190511 -1.8532806072358810 12.6960920998794293   T   T   T
  8.2384651393928348  9.3132729124881450 12.9487711557443994   T   T   T
  8.7141521841585927  5.6123592571967214  4.9167086023297237   T   T   T
 17.6957022875390670 13.8579325250848377  3.2005951266666015   T   T   T
 25.4672138072115253 16.3868385803651506 13.8717021671992811   T   T   T
 14.0102180984500198  6.5626711808083256 12.2376891336016538   T   T   T
 18.0712808868474610  6.1809465070366638  3.0398122802288610   T   T   T
  6.0123105289011871  4.0383445499589046  1.3923922704893623   T   T   T
  6.1054210178740815 13.1724988250371773  8.7155361431876237   T   T   T
 22.5739389672845547  7.8502243209116731  8.7199712149950521   T   T   T
 23.1569812317532104 -0.5778398244709153 10.8028700448486816   T   T   T
  9.3020781445500145 11.4337935991119402 19.0152644283194689   T   T   T
 11.3984657013870052  2.0509606470792758 -3.1241824627001904   T   T   T
  2.2751844473848721  5.3801352007553778  3.4108352758791800   T   T   T
  4.6471850715903109 -3.1621339557325316 19.0988740855252175   T   T   T
 19.1317077552352579  9.1770159703031826  6.6220945045849442   T   T   T
  8.3969049011217063  2.6370985111996919 12.6701960822490172   T   T   T
 12.4413214252013642  4.1407742679057211 14.0939188194492218   T   T   T
 19.6423892540707179 -1.9646586231915706  6.0091292897726394   T   T   T
 -0.1551933472461247 10.0677992927483508  9.0133306788963434   T   T   T
 11.6333001700297611 -2.1788809487437075 11.4928445366899705   T   T   T
 19.5188399251302016  8.0787852252998977 15.5883061732936525   T   T   T
  3.9184439440347045 -3.4647242181125688 14.3362992140138132   T   T   T
 14.7506152104303752  6.4557465460105314 15.1731435733552704   T   T   T
 13.0314663592239111 -1.4879809549240812 -2.6684167009456821   T   T   T
  1.4114899557704677  8.3280745845723381  1.8751576690256040   T   T   T
  7.8391967889997511 -2.0735674828134787  5.1653234598510283   T   T   T
 18.2508539946895141  5.8011125430537369  8.1386656064396430   T   T   T
  0.6493793659365029 14.7775452744367684 10.9438064510694915   T   T   T
 16.7304085446473394  3.5168490434022819 12.4683439307720807   T   T   T
 14.0209517919720579 15.2026232497769769  2.3982908013443036   T   T   T
 -0.7951862587585808 12.2977803861591273  3.0459882751816290   T   T   T
  9.4285690878957027 12.4598576970298147  8.6274000887273807   T   T   T
 20.2518804187640953 10.5408160992516891 12.1435494785343074   T   T   T
 27.4289935476113520 -0.2853442094957722 13.2864588133912349   T   T   T
 10.2591026705862536  6.0019252144934727 14.4519224174005458   T   T   T
 13.5599576424121242  1.9916412442648195  5.4230195877505345   T   T   T
  1.5881183807153232 13.3807430926774593 -2.8249236328246177   T   T   T
  6.4765138566738418  1.3504549139927946  6.2816153870973643   T   T   T
 20.4828110921567905  5.6936259021531992  9.2437125600992136   T   T   T
  0.5848792554974516  8.3454127537596587  6.8200841938712209   T   T   T
 12.2981094999845109  3.0634771940656549  8.8577123131354369   T   T   T
 16.9901524553134173 11.6323481401952868 15.5912544599288978   T   T   T
  5.6398129146243967  0.9188460436364568 12.8907931799476536   T   T   T
  8.1887000762529336  8.5162630193863667  2.6634533274556778   T   T   T
 19.3380507605992911  1.5102223320988100 -2.1997180465404740   T   T   T
  3.8335895769440929 10.6763021384556183  6.0498787059267487   T   T   T
  9.7129037773516647  5.3032409567329895  7.8301502781133765   T   T   T
 13.1452335180128852 10.3523647431050936 18.9562866787331004   T   T   T
  1.3668843858392574  6.4674649367996127 11.9091722795004920   T   T   T
  4.7420714195364324 11.3784939133598453  2.0948538131860839   T   T   T
 20.3083123335117151  4.4546906707648342  3.2619750891816328   T   T   T
  0.3978478595899980 11.2568494583578875  6.4835373140091415   T   T   T
 14.6290677869795260  4.8928650881751974  8.7870114100676115   T   T   T
 16.8010736483143255  9.0169982204927255 17.6448567486853385   T   T   T
  5.0030261375492069  7.8092949402251213 12.9924023377033162   T   T   T
 18.1735393005789625 14.1165045110345329  8.9391711031344290   T   T   T
 20.9783820043562912  6.1474146780552390  5.8832667398924228   T   T   T
  7.9197190730266707 15.9471237144998366  8.7077806690231032   T   T   T
 15.7904752453515780  3.8066726452079100  5.6868541832530202   T   T   T
 22.9251648475421810 15.4033175408766780 13.4176418947749028   T   T   T
  7.0682491483380243  2.4131307782909452 16.1613317273915413   T   T   T
 14.3433951476754959  9.5611247975128624 -2.8344431438012658   T   T   T
 29.2900850527148364  7.4501625381235534 -0.2434750023239898   T   T   T
  5.0703217691000146 12.4488178270685381 12.3258866671047791   T   T   T
 10.2463362343873250  0.4357793419282505  6.8428308425959514   T   T   T
 18.8490456740328653  5.7276026289087989 13.6663085437085741   T   T   T
  0.5547899614702231  7.9668464454610497 18.4407912881391809   T   T   T
  7.6088895520568656  9.4004244723086554  7.1094858346568941   T   T   T
 24.5998349576070616 -2.4502132733081772 13.6891521693590246   T   T   T
  3.5176138463407782  9.1402681426362165  8.8477091506017000   T   T   T
 12.8291478774365171  5.3020991975572871  5.8714371171045476   T   T   T
 13.2394976775329134 12.3782664338900332 14.5475626564860665   T   T   T
  4.4951696598648132  4.4746347764476013 13.5916945156001461   T   T   T
 12.0792361571929927 10.4749811075284818  2.5722357887821121   T   T   T
 25.3761164630628571  2.5843138592151869 -2.9861296342703660   T   T   T
 20.6923649465155925 12.2265178563207986  8.9189670209203626   T   T   T
  6.8570484792546154  7.8739943428928667  5.1516139781992445   T   T   T
 11.3970801940518527 15.2802138976176689 11.6880003476763861   T   T   T
 26.4283872091927954  8.3176491487322597 14.1986051099774038   T   T   T
  2.4480502357640090 12.8812773495605430  2.5313433715906655   T   T   T
 16.6878235623614835  8.9617120170810338  2.8992198639100408   T   T   T
 20.5393330514057055  1.6681673767233458  9.0075593371720810   T   T   T
 12.3391856660184622  9.7233613785761523  8.9243836903512772   T   T   T
 10.4983176988960079  0.6124130813109492 15.0626135737962539   T   T   T
 24.1887484741443615  8.3404549148745755 11.8295009674587615   T   T   T
  4.6095603314836273  0.7212865812413867  2.2178436192589546   T   T   T
 16.4274717870027445 14.6478564166290024 -4.7031283536481636   T   T   T
 18.7884621351778485  1.4859434456782934 15.4506629721942641   T   T   T
  6.1198759894294144  7.2129835584230504  8.9969253281651351   T   T   T
 13.9211058784064736 -0.0250704420201040 12.8392639230297263   T   T   T
 -0.0896810233193019 10.6020348800380049 16.2769593411411186   T   T   T
  0.1766499117628962  4.2685116260140532  6.4877529180993916   T   T   T
 15.3688708528794944 13.5925194091640602 -0.7885611958772315   T   T   T
 21.1036716386598933 -2.2072551148831563 15.4843089918406474   T   T   T
  6.1812840367145094  9.2561184199217106 10.9268397159183035   T   T   T
 14.3908868220089605 -1.1938700156852720 17.8095807725707580   T   T   T
 -1.7223747303892325  6.0595067235708111 15.3049107999539729   T   T   T
  2.4993339638858219  1.7987163090061706 -0.2168794087201175   T   T   T
 21.4545501795164064 10.1741215198318731 -0.5702791210424842   T   T   T
 23.0835110609321319 14.3710157447692009  6.9076605380795799   T   T   T
  6.3408618704167523  4.8706852928413271  6.8915472665288631   T   T   T
 10.2249782576200126 12.2537757167349781 13.5223594761346497   T   T   T
 -0.6094354224240663  4.9361736762247146 18.7253202439660420   T   T   T
  4.6835251674270415  6.9647171512873767  2.8308986134450431   T   T   T
 14.0682949445089207  7.4793881859456768  2.9751995010372676   T   T   T
 14.9894532083727832  1.9637179855430198  8.3801346437679580   T   T   T
  9.7934611041760835  7.6950136958600011  8.4451183794683278   T   T   T
 12.0156037981107513  6.9913218455962669 16.7116159302408995   T   T   T
 26.8866958987604150  5.5385823797960718 14.5798666846976523   T   T   T
 -8.2012660865413025 -6.3183464582821323 12.5322080532351912   T   T   T
 18.0526147819204326 13.1762180486451452  0.5029876402893826   T   T   T
  9.3803114074422478  2.3022047447452527 31.1487211420083661   T   T   T
 23.9125034188325678 12.8528313340521194 28.2539678044010749   T   T   T
  1.0081314859361543  6.2258183809647454 24.4215531615855923   T   T   T
 13.8505775698208868 13.6116154979251913 24.7569743711483099   T   T   T
 14.6194192802825373  6.6330942534686557 36.7147373487292512   T   T   T
  3.4489399552164874 11.4256664129759926 36.5574412245972482   T   T   T
 12.4555384048640860  2.8886516654658827 28.5951300299227142   T   T   T
 22.1081762852263992 10.5609741190676338 32.0918284757189411   T   T   T
  2.1496666236795923  5.9674670920854149 21.9653824671594009   T   T   T
 13.6071235839639062 12.6779940485718008 22.2338246162232913   T   T   T
 16.7255126582701976  2.6982236853932151 35.3577794607629130   T   T   T
  3.4445929240685880 10.1112660269230172 34.0324520726181063   T   T   T
  8.5371360539311585  3.7355723515045436 28.6814735854924763   T   T   T
 25.2630919642965459 11.2408429694988659 30.4665325952617287   T   T   T
 10.6919362623752718  1.1300653174041744 23.8809846605231897   T   T   T
 19.5778573850746014  9.6038869083500842 24.3024386587677910   T   T   T
 20.6594010728490716  4.5543887870249122 34.1573816251285294   T   T   T
 10.5701349041510593 14.0347771893562854 29.5778249248410496   T   T   T
 12.1600422121196559  4.3707438635517288 31.5484820705825300   T   T   T
 22.8334103883986899  9.0106583951539765 28.9624957521126198   T   T   T
  0.3971739807602819  2.9016446627212709 23.2471344502744657   T   T   T
 16.6439906100087001 11.6172744563937282 25.8732568768919329   T   T   T
 16.6826189693921201  5.5784662296190142 34.8897387253478470   T   T   T
  7.0767685744348201  1.7682874502820052 37.0967569843964924   T   T   T
 10.9083153998504105  6.0588316449017707 29.1512669848621400   T   T   T
 21.1443431722000774 11.6818150409080754 28.5339906081862544   T   T   T
  3.1286083882304170  3.4638605666108973 17.8971631534418911   T   T   T
 18.8702477868552378 14.0656763271202916 22.8824752441810624   T   T   T
 18.1832500930471568  9.2396071987270325 34.4608686898391383   T   T   T
  7.5606020850024036 20.1990623598068453 34.1374321690476137   T   T   T
  9.5544906385752775  5.5413578541698660 31.5710678770839230   T   T   T
 22.3097311590838387 13.3947031415164499 30.9466930748457045   T   T   T
  1.7855538579080785  3.2011818160784791 25.6770915415843355   T   T   T
 16.2645954604291276 10.4902900074723924 22.8496460205780494   T   T   T
 22.2317918826128178  6.2968397539417911 38.9061371086446002   T   T   T
  8.0154271216257023 10.3923849576024896 33.9754041124371042   T   T   T
 11.6127063647778677  6.1068955182458335 23.7329615819957596   T   T   T
 23.2653794970449894  0.9990211572222242 24.7866140684714189   T   T   T
 24.2875843982385042  6.1563327964254597 34.0137084642668057   T   T   T
 10.6834856461718939  3.5673508124846589 40.2751844881545793   T   T   T
 17.7788390077589860  9.7439254128912225 28.5349261821786477   T   T   T
  4.0590822318870829  2.8669278983246871 30.0585361888399518   T   T   T
  6.8380042134360144  3.3370522605183992 20.2358757240349902   T   T   T
 22.7566447017615019 11.7981814515874692 19.1555280806272528   T   T   T
 25.3899757422613135  4.8613720037006303 37.1629270575725172   T   T   T
 10.8378263881899137  7.5035926954167005 36.8083354196395263   T   T   T
 13.5154088723847430 11.3757225785461706 26.5607795666281739   T   T   T
  4.3341387991117895 12.8881224779772801 28.6588630962574662   T   T   T
 10.6935991930927976  7.1049843511870643 20.2540480655179600   T   T   T
 18.0167249417251014  5.6401032495857661 18.3758264225931285   T   T   T
  0.0612518992716752 10.9824485554745355 33.3987289984325386   T   T   T
 12.2322520830306747 10.2632909454577632 36.2809109203189948   T   T   T
 14.6714660366006004  7.1821683626227859 28.0763006111907387   T   T   T
  4.4925528908557197 11.6466807452982586 24.7246719822704044   T   T   T
  7.7491446413310427  9.4322582974085023 24.7319778505869046   T   T   T
 21.1912085959018270 12.6254580296594021 23.6416899627964767   T   T   T
  5.0983188627062859 14.6945360821246762 36.4874958500716602   T   T   T
 14.6879434634959427 -2.3703641009151006 38.4518635719623347   T   T   T
 15.5545560888937331  5.9041155089594257 30.0610352511375787   T   T   T
  2.1126108266575305 15.5070100492259098 29.1165456121933701   T   T   T
  8.3759082476455298  5.0254783046839906 23.3580544597223927   T   T   T
 22.3228509136575717  0.3040205616348429 22.1162061570122894   T   T   T
  1.0316529746913146  8.8837374845435519 34.6377831175287199   T   T   T
 13.0286763891842536  6.0615060158589875 34.5517498829888083   T   T   T
 17.4505974102903210  7.0226052547034890 31.6617578815271230   T   T   T
  2.8811603530234580 -0.5194337754238528 31.3184650057313192   T   T   T
  9.1653989302571386  6.7167652394783666 26.1478803628833738   T   T   T
 20.1539149446478341 17.2131748076960811 24.7908949440447302   T   T   T
 24.8135372772018528  2.6850769280563354 40.4754843147627881   T   T   T
 19.2858199849169516 15.6055874279612929 43.1316888394090157   T   T   T
 17.6053458994033534  6.3106880088415176 28.2599443257983864   T   T   T
  5.7408019202670886 15.4009943128308571 28.3670766841344850   T   T   T
 10.3428697802343041 12.4983051469566711 32.1054125300410362   T   T   T
 31.1559858676618973  8.1278266951987792 27.6360243303294943   T   T   T
  0.0886943332734149 12.0497489312173460 23.5669984897801044   T   T   T
 14.5972431365741890  6.4506604616211831 23.4596351578797524   T   T   T
 13.9157533969020921  9.3166423077070526 24.6545741756936181   T   T   T
  2.8656316266713793  4.1100998623618121 37.9488914741294678   T   T   T
 10.5855779568157224  8.8059242478319906 23.8210948687513948   T   T   T
 21.6273082621700610  6.3337736520500156 30.5349579510774802   T   T   T
  1.4024804086487863 15.4883040222116595 21.4413156331840469   T   T   T
 10.6803134763131915  4.1838710987838841 18.8503909880529505   T   T   T
 13.1751697033290771  3.8889538840553213 37.6370631112981400   T   T   T
  6.0566089076385810 -1.4979785603127354 34.2766063230380027   T   T   T
 12.6719082021482379 11.6121458941513485 29.9486172433931799   T   T   T
 22.6757238972933060  2.0976422708006472 28.3863107471774718   T   T   T
  2.5373326619176240  9.3860137517359252 23.6651062820873257   T   T   T
 14.3319375846741277  4.0177396958835505 20.7632266078868675   T   T   T
 23.0885408240195247 13.6868203432595905 34.4006842108772801   T   T   T
  9.4951412262411452 -1.3726437494225598 35.4510323071957956   T   T   T
 10.2578462090829472  9.8146050288606030 27.9825142730581717   T   T   T
 30.7311095468818749  0.4426396330794228 31.8807162950617418   T   T   T
  6.1059767613738716  8.9007934415851580 22.5573794476960146   T   T   T
 14.8877131933329832  1.6195649537232844 23.2189369294858210   T   T   T
 23.4803942479289631  9.3416121098307183 39.9385775154474132   T   T   T
  6.1670784209968401  8.1357269016013110 33.8231550672262102   T   T   T
  8.5704028579418008 12.3777682897087828 28.4275766941056069   T   T   T
 21.1751927076810915  4.9684824339431781 28.4711517067016686   T   T   T
  1.1804315875372089 13.4967616419392478 25.3099621496417022   T   T   T
 15.7965695758184541  4.0584748314960146 25.7876634678617407   T   T   T
 21.6027988925184573 13.4472319307219212 37.5947975085646391   T   T   T
  1.2897816097436254 10.2982855203827661 26.4289351918137818   T   T   T
  9.4171083097593975  9.7345041143512994 31.0454791745420344   T   T   T
 25.3681677961751078  3.1766212629609898 30.2525451013585105   T   T   T
  3.7525171726660225 12.9646727220800724 22.7321877698741659   T   T   T
 16.9190271637620064  4.2086457110495648 21.7527072011517859   T   T   T
 28.6125423507865406 17.0040972923781908 34.6352540762918295   T   T   T
  6.4912709236187247 -1.8908940856349892 37.1978459618783788   T   T   T
  3.6876561572955211  9.9293934380678071 30.4511036349750093   T   T   T
 16.0459505682625689  2.5234432029032203 31.0834060581408771   T   T   T
 20.2269799269469104  6.3847336166755309 21.1179989756419531   T   T   T
  9.2761010814502356 -0.3771994849569744 26.1851318680547429   T   T   T
 15.0092458488005711  9.4249836392651858 37.4828865305963035   T   T   T
 23.9567752015326221  4.3289417612218015 49.8784650602406998   T   T   T
  3.0099835737053477  7.3385933138919697 31.8555632870650527   T   T   T
 17.9041334216232642 16.8855305902763071 28.6196452351500668   T   T   T
 19.0774388394229142  6.2298828702195781 23.8673024693338220   T   T   T
  7.6451905416782369 16.5122967745916860 25.4012524898599636   T   T   T
 11.2275933525989284  8.4245473376946993 34.1761279470996016   T   T   T
 20.2051007413776631 -1.5668057000786006 34.5122802372485467   T   T   T
  4.9819010890495612  4.5280151178485122 24.4723466507250578   T   T   T
 15.0130481118063379 14.7886819754171590 28.0606460928516768   T   T   T
 22.8534213155224855  7.5302787416366606 25.5451864257193648   T   T   T
  7.9085473828722126 13.0325887437939372 23.9319463209765466   T   T   T
 15.8055114290008127  9.6985062841410414 30.8452146379413392   T   T   T
  2.6793749576974126 20.0604090912149111 33.9481306631574640   T   T   T
  2.8941839120165422  8.5352925625862586 28.3298071614949833   T   T   T
 19.1923036866290353 -0.1153416351347703 30.1677697415860600   T   T   T
 22.5314854372436777  8.7461973738840246 22.3457031657872207   T   T   T
 13.0220891535128800 17.9223820949716206 24.3609074884600680   T   T   T
 16.2792662780245436  5.0519533417706954 38.1725288455600875   T   T   T
 -2.9232205479961380  3.0623831496960028 31.8784862705919387   T   T   T
  3.9440143196148365  2.8245440169335301 22.4388723644582200   T   T   T
 20.0416268815639675 -0.6967925710322480 25.8765440001220455   T   T   T
 26.4194034039054699 11.3547085171106392 19.6630811435090287   T   T   T
  6.5333006531877738  1.2776086742472561 22.8423199434419644   T   T   T
 13.6718366236967270  8.2504532374087240 44.6888152035813491   T   T   T
 -0.4438933442708712  5.4262809233803626 28.3393782267331886   T   T   T
  3.7685343268969906  5.3516773749690412 29.7733461177979386   T   T   T
 16.9637585356899621 12.7003652968380560 29.7569017550857176   T   T   T
 22.8653264436609227  5.9504848213195434 22.7443747184343010   T   T   T
  8.0391700461133233 14.2070357843506212 18.5078335148852098   T   T   T
  6.7170916248553443  7.9010393232540093 30.4323231220298211   T   T   T
 24.3669691046126715 10.9312326911606608 36.5018520444309473   T   T   T
  0.2082701925052910  0.6678549826823108  0.4701055921660729   T   T   T
 11.8264344442440308  6.6400641230698874  2.5744142762341613   T   T   T
 16.1711098863450928 -0.1039710339416244  5.9202114036078060   T   T   T
  3.4109137537095253  6.9281121355676376  5.9593923699077145   T   T   T
  8.4231172748058292 -0.7830851679073999 11.7081038206919441   T   T   T
 21.1753276368638801  6.6607732426054556 12.1794555126066442   T   T   T
 22.5762925674151056 10.8484300373157332  5.8627967748435337   T   T   T
  9.9494301064095172  3.4483915482656111  6.2767000394682082   T   T   T
 14.1435683379466912 10.2959050808139647 11.7081784306369769   T   T   T
  2.2684947659573584  3.2570466243926592 11.6344427566288076   T   T   T
  6.8429847902594538  9.6391302753836090 -0.0416745082391509   T   T   T
 19.2399793255800198  4.7510851628038981  0.3429224040695775   T   T   T
  3.5090673194212370 -0.7503436555590167  5.5588643950005077   T   T   T
 16.3244185506178070  7.1888975867399107  6.0023316484573419   T   T   T
 20.2848805444216929 -0.3964746027859305 12.0110798546264093   T   T   T
  8.1885733619281194  6.5443087253908319 11.5249498195340028   T   T   T
 12.5065949277937900 -0.6427952187456094  0.2546373149836685   T   T   T
 -0.8742768934725650  8.2857314274754543 -0.4318104543008884   T   T   T
 22.6891699300496725  2.8415074037715673  5.7119684810252531   T   T   T
 10.4437588604472786 10.0653134790394070  5.6018737899827915   T   T   T
 14.2040878443270753  3.1934044953209595 11.2250497667516580   T   T   T
  1.6220178122550306 10.6383979974476919 11.8975148825373100   T   T   T
  7.7893965737701878  7.6869650569318333 -0.5232908040378864   T   T   T
 17.7936630080261615 10.5246679492813779 -0.0474519184894609   T   T   T
  8.0235903861587072  5.6174463121538381 17.8957550509447216   T   T   T
 21.6853990679966380  0.1512231946240545 19.1067012023890150   T   T   T
 25.0647300275822928  7.6376589511492385 31.3086755806090835   T   T   T
 12.8442556134969852 15.2433256754698334 31.3894062154760114   T   T   T
 17.0812972246868462  7.8625657689716446 25.1484810783224653   T   T   T
  4.4049669568290630 15.1269997005555119 25.4183499638383168   T   T   T
  6.2993135293885620 11.8098988898323380 31.4096474151741063   T   T   T
 18.8132661401702777  4.2000972034537947 31.4203556848514225   T   T   T
 22.9721543799263124 11.0019779287451147 25.4446581557181766   T   T   T
 10.5724109379840474  4.0406091328093412 25.6400010561214629   T   T   T
 16.0672266237247605 11.3247569992395825 19.3204462530012400   T   T   T
  4.6107646119750498  0.9668925822380100 19.4947031929689523   T   T   T
 12.7162519151824860  7.7480481400429939 31.1891129726018832   T   T   T
 24.9726720995097971 14.6959905883955901 31.4988909964076669   T   T   T
  4.4893076888432679  7.8610531597896083 25.1432709203339932   T   T   T
 16.8097191624437308  0.8556226292487334 25.4220811063407695   T   T   T
 22.4822918299453498  7.1275466619390198 18.9749642944521284   T   T   T
 11.1952674209342256 -0.6851878653164288 18.7680652455909964   T   T   T
  6.1778165519217243  3.8859871561708621 31.6104519442707641   T   T   T
 18.9086282576718006 11.4808325207557775 31.4827650008011268   T   T   T
 23.1618698306595334  3.8907906422655962 25.4622095759806371   T   T   T
 10.4254375886229713 11.4580662687529440 24.9782631208247814   T   T   T
 15.3324298460672157  2.4988136873033797 18.1890227548289793   T   T   T
  2.7066933842798364  9.9804522195314043 17.4586784673847220   T   T   T
  3.4804288140927730 -0.7399991441075164  7.7836334589103746   T   T   T
 16.5251536674133241  7.2367623798879430  8.0390922083642540   T   T   T
 20.5800916423157858 -0.2477346046456315 14.0736608874512221   T   T   T
  8.0869263086490566  6.6854760804842268 13.6314172922361969   T   T   T
 11.7512234003718667  0.4525689788493044  2.0033551840657724   T   T   T
 -0.8560782933464574  7.3768851979631105  1.6303031901980465   T   T   T
 21.2843969162348863  1.2417896809298405 11.2584643848755626   T   T   T
  8.8182499092651163  8.3810852601954799 10.8293355668816176   T   T   T
 13.9384988144992761  3.6886785060158798 17.1177500317010747   T   T   T
  2.4246636659773038  5.7302194671178617 18.1252429302254221   T   T   T
  4.3054888273128107  1.1063880487481346  4.9627909160822146   T   T   T
 16.9503535118974469  8.9710530760393183  5.3525633380569468   T   T   T
 21.8710111189679104  5.0449337295524543 11.2933411998122324   T   T   T
  9.2903848213566604 12.0358179670670751 10.9445925622769185   T   T   T
 13.6537361606026320  5.4802514992505538 18.1673527875840506   T   T   T
  2.1813761276000729 13.5132809286229527 20.7523461660325417   T   T   T
  4.4616338411134011  5.3113842976254233  5.3092593676975737   T   T   T
 17.1639259855199704 12.7537049577295569  5.2429821920279194   T   T   T
  6.4059390274664425 -0.6173579538746075 11.1393789733431916   T   T   T
 19.1669782781101539  6.8806381805454784 11.3828519116162923   T   T   T
 18.5061080655209054  0.6631623348958552 20.6877302810222439   T   T   T
 15.0300739901527827 10.8167488672687995 17.4424520897716384   T   T   T
 14.1395730911601571 -0.2982881052021132  5.3707059469039278   T   T   T
  1.4059864032047813  6.9297887514723087  5.2446088567294202   T   T   T
  1.8090047918546235  2.7288831693988147  7.1769270181574321   T   T   T
 14.1448814904424331 10.4094339403877587  7.5758133980479583   T   T   T
 18.6244647294154824  3.1716707878699224 13.6807298714444094   T   T   T
  6.0790177242275405 10.2571891084925859 12.9660877119400393   T   T   T
  8.4038507869000068  2.8371983805973535  1.5149685669057755   T   T   T
 22.7196411460065910 11.3725168695799219  1.2025396576597625   T   T   T
 22.9888370933795976  2.9387208620510519  7.7075819481535346   T   T   T
 10.1290859558180859 10.1728425770560964  7.7385457613914319   T   T   T
 14.4140699815765529  2.9067272944335567 13.2250664689399180   T   T   T
  1.4999545258792204 10.7402693112579222 13.9785585778466341   T   T   T
  4.6156860194416467  2.5312392342754584  0.3694261558699651   T   T   T
 18.3584271759990756 10.7367496415208645  1.9791234279207934   T   T   T
  2.6290133945047547 12.4773514858761239 11.3825734750688881   T   T   T
 16.0556141858028809  3.4494378306238977 10.2618895229706837   T   T   T
 23.4679282978759787 14.1593973144813461 19.8102170906734898   T   T   T
  7.4010444821932673  7.5393080469513221 17.4178302922990618   T   T   T
 10.8781971039881924 12.0120520856876407  4.9335220725022921   T   T   T
 23.5838705231612629  4.5246990170042931  4.8085095364065147   T   T   T
  3.3970646214766544  1.5754626927432107 11.0924642454591460   T   T   T
 15.1092170077625809 12.1553935675145457 11.0776953356696541   T   T   T
 20.3332483491716687  2.4519660378536785 17.0028103528915366   T   T   T
 11.2874933937986786  9.3391922347943499 17.3811912276912253   T   T   T
 10.9725585250065940  2.1053448133026764  5.0219117792786969   T   T   T
 23.7646994359879358  9.3017490138226506  5.1739395634634766   T   T   T
  0.3540672423671198  2.9181935697189867 11.1315827598724066   T   T   T
 15.1253320749641933  8.6363558772974578 11.0470349352490285   T   T   T
 16.3758960068322779  3.9093275409432100 19.5120473439788249   T   T   T
  1.8825835763790910  8.3573897199967924 16.5871960851061431   T   T   T
  7.9853639654368163  3.2909357527964671  5.4164153942066511   T   T   T
 20.6169904332319476 10.5352564090272516  5.2089043243880200   T   T   T
 -0.1277622813941984 -0.2123768262171191 13.2961118360058386   T   T   T
 12.5044228113850000  6.6171627947024678 14.2435600674554035   T   T   T
 16.1933194931163484 -0.2811289145949104  1.3823183684020239   T   T   T
  2.8856180689743374  6.3648003465576597  1.5171094263536000   T   T   T
  8.0668005849778321 -0.6464628421638201  7.3283749937732461   T   T   T
 20.4763567170839806  7.3686191605037124  7.7375425091490753   T   T   T
 24.2614753202361726  2.2894320965320594  0.9735569582795079   T   T   T
 11.1135744886462415  5.4214352768566600  0.8856820424241103   T   T   T
 16.3776422575136422  0.0485363483231685  7.8874201611530683   T   T   T
  3.6244429358963752  6.7359153055050696  7.9752407430536616   T   T   T
  8.2182242179715548 -0.7947463023917395 13.7449673342468870   T   T   T
 21.1779510659891379  6.5351124630839807 14.2629062976377323   T   T   T
 21.8162340317553110  8.4963616130479185 11.5580610754985269   T   T   T
  9.1645331720672729  0.8962881012003551 11.0129215948983230   T   T   T
 16.4105399928206737  6.8987836855774951 16.8015721508033735   T   T   T
  4.8457058254226055  1.4296762308722606 17.4817234339441860   T   T   T