Li P  S  Cl
 1.0000000000000000
    25.1819793006824639    0.0000000000000000    0.0000000000000015
    -0.0000000000000009   14.5388225279766061    0.0000000000000009
     0.0000000000000000    0.0000000000000000   37.2126966544236950
 Li  P   S   Cl 
 288  48 240  48
Selective dynamics
Cartesian
  0.3944013893066370 -4.5917199041442327  5.8163917202070561   T   T   T
 17.2330630790711012  8.8644344839465390  0.1030971341342023   T   T   T
 17.3633521863274609  1.4718771810041238 12.2709491575632335   T   T   T
  4.3387687573858473 13.4110575137558108 13.3218488870927541   T   T   T
  9.7863933253322930 -1.3640210641275896 -0.0781520473904590   T   T   T
 19.2231135005556766  5.7595666438851101  1.7676331946782549   T   T   T
  0.5936155045925803  1.6142393241023250  7.6370968041925256   T   T   T
 15.0565777049006169  9.0829165433587455  8.6835457720374141   T   T   T
 16.3780086471667445  1.9284898952601961 18.7254423455112544   T   T   T
  4.8246905343251383 11.9884355500118644 16.4676429349718809   T   T   T
  6.7012286748070498  1.7810307935319447  9.5830092611211910   T   T   T
  7.5177158427965738 14.3184919341857757  0.5425966487354936   T   T   T
 -2.4902570688938339  1.4077648717388351 13.3799047671882807   T   T   T
 20.1544588286573898  2.7671479437518878 12.4406436586831237   T   T   T
 18.2831317327561322  5.2850538761937900 16.7770103854087154   T   T   T
 11.4148733370606958  9.5671326478639998 19.1787252104599588   T   T   T
 13.4962069204827877 11.2552220865778025 -2.3630755948369147   T   T   T
 21.2736204911543538 23.2027033846172621  8.3922447135197480   T   T   T
 -6.7470087228126285 -1.3122320289788176  8.3267911747688448   T   T   T
 12.2697603946120228  9.5753000719968888  9.0934311338932812   T   T   T
 21.5700812078367861  1.0931201809760718  8.9684100433043152   T   T   T
  9.2843997590986049 11.7476678044266158 13.5251773711607886   T   T   T
  8.5554336685679502  5.2739719308507453 -2.1227937169661533   T   T   T
 31.9111106869664169 16.9763998876364290  2.7923339060201786   T   T   T
  7.5095047435078817  4.7858435989718258  7.6213277788751546   T   T   T
 13.3259474283581927  1.6797804724199770  5.6613949454408417   T   T   T
 12.7695059615689797 -1.8084117453103157 14.8469342424552035   T   T   T
  8.1871374031555924 12.7992595575587593 16.3065806919506322   T   T   T
  7.1389795694694893  6.3652186649883014  5.3117511269243476   T   T   T
 26.7998328010241806  8.6373657187457447  0.2330171989677912   T   T   T
 -1.4456015636635713  4.8540851092219226 14.3429010917785575   T   T   T
 12.8654434583349655  9.9117480198210401 16.2550049819648699   T   T   T
 16.2361625677676571  4.9992306100516446 13.6137806091923004   T   T   T
  6.6504655146388965  8.9130449187671772 14.6457386483288818   T   T   T
  3.2144328005550773  6.3095602534317825 -1.1037553699940543   T   T   T
 24.7757180525064982 10.2045454361995453 -2.1070863018233159   T   T   T
 24.1920030986404342 11.1161237256601915 17.9844327966637287   T   T   T
 11.3801374339868442  8.0634897494361937 11.7557922162207102   T   T   T
 15.7706638673418560 12.7552599631936125 -5.8089845004093767   T   T   T
  3.1700522338469845 11.3000549950672209  0.6857526752325727   T   T   T
  6.3457871196688371 13.0701316198306934  7.8918197149905085   T   T   T
 22.1001083165975558  7.2139190509005555  5.6022216948354613   T   T   T
 25.0138390923383653  1.1690942633841968 14.6211032128412928   T   T   T
 12.3675477693601295 11.7202213219574176 23.9537014543542810   T   T   T
 11.1962530850627182 -2.7640496683141742  2.7068433615975298   T   T   T
 -2.5923964230507126  5.1456837219325067  3.5422097887077451   T   T   T
  2.6616666107854687 -1.8508343941891670  8.9820636632200674   T   T   T
 12.6719965101458794 12.4249308761561750  6.9797955823497846   T   T   T
 -0.0138408346620857  4.5657280515353174  9.3684024686773881   T   T   T
 11.7499841094029343  4.2000588836745250 15.0528821606656553   T   T   T
 15.9874445158978595  4.6748802687887467 -2.8125402188790924   T   T   T
 -0.1185360271131321 10.2852932117533555  8.7908517652885703   T   T   T
  6.5094552113520701  2.3122139352527649  6.3240261101645636   T   T   T
 23.9369967932721011  7.9435770172448148 18.6999712462860934   T   T   T
  2.7924664613889170  9.3428564256158566 15.8272535865561164   T   T   T
 13.7586410466938176  7.0371155676540758 11.6058052785933299   T   T   T
 22.1340055942216054 -0.0133185075781624  6.3181889914425744   T   T   T
  3.8753518458293454  8.1897631816950884  3.0140520174036283   T   T   T
  9.7701340375158097  1.2824652487272143  8.5227018259549734   T   T   T
 28.8172277020639527  9.5826563311268806  7.7220465775294107   T   T   T
  0.2980050839081160  6.2904729476357142 11.3097826547713005   T   T   T
 10.8555450513338680 16.4457643281851382 12.6662688882728283   T   T   T
 15.1318053878646133 11.8167385721265852  3.8299775677924783   T   T   T
  1.2598297721048717  6.5984896621315974  7.4795053622734358   T   T   T
  5.6368239163557154 12.2863060702990659 11.6531933403561911   T   T   T
 12.8433665657977212  4.4117766250856878 -2.1368307981136732   T   T   T
 24.5420234938417678 -3.1135277080958570 13.3818160485271438   T   T   T
 18.2615710599144450  2.4051270888531113 15.5221989717425384   T   T   T
 23.6863897366950269 -0.2836723841853977 -1.2738405083395756   T   T   T
  9.6095250786477386 23.7075656724385198 -0.0960329564947982   T   T   T
  9.1606143336789003 -0.3427469376781482  5.5089950474895506   T   T   T
 19.7659789531341801  5.2804106893524390 14.4083716533406854   T   T   T
  2.7622281456893969 11.9490282620823756  5.3791701031599217   T   T   T
  9.3514941402381364 -1.2352284110051084  9.2576195811717987   T   T   T
 21.0876271251505401  5.3209389820262682 23.0591025288953411   T   T   T
  3.1894807111590358  4.4808778362900359 15.5709135531003415   T   T   T
 -1.0653530459078902 11.3976212740761795 -5.3195679081801384   T   T   T
 25.6302557804508950  4.0033892635748902 -7.1757144505355210   T   T   T
 -6.0395826550423140 16.3703914956042702  6.4059134064674668   T   T   T
 13.0197307046821003  1.8790421170272265  9.6293784973039500   T   T   T
 21.2753311230936291 10.9617664912436865 16.2301174054386870   T   T   T
  7.2245600890997812  0.7629331916674451 18.5777106664353475   T   T   T
  6.0318443744909711  8.0348655074578978  8.6026055772439829   T   T   T
 22.8104261192769613 16.1496702010812037 -3.4934253360724807   T   T   T
  0.0177417945545022 12.6439136131586558  7.6259157310116539   T   T   T
 16.7323959261700566  2.3288507582359737  9.4671500525997594   T   T   T
 23.6015872250284744 14.4687750236493500 19.4281637513976335   T   T   T
 15.3389107449384756  7.6695769463441135 28.4981549687345996   T   T   T
  6.4779870680201430 13.5557676108794993 -2.6955152067849095   T   T   T
 21.3950047611785337  5.9951757090284055  8.7516556302132091   T   T   T
  2.5574246439207018  7.0938146298687581 12.7625154241651035   T   T   T
 15.3156567310214111  3.9631088994686081  5.1214875971037879   T   T   T
 25.1961629002918173 15.5854838556567756 11.3849170658750598   T   T   T
  4.5255902647746611  4.7983895099850145 12.6527083685723216   T   T   T
 27.9799530501895362 12.0990554800479764 -2.6674469978358752   T   T   T
 28.8998689896424565  2.3655263586115725 13.4346031697223030   T   T   T
  3.4704670551826267 12.9597630293678847  3.0950553021600009   T   T   T
 10.4681670257964416 -0.5414197988080598 15.0307635396881345   T   T   T
 34.3974991316424976  6.6201545799372647  9.1888935706487356   T   T   T
 10.4043093444583867  7.1413157346257377 14.8448632528432309   T   T   T
 13.1515958824980714  8.6516055652462285  6.4695038074806375   T   T   T
 28.4802388882903443  5.2346464036782070  8.4783286901629431   T   T   T
  0.6496255270543222 13.0083460941562485  0.6581619853909417   T   T   T
 16.4096900543574193  5.0576597694818304  8.1966748230596753   T   T   T
 18.7268238324624576 13.0217245600351816 14.4746619864640547   T   T   T
  9.3543381192054120  3.9040418657918563 16.3987825378847738   T   T   T
  2.6479952809889604 15.9657084071904940  3.4931379835292145   T   T   T
 31.8337865977924750  7.4117408630592427  0.9392303038915746   T   T   T
 19.4648240660342040 13.1514645970243400  4.5965147637660833   T   T   T
  5.0469364758806163  9.8252113867065098 11.8586588710693750   T   T   T
 13.5296680265997136 12.7756754766179839 20.4597211693513259   T   T   T
 20.2792428317347415 10.7443210439080872 12.4136620644330193   T   T   T
  1.7338281011694554  6.3750394845364520  3.7074065606822280   T   T   T
 22.3239153836863622  8.2927550292094345  1.8207348211575667   T   T   T
 15.3692985573961334 -2.4985986974472838  9.1570026401571809   T   T   T
  3.1238217493117904 -1.6956008022220843 19.1317228195407729   T   T   T
 -0.4134838680152321 -1.3529254677232032 11.3166222808012300   T   T   T
 31.3379457901562759  3.6470104173500042 19.3669113283947816   T   T   T
 -10.1100234241972018  5.1936170648735258 -6.8652634534030401   T   T   T
  9.3656879199307177  6.2296938125486170  0.7301759956392608   T   T   T
 16.7842309556550404  2.3172502495594518 -2.8279089149655663   T   T   T
  9.6798960248073040  7.6799340172743848  6.1784207698972180   T   T   T
 13.9972360355217766  7.5564323065634591 14.9585276792497872   T   T   T
  3.2162725221464976  5.4862784561684697 19.1118042965026049   T   T   T
  0.4885768045736892  3.5079675752745789  5.6531160045520163   T   T   T
 20.4489223596552776  9.7649501486644468 -1.8992321629918631   T   T   T
 18.3770907420543068  8.3349392401230666  8.2668942493711963   T   T   T
 16.2616379950601839 10.7164112668918108  6.8317808874467909   T   T   T
 18.2868466372905445 -1.2957167984408700 18.2509929904948436   T   T   T
  5.6943342107866322 16.9605199672325107 16.3459503300929327   T   T   T
  2.8555888209981686  3.4874719135440024  1.2483746859748492   T   T   T
 19.7465399401145589  8.4630534515550586  4.9374828741591283   T   T   T
 13.5917827183989264  9.4219604304401230  0.9391769513230882   T   T   T
  7.5548756480062096  3.0717008133388712 13.0632541566785942   T   T   T
 16.7749312036504818  8.8731222836836849 13.4607043051292159   T   T   T
 -10.7747435899340260 14.1451514868019395 13.1439971057907297   T   T   T
 13.6686493752178340 17.3959747634117541  0.6962570343666767   T   T   T
 19.4374287873502780  5.2122564487263103  6.6635882732209453   T   T   T
 20.9321128373224994 -2.6369816889080262  8.6256685151034365   T   T   T
  8.1741683798050939  9.6321652606699857  7.9004082130297961   T   T   T
 13.6742712123138315  1.2449036846879311 15.3416673672615325   T   T   T
 23.8510374032262007  8.9277603157730745 12.7561646152213921   T   T   T
 -3.1302594434971724 -4.7623274896043499 -5.0077087103086004   T   T   T
  9.1068614720034304  9.3754619472478105  3.4032442860698970   T   T   T
  9.0720873602386121 16.6451006627385674 36.6171480862661554   T   T   T
 18.9240459702000479  7.2685242669245929 27.8122040518038105   T   T   T
  9.8579099920517343 20.8764317455157062 22.1814575181575506   T   T   T
 16.8133711630760843  3.2539759165569166 26.0391860847176808   T   T   T
 21.7340884716127078 17.1405412089451339 36.2288889453755161   T   T   T
  4.3858983012289237  5.1204105487906810 29.7836558705364460   T   T   T
 11.9906098810067991 10.2573786482491407 32.5509021931135010   T   T   T
 31.0698726349012446  0.4374086648010246 31.5646757406583802   T   T   T
 -2.6026211411587648  7.3154419644459603 25.7796708611640639   T   T   T
 17.6019951040835494 11.0881437272197871 20.6515640619369805   T   T   T
 14.8795045726194761  8.0157359120199381 35.3306397952760136   T   T   T
  0.4879218435398824  0.4521055277525860 40.0139349536330968   T   T   T
  9.4223433347207148 11.8693407567133988 32.3800098294425425   T   T   T
 21.7195066296549655  2.3721983935235498 30.1566290841705538   T   T   T
 -3.4380235319908445 12.1565452482034644 23.4856070313633793   T   T   T
 12.2898334375418798 -0.9815156080461606 11.3890918650779298   T   T   T
 19.3583808461751801 13.2715785924260317 24.2241911998991348   T   T   T
  5.9341025212895566 -12.8649756979006931 28.2288445770910208   T   T   T
 10.2514918267309891  1.8426355827428937 28.3270652011307149   T   T   T
 23.3762887035983269  2.0253461123440348 28.2404079342120440   T   T   T
  7.6615369371776296 11.5297473381157580 20.2013017730871205   T   T   T
 16.3274261058122789  2.5419151265408160 21.9380217784100644   T   T   T
 14.2704080411459948 12.4038673531062784 37.5039454850612941   T   T   T
  9.8046792240763541  5.1405875851683955 40.2732069823348695   T   T   T
 10.0850868337910331  8.3036329560730060 30.5201680114295186   T   T   T
 28.2279679751723549 10.2897897536362564 25.9834999223907701   T   T   T
 -0.3667465710902937 12.2713393319042261 22.7327556168168066   T   T   T
 14.5185427831926734  5.2954486978390136 22.5495713289037205   T   T   T
 12.9831605956328175 19.3669420577935014 46.1325233337870770   T   T   T
 12.9080484777802784  2.6955492630145557 30.0005930667912537   T   T   T
  8.0878538307198333  5.8661821268448957 25.9680690860108712   T   T   T
 20.5250441763218490  0.8802570639480850 26.4226176822423149   T   T   T
  0.7571417953893667  9.0948716833276464 24.2706170545118702   T   T   T
 19.0953512927108164 -4.9761645078415340 18.5363790535818929   T   T   T
 25.7195176810440387 14.6698046711467462 33.9447630508390290   T   T   T
  2.0650506770691135  1.2856925514878068 36.2602810712763670   T   T   T
 12.9356365178709183  2.0840977231277704 23.3454493780752586   T   T   T
 27.2306778733501460  6.2264919426444036 24.0380406776702280   T   T   T
 19.7569083514866293 -1.1660044555811460 37.3881667328987959   T   T   T
  6.9464577335686792 10.9817178132454920 37.5916129554601497   T   T   T
 22.5805551182284887  3.0321750585397456 18.0823388846336712   T   T   T
  0.8728450341967103  7.2964454668086249 33.9818750967282313   T   T   T
 16.4960679385526063 -6.9543446629328711 17.4593718105371991   T   T   T
 35.8135859299011727  7.1443672922387425 25.2588500700770489   T   T   T
 24.8224575334370527 -5.1355612357612657 28.9795554415821712   T   T   T
 12.9587139054352534  5.4428537619301078 42.8338016887443729   T   T   T
 16.4427602198176714  1.6356341632320797 28.3263998388689160   T   T   T
  4.0988170331798361  9.8104343552938431 29.8224089973083970   T   T   T
 10.0067806856642179 14.7382376714611247 25.5726434400259137   T   T   T
 37.1272034896198804  6.5937087278102089 19.4352885783128499   T   T   T
 -3.0865996110606200 12.6459065038987148 39.5702734478533245   T   T   T
 15.2913226012086341  1.0882968931743555 40.4215987161270931   T   T   T
 14.7809754181428552 13.4146192624159895 28.6289913793013362   T   T   T
  4.6328911532693304 10.9409944623355777 23.7481655798582771   T   T   T
 18.7201507579373114  5.2724490474267460 11.0115927077656721   T   T   T
 21.1760496095992323  7.2148737322543681 18.4299551511093007   T   T   T
  6.6033868912140061 -0.7225250618744055 22.2730090739243884   T   T   T
 15.8392738566415989  5.9018987055699696 39.8277120321501457   T   T   T
 18.2268018248666195 -0.5731688995106267 32.3170969669888564   T   T   T
  5.5623502971727028  7.1334429688640899 32.6823830272130351   T   T   T
 10.7111842972225073  5.1346974607537001 12.9337137639054909   T   T   T
 20.4785466243926138  8.8399793750461910 25.9790506153390410   T   T   T
 -2.2212149665868486  4.7218721038403970 32.3989551396143156   T   T   T
 11.4437470927421376  7.6257572282468287 34.7800912675299401   T   T   T
 22.1361482818854043  8.1375953233017242 22.5300601833843750   T   T   T
 15.1634810096699564 13.0885823092597171 24.1671089894673905   T   T   T
  2.8198631457594288 12.7739352562394970 24.8880008807385238   T   T   T
 23.3163680783224194  0.0705028457711182 24.2979467921038150   T   T   T
 19.2842171219680125 15.7355232165014094 34.8390140052927961   T   T   T
 16.9002187671893793 11.5148978389317413 35.1648063462907317   T   T   T
 14.0797439098757931 17.5649671354802415 25.9516534925214728   T   T   T
  6.2751500005856675  6.9488689879188392 30.0973578812889500   T   T   T
 11.3923467432363275  4.3359262585823561 32.0132334969601402   T   T   T
 21.3769828655611036  9.4827835915958865 29.2072875053584653   T   T   T
  2.6699451053130794 -5.0162791055850882 22.4715479105734879   T   T   T
 15.5717325422521533 12.3136050611524617 16.5065706407578183   T   T   T
 16.0859833350580104  7.4558928243234401 31.8770194444567032   T   T   T
 -2.1478657839264486 16.0347398554153706 40.9511162581783879   T   T   T
  6.5142533848505710  7.1837090295565593 23.0191705618379245   T   T   T
 24.6486477421365322 12.4917703033881970 28.6840956613497582   T   T   T
  3.4677693419755711  3.4472644208964112 22.6316009242759115   T   T   T
  9.9255147282283378 10.4350739633787661 28.5433724953373549   T   T   T
 21.0428347707543821 -0.2807336711301606 20.8920103710842398   T   T   T
  6.3256474582505042 16.0071082677277730 35.9257209836372482   T   T   T
  9.6323643462883073  5.2661280971995170 28.5122047565357590   T   T   T
 22.5740520814472845 28.0301587051203462 14.5341134802432173   T   T   T
  4.8514639154712356  8.4604655089385616 18.6987953762673946   T   T   T
 13.8816164257581249 11.2419091652235146 26.6144355352570514   T   T   T
 18.5063813207689449  1.4726947148435408 29.8680881326778689   T   T   T
  3.2469902461271869  7.3627433138530209 28.1186742625864561   T   T   T
  9.4971903256913848  2.6916150138886397 31.0902007844470596   T   T   T
 22.1098677190004054 12.9604224344007264 30.5721396411338873   T   T   T
  0.9734807806805359 -1.2775583439381406 14.3661483661804326   T   T   T
 14.9443872865836394  9.4191627066366905 22.2458478430506688   T   T   T
 17.2492821258616118  9.7431699625008186 28.7529354439822349   T   T   T
  6.8392264134640905 11.2951726364807143 40.0662123350654156   T   T   T
 12.6400129114788644  4.3706334599750249 28.1753255038966479   T   T   T
 32.3668127906960592 15.8212759422086080 25.4193360315497223   T   T   T
 -0.0922188195432205  4.9145547509187919 22.8080128369556832   T   T   T
 13.3982731334096385  8.9650967841296172 24.6056411489316744   T   T   T
 13.9434258656240662  1.1718029594590544 34.4837258968929348   T   T   T
  2.9154869810181419  6.1689270797852727 31.8642849240830728   T   T   T
  1.5460528965389091  1.1423097675459108 24.0804149768275266   T   T   T
 28.6381334991493048 16.6889128845100103 29.7425435202393480   T   T   T
  3.4748051851603465  3.7641181578202629 25.9721497925663876   T   T   T
 15.8195775053846202  1.0231617692225838 31.5009020743933519   T   T   T
 21.6862262984103040  0.8339126598793191 38.1789715726916228   T   T   T
  4.0474904415459534  9.0423517936042082 34.3515768845810925   T   T   T
  0.8685687889724033  3.3685622747008295 26.3211746164388778   T   T   T
 18.2339565906184760 12.5603303916169651 28.7244155398054772   T   T   T
 18.7953946905425298 -5.4662538343016420 23.7016078606585125   T   T   T
  9.1542129884764840 16.6316174384803475 21.9933797138730576   T   T   T
 12.5007453478542576 -3.2344802423437162 30.1008045303742016   T   T   T
 28.6844814648156685  2.4752687582176245 45.5919001529075985   T   T   T
  2.9620466656815929 -0.6824384048194923 28.3702610449644261   T   T   T
 16.9731715768701505 11.2483426088719511 24.9325620017529701   T   T   T
 22.0693968340127284  2.2148121738433124 22.5928508489044653   T   T   T
 13.1682214735834968  1.3084454266269763 18.2766105197520439   T   T   T
  6.6711792627657776 -5.9269153643040688 35.1276436295448065   T   T   T
 23.1820554711577103  6.1845238133346028 28.6566741470833648   T   T   T
  9.0214366489019913 17.0609160477995978 34.1039611553331810   T   T   T
 17.2591216233604143  4.9240103923136420 23.8262905893307106   T   T   T
 19.7023861258453721 23.1702134368232393 14.7691767992632812   T   T   T
  7.1638142353865204  8.4833044828338586 26.0342971434768344   T   T   T
  5.1460884812357257 19.4619426425780162 34.3309196072302285   T   T   T
 -4.1533537028894081  4.3382252014084459 28.2363807320262552   T   T   T
  6.3966140252960555 -1.0924567589745313 28.7545900426510386   T   T   T
 19.5386349907035992  5.7710130013599699 25.3030165924206258   T   T   T
 27.4972087865809414  1.2147658647321855 16.9657772202182286   T   T   T
  8.7693760344838516  9.0524780325016252 22.5737248282600333   T   T   T
 10.3021799511629908  1.6725848295700398 39.8496947156970265   T   T   T
 -5.9906015303799558  5.5393403032743258 34.8801497239794855   T   T   T
 10.2716654493833541 -1.3378598334134937 22.3092322073042766   T   T   T
 16.1509295200664411  4.7075381017177707 37.1383988375741154   T   T   T
 26.0264721402690924  6.4238618443891031 17.0769928110905305   T   T   T
  6.2378596315840769  5.6950228615918306 15.3864036241148803   T   T   T
 20.7501688183829529 -1.8679743233313164 34.6956619863015305   T   T   T
 -0.1491764627084185 18.8698569763772852 34.8169530832746830   T   T   T
  2.6192998756129406 11.9642297002072127 30.6940672673056731   T   T   T
 18.7939033029017395  7.3063994179133553 31.5639469706356977   T   T   T
 19.5841988108653311 16.0924601861309036 23.7506927971442146   T   T   T
  7.6944362584805761 12.6790058045552527 24.5282013575146500   T   T   T
 10.3722283375578641 13.9199377523357342 34.3045550780926902   T   T   T
 24.5990621565640950  1.8815817080490602 37.6808923351703555   T   T   T
 -0.3527064159996798  4.0911729854796581  1.9544935478610199   T   T   T
 13.5521607499420451  6.3613626352994537  0.4589522330000223   T   T   T
 16.3076384500264240 -0.3343241912934435  5.6013396154184392   T   T   T
  3.5458252116448006  7.7159436277130666  5.9277179849484209   T   T   T
  7.8052658970350173  0.2279173166269562 12.2497596083423943   T   T   T
 20.7372914076807930  7.4898655413683946 11.7807763284607940   T   T   T
 22.5366967764550452 10.9572747831457562  6.0534047089944547   T   T   T
  9.9059161040213226  3.7900769332304218  5.8873006213761858   T   T   T
 13.9746140731542017 10.3587998519509910 11.9404874381484163   T   T   T
  1.6667709690841062  3.4363288256660556 12.0998070902758776   T   T   T
  4.6496407474996913  8.9606879416939300 -0.3757099091535195   T   T   T
 18.7014850396470536  2.4677199323774008  0.5459881451882388   T   T   T
  3.6482168958834409  0.2280223710657847  5.7205067729964645   T   T   T
 16.2965798099957553  7.3391432849034262  5.5555751909037934   T   T   T
 20.4149109127352872  0.0452850268523114 11.7969771815036779   T   T   T
  7.7227607786441625  6.7618757674150363 11.7063144853910543   T   T   T
 12.5621020621508936  0.0717803022765680  1.0214509559201093   T   T   T
  0.5323795219335398  6.1285851205475224  1.1566197565833189   T   T   T
 22.7135651655335664  3.3779755970234171  6.2760269684522205   T   T   T
 10.1821106556440597 10.9856157871067204  5.8489005383177659   T   T   T
 14.3808689978197606  3.4017272998717920 11.9919853987515808   T   T   T
  2.1703236113867694 10.5203899697104184 11.9999165392075575   T   T   T
  6.7893176247119316  4.3237816609392672  0.4075248622867748   T   T   T
 19.4806097896635748 10.0575146998835230  0.9310762690729696   T   T   T
 10.7538158932472125 -0.7057919003635212 19.0385115170524877   T   T   T
 21.7841574741985227 10.7610772246525350 20.1996225314099931   T   T   T
 25.4098677792303462  0.1377293656415657 30.9326236100694771   T   T   T
 12.8964950588470924  6.9144156060707527 31.7299706299556661   T   T   T
 17.2669952051643705 -0.2635692524814549 25.8685258848769735   T   T   T
  4.5693207803995390  7.8470318012174616 25.4526123286067012   T   T   T
  6.4023922969850480  3.6174507645117697 31.4325011817308919   T   T   T
 18.9358097677230504 10.8930760932289878 31.9226932842254882   T   T   T
 22.9515008454058602  3.8058683466574470 25.3635774218829120   T   T   T
 10.1972789282910572 10.8634595253950046 25.8384119250536699   T   T   T
 14.6161507052942792  3.5726303726568860 19.8876970622487441   T   T   T
  1.8776124975854129  9.7473028138782674 18.8404698243539919   T   T   T
 12.3962106424087697 -0.3525927025451612 31.3357013299067084   T   T   T
 24.8944088798217251  7.3057110808191537 31.3759086419122326   T   T   T
  4.2728801758316308  0.2901132992157043 25.5187085579852244   T   T   T
 16.4452218292360968  7.4821029987851757 25.4137240822010142   T   T   T
 19.3507487707783383  1.6169326731576690 18.2665730472678867   T   T   T
  8.2713675160316473  7.9473526978118390 18.9727170208545175   T   T   T
  5.6921647989296229 10.8747458331212243 31.7706323005023670   T   T   T
 18.6456717011206194  3.5156508011570917 31.4504395693310173   T   T   T
 23.4011829641786093 10.8020021011957255 25.5002542931115208   T   T   T
 10.8536165135409384  3.6045771638658270 25.2882968353368760   T   T   T
 15.3474903916403242 10.3204910532976122 19.1995386928018341   T   T   T
  3.1107881774947557  2.9887779105889885 19.3504492831907342   T   T   T
  3.7183530704058176  0.1390195981554908  7.9063256054928646   T   T   T
 16.5747245280735811  7.3728277770691637  7.5717771111806069   T   T   T
 20.3834789867494877  0.0864717496640027 13.7785954660257364   T   T   T
  7.9275344449211502  6.8939298306984824 13.8337539372563434   T   T   T
 12.1379213066876623 -1.0532034412887366 -0.8677725680738955   T   T   T
 -0.0629509919012267  7.8947543770559045  2.2334744237583544   T   T   T
 22.1021103338413667  1.2738102414572321 11.1528255648021872   T   T   T
  8.8833983128046174  8.2080554383177926 10.8193338736146103   T   T   T
 16.2449217748703845  4.5654198762270788 20.4338785610674876   T   T   T
  2.7332743151067409  8.1085015482360632 19.5040520190749724   T   T   T
  4.5817223558319986  1.9507285829709033  4.8589316213008482   T   T   T
 17.1890123329797717  8.9497728419392928  4.8400394854526754   T   T   T
 21.1370822552379494  5.5045415541777603 11.0939126692219432   T   T   T
  8.3676635173270224 12.8631883523724220 11.3378747513981875   T   T   T
 14.6655943044443280  3.1932035537782437 17.7587346597532552   T   T   T
  3.4614530309835927 10.5532303093750208 17.6327293665092810   T   T   T
  4.1549536040725039  6.1009767735612499  5.0188568373518763   T   T   T
 17.2972885815050077 12.5583425127991823  4.8028981691724519   T   T   T
  5.7967301104076023  0.8103658785522125 11.7587507445067239   T   T   T
 18.6991505057158847  8.0153685827811643 11.5324671847084268   T   T   T
 24.8286740427080090 -0.0192028533660164 16.7147585583687466   T   T   T
 10.7126260851926176  7.3601841779486890 17.0875034912667800   T   T   T
 14.2278608783352460 -0.6349647674418366  4.7936427759605209   T   T   T
  1.5146943834937905  7.9149412116214179  5.5922797207818009   T   T   T
  1.7541824810258273  3.6904492209966975  7.8965293935775556   T   T   T
 13.9685486013914630 10.5688696987277986  7.3719532222248461   T   T   T
 18.2926287130563381  3.7293109740663684 13.7789189087714519   T   T   T
  5.2912337900291995 11.2674915905478237 13.9009131796678815   T   T   T
  8.8171811828767357  4.0584316107291061  1.2026672927358031   T   T   T
 23.7418536479134517 14.5191862787493449  1.5751284654191422   T   T   T
 22.0124591930075795  3.6982429731907396  8.1321024454185746   T   T   T
 10.1338247441646221 11.1028849718947100  8.0701547270246916   T   T   T
 14.1357313855637212  3.4213470150744318 14.1055875623990072   T   T   T
  1.5440516289576800 10.6647971666101888 13.9105010101544213   T   T   T
  5.5903901587961551  2.7462815386698849  0.7213771713523479   T   T   T
 21.5135195864140059 10.5905026688055131  0.9750898962240621   T   T   T
  3.0682056524887482 12.2531511606392698 11.5507638237820842   T   T   T
 15.6812251260581341  4.9163006416650346 11.4446836802438110   T   T   T
 18.3320178534625171 14.8963313887905180 19.5202605945272545   T   T   T
  7.4380805944305441  4.9154710501280858 17.2595738420706404   T   T   T
 11.1555111675919196 12.6941205036269267  5.1151651571574526   T   T   T
 23.4912475682362967  5.0965894059053634  5.6218951374320714   T   T   T
  2.5773073174477048  1.7215247934516256 11.3703985700407468   T   T   T
 15.1512912600112148  8.8380364561347449 11.1312560467226600   T   T   T
 20.4381177296501875  3.1706420635841490 19.6185427792653542   T   T   T
  8.5950811329513499  5.7624980818238623 18.9176164126455433   T   T   T
 10.8535098222226640  1.9661960057336536  5.2543918233068947   T   T   T
 23.3646279261761620  9.2471076326928845  5.1508249168368314   T   T   T
 -0.0825489081014898  3.8331895829203266 11.3558915465182331   T   T   T
 11.9242191668941153 10.3117317246376992 11.3456401406951102   T   T   T
 22.0925542861392046  9.6140918140539036 18.2639573667863360   T   T   T
  7.2334184197997144 11.0323767517596742 14.8596482061408519   T   T   T
  7.8304929224392001  3.8732007019544521  5.3800178432874564   T   T   T
 20.3967442486499664 10.9719462955391975  6.3983423931029568   T   T   T
 -0.8412570615534409 -0.3838282456271280 13.0934605271908531   T   T   T
 12.1804209973095166  6.8284484325662964 13.2325562629909950   T   T   T
 14.5969892129428338  0.3842093603895890  0.8024732181106935   T   T   T
  2.7546305264283819  5.9307670640388723  1.5979093439376735   T   T   T
  7.9413795448440290  0.0796178472419852  7.7688383492605535   T   T   T
 20.0667489762383937  7.2782119791653486  7.1270048038275062   T   T   T
 26.0056090185546012  3.3134950943647770  3.3121331001225500   T   T   T
 12.0620766869558302  7.7390205173650255  1.2275772291558278   T   T   T
 16.2209344666693980 -0.2998468536128188  7.5861660013265819   T   T   T
  3.6374380293947737  7.4981948691106188  8.0733884104429094   T   T   T
  8.3605623952204926  0.0896644615296848 14.1956062727556276   T   T   T
 21.3176333562406057  7.3399217028114165 13.7587623975761630   T   T   T
 21.9523253145682915  8.8678362887527094 10.9396547766247849   T   T   T
  8.8558205835112833  1.7411577757564407 11.2325667402922296   T   T   T
 16.6826874067069539  8.9199722984519774 19.9358138807170562   T   T   T
  0.7019524566710893  0.0436935493818772 18.3938890456391313   T   T   T