Li P  S  Cl
 1.0000000000000000
    25.1819793006824639    0.0000000000000000    0.0000000000000015
    -0.0000000000000009   14.5388225279766061    0.0000000000000009
     0.0000000000000000    0.0000000000000000   37.2126966544236950
 Li  P   S   Cl 
 287  48 240  48
Selective dynamics
Cartesian
  0.2933844902104302  1.5614044640123932  8.0672528783142123   T   T   T
 14.4658989384259016  8.7951876944623280  4.9298077682232728   T   T   T
 19.4377014595573598  2.2776955899102442 11.4114201330105800   T   T   T
  6.0584564499690314 14.1872160448209250 13.3820143948520798   T   T   T
  8.8612784022228688  2.2326430448645547 -0.2780116365819085   T   T   T
 22.5617573258719304 11.7829530866909238 -0.4573814553217509   T   T   T
  4.5886122951448955  2.3147940892858903 14.7078388596528420   T   T   T
 13.1792099777625396  9.2088798954444115  8.1742230658132815   T   T   T
 15.4334677894006145  5.5162504773355749 14.0223439834196064   T   T   T
  0.7612195766555566 18.7141220412079967 11.4047834380897406   T   T   T
 12.6489085243084656  2.0857367368361217  3.3573999684676044   T   T   T
 16.0812121959169971 12.8200562774839852 -0.4999716673555811   T   T   T
  2.1193766474406606  1.2791187108949529 13.1768026881702696   T   T   T
 18.9715637214093107 13.6466189569621719 13.5889208835436364   T   T   T
 20.9793755097234822  1.3042205631487320 16.7340650975636436   T   T   T
  1.2838627878278017  5.1251142035708943 20.0433661747214273   T   T   T
  9.5687243661493362  3.4720916134247424  2.4084648368233674   T   T   T
 22.3029785422077040 11.3144707384142578  2.7375796329352577   T   T   T
  1.5138949689815744  4.7329611891785994  6.1348140239564639   T   T   T
 14.2537625818770994 11.5199826847346252  5.7051747116343750   T   T   T
 21.3342798495530701 10.6974534228141174 12.4474598524099012   T   T   T
 14.8701208194115395 14.0836417790331083 17.0671763551221041   T   T   T
  5.9138628827676278  8.3713167909842809  0.0058145817256632   T   T   T
 27.9836003004240652 11.0587409197071906  0.5652176910405798   T   T   T
  4.4331910669270878  3.9578416016768712  6.8133242272339141   T   T   T
 15.7682580190822339  8.1075347930277566  8.3164927009621916   T   T   T
 24.4531037743159700 -2.0584103292988085 12.2195997189412182   T   T   T
  6.4731379500427124  6.2564859214232174 13.1243886328409847   T   T   T
 13.1541659421831660  4.2210596337027440  7.1096852326591851   T   T   T
 23.3673738307720100  3.9728783000564385 -0.1476377785628978   T   T   T
  1.6859065597409086  1.7213439738976459  5.1286851809503862   T   T   T
 15.3439157129963775 11.7554027072024994  8.6318192954450499   T   T   T
 16.6250061529427384  8.3098124278348209 17.0116823785351698   T   T   T
  1.6100929363213143  9.0393022752419760 15.3100301783543635   T   T   T
  7.9823325039438640  4.8884435220634366  5.4546906062084899   T   T   T
 24.6499858826757787 12.7568288193533341  0.0531759787387618   T   T   T
 27.2557758299598589 13.3507020005619417 10.7460308434183780   T   T   T
 10.1694571072088227  9.3510243200901897 16.0017292112680813   T   T   T
 17.4875559458343091 10.3300172432358188  6.5814429543172785   T   T   T
  1.6077260483813864  3.2025920203959486 -2.9667071987289182   T   T   T
  6.3844380970399426 12.6203403044104547  7.1494245328123256   T   T   T
 20.6623828482849987  4.7681966819274191  6.0342045184006876   T   T   T
 23.5089791515779254  0.7476351072774541 13.5628803201924537   T   T   T
  1.2063825653995066  8.3972445086840146 21.2546043654934849   T   T   T
 15.0933228950070450  0.6287754574193517  0.9074961261384884   T   T   T
 -0.1318260182309201  6.3302115495377000 -1.2840101957955945   T   T   T
  7.4868968956230271  0.9513001299555400  6.4506678899299557   T   T   T
 19.4461847551421840  6.0982053906787428  8.6052431899446269   T   T   T
 -3.6384411210341874 -1.5707029501499301 21.5201825622706870   T   T   T
 13.8057915045487558 16.8918707069484242 23.2681728214130956   T   T   T
 17.8715986290557467  0.9505034481643593  2.8108008304449390   T   T   T
  1.1192520170272369  9.4226188431425193  5.0601891126281879   T   T   T
 10.4339315944088877  6.6244945079726953  5.6121691259614357   T   T   T
 23.3619618763029067  7.0084750131731974  6.7671667066373589   T   T   T
  6.9595755120517451  2.4903989533668431 18.8690993935016280   T   T   T
 13.5920966218254513  6.6836546142003490 10.6931514194097357   T   T   T
 21.2466660833109060 -0.9914992074824178 -2.6147021732700462   T   T   T
  5.1962281436179429  8.4361088252794012  2.4310601803666114   T   T   T
 11.2561187774442217 -1.0349389121991457  7.2688476589532405   T   T   T
 23.2029907245388358  6.2486640688594868  9.2725503588711984   T   T   T
  3.4835567650151122 12.3425058200043729 14.4864681070149537   T   T   T
 21.4034184201265347  4.3784941844636958 18.3940146896152790   T   T   T
 18.4812639726731405 15.3982292684055793 -0.0416145829637708   T   T   T
  3.7595999916881166  5.1888812026853435  2.7597161141546813   T   T   T
  9.2190406185757290 12.6231049335633969  9.3907273508808480   T   T   T
 18.5617779966673382 11.0743438265268708 10.4536388176340722   T   T   T
 18.4433977491284367  2.7796514133345545 20.1090067929130925   T   T   T
 14.3423992477007030 14.9960814410589336 19.8960253816132209   T   T   T
 14.5302667761486006  3.2791433055060670 -3.2880019932426960   T   T   T
  2.9624758726736466  6.3801524116957395 -0.2852339275753743   T   T   T
  9.0952334384006246 -1.6522139156944637  5.2620085948011921   T   T   T
 20.1327943139151841  8.5535482229137330  6.0536475994161014   T   T   T
 -3.8806930340960530  8.8423359758325262  8.7960663168924000   T   T   T
  6.4352881568260756  2.2605510082744216 10.8030574658464467   T   T   T
 16.0178749527944575 12.0535900197698886 13.2732524582086633   T   T   T
 13.0122938892043081  2.9770746278562958 16.0621467288213324   T   T   T
 13.0244648494828041  8.8535429283114517 -2.9559791939963453   T   T   T
 26.1131331803842812  0.8320993553215128  0.2449354748446515   T   T   T
 -3.1258007681815401  8.6715955770608986 17.1264824542463394   T   T   T
  9.2545429062310038  1.4879132229802647  8.6127689042331230   T   T   T
 19.0817739723006667 13.0106661821287304 19.2269927045363787   T   T   T
  3.1243134886632196  0.3521810983802370 16.4769596935909206   T   T   T
  7.4141716466214360 11.8925261582309645  3.1931740151679762   T   T   T
 21.6203349620516860 -3.0287510048076718  7.5026251593542952   T   T   T
  3.9014903995604318 10.5184989003115454  8.7869002701901859   T   T   T
 15.9278234102808174  1.1301167866103741  8.6034319702931619   T   T   T
 20.0562720404673485  8.5880218561373312 14.0626612473349422   T   T   T
  3.3502142276070868  8.7008136191282510 19.1695155655572869   T   T   T
 12.6454048520484985 11.1624157215737867  3.0187164765958521   T   T   T
 15.6422340787076681 -1.7538371746672377  2.6646091035923378   T   T   T
  3.7349558638384326 10.2665913817644530  5.2044903515040692   T   T   T
 16.5454295671502933  2.8686507892851125  5.4250786107709095   T   T   T
 16.9109698235903565  8.9260649773281671 13.2452800224791964   T   T   T
  2.5443562080618540  7.3690161057665291 11.9771973789168165   T   T   T
 14.7137078493128293  6.2667233322268165  0.3572535682147150   T   T   T
 23.1520482806739878  0.0688101838534589  0.8216308942769769   T   T   T
  2.1077177713099720  8.0707713646971087  8.3424246147901115   T   T   T
 14.1616731930231481  1.0186414604194511  6.1118536377772772   T   T   T
 19.1666453052456589  9.4769853437032587 19.2321819636861910   T   T   T
  9.5663348128030457 11.4253820496526401 19.0258247190158052   T   T   T
 19.8955269154445133  8.2412194403619772  3.0686682404566499   T   T   T
 22.6258292293000096  4.8107762602560751  2.6826690325403004   T   T   T
  0.4408328675008830 10.8947738005283412  8.6480749307629825   T   T   T
 13.3586590846273747  2.3655420919795724  9.2321481994730998   T   T   T
 16.8106106616407516 12.1407630093933392 17.3018716631839311   T   T   T
  7.7498981447635247  9.6495320369584547 13.7779823187410368   T   T   T
 11.1663015837300499 15.2586954818981653 -0.2198353805907026   T   T   T
 21.4885638956115841  9.7766677082146600  0.3310115175971194   T   T   T
 20.4011865812278543 16.0020469976787716  6.9190919344847499   T   T   T
 10.4873817416569803  5.0956754768232724  8.7896595114222791   T   T   T
 11.2782233308454920 10.4177332262375621 11.9825404178313075   T   T   T
 21.2717046419940132  3.5022191645446394 14.6342804403717004   T   T   T
  0.2359589106378739 11.6252755539278354  2.6066402745846409   T   T   T
 16.0993125358669076  4.5940925901280574  2.4018033953809002   T   T   T
 16.6534569764246214  4.2746126597065359 18.2284378626942427   T   T   T
  5.9082950100295388  9.2908832486810411 10.4217292679609734   T   T   T
 12.0251928970759092  5.1125839930740771 18.5237223058964098   T   T   T
 20.9420351916328897 11.3894001061212577 15.7824561400943271   T   T   T
  3.6217434868497578  1.2176550996062581  8.1351675924248070   T   T   T
 17.2055342456556843  3.7362444889031514 -0.0902471257432504   T   T   T
 20.2699542409719697 -1.1451306138833661  5.3312827328936088   T   T   T
 11.4829510341657866  4.6887627774138085 12.9027405203031478   T   T   T
 17.9274341251641829  4.7052075492234007 12.4083880521761376   T   T   T
 -1.3872746711337285  5.6841275031734009 14.7956141310068823   T   T   T
  7.9066119534634023  7.7815354994937600  3.7668776357665466   T   T   T
 23.7485214741397925  8.2527369996803053  2.6953100600531981   T   T   T
 23.4424893312891243 -0.4682596324339947  6.0435165762662457   T   T   T
  7.4162266149039242  8.9265879178143770  6.4866151836717547   T   T   T
 15.9748742242338491  1.0832833704924554 13.1915863814322591   T   T   T
  1.8351876575403592 10.9434882286029307 18.0499968092468031   T   T   T
  6.6920629012784820  0.6522961438480824  3.1193138948217816   T   T   T
 19.1974258261130402  5.0803317429154999  2.4713391329982599   T   T   T
 22.9383894233139998 14.0540459167611083  9.1588083757172978   T   T   T
  9.8404082118059666  7.9236905656389602  8.6908243665068916   T   T   T
 12.0630861358884207 15.0012979411757108 10.7098674620956178   T   T   T
 -0.1653692777632778  1.3623613229218499 16.9943810651678113   T   T   T
  1.6487038407525310 12.3783787947510646  6.7853845678425486   T   T   T
 16.5842661582444961  4.0498505037479759  8.6293906773801350   T   T   T
 19.3110832928210598 -0.0381780799533619  9.1374931232383503   T   T   T
  6.8422695436940684  5.9580044605596507  8.1561695426545739   T   T   T
  7.1521180926104488 -0.1922566958817648 17.4666668187320120   T   T   T
 26.1660203695350404  4.1414009425507246  8.6121502167229593   T   T   T
  3.5399274207757889  3.3616021341505942  9.8264492251155957   T   T   T
 19.0932223311730667 12.4956841828155305  2.5967473647486181   T   T   T
 10.3597652906900013 -2.4153783119473768 28.3790741483402478   T   T   T
 16.5398696026356689  6.9551852691922100 29.2034832947678211   T   T   T
 23.3260366887845692  3.5540503940864370 22.2147798767990494   T   T   T
 12.2407708342845218  6.2881033145043173 23.5221260649650503   T   T   T
 11.3331327690263652  1.3416251252411757 34.4210498469447899   T   T   T
  3.0844086022516333  9.4614002271677400 34.5528860055724678   T   T   T
  4.2453960472366354 21.4033278023086169 23.3013196816858965   T   T   T
 17.5985405187187141  6.6847145013297018 32.4764509658962410   T   T   T
 25.4710444783730452 14.0735982370068342 23.5261186970612997   T   T   T
  8.5195960651805560  6.5381990119680315 22.4694689349901111   T   T   T
  9.0188792932124873 10.0092892451397368 38.0556985139273607   T   T   T
 -0.9698458345936326 14.0892809462947390 29.8767894008395203   T   T   T
  4.6167396067458908 17.3024920360507046 30.3584797665491273   T   T   T
 18.3450310000786772  5.3485758200030924 30.1810176638937868   T   T   T
 29.1149467975046434 17.6487924198850088 18.3732775382344897   T   T   T
 12.1950607177136536  7.6393458225452866 25.8479910385302780   T   T   T
  9.2954390649901022  8.2458546034032878 26.2587241070736184   T   T   T
  5.2898423122911549  6.7260254945036273 31.4049970057624925   T   T   T
  7.3521225434634720  0.5052264234217347 31.4739317978440383   T   T   T
 18.5446847294301591  9.7227743343046527 29.2586446744615394   T   T   T
 27.7924967747988774 19.7232165418108600 15.6635818513309619   T   T   T
  9.9152140906035964  5.6978827646655779 24.6019957717260063   T   T   T
 12.0562158154481054  8.5033794481381406 37.1042275119871547   T   T   T
  3.2441020328052050 15.3634230389211233 33.4033675334217151   T   T   T
  4.3006408709210522 -0.8738820891154817 30.5745872588890819   T   T   T
 20.6567692097907383  7.7844748643936246 31.1281280985428879   T   T   T
 17.9529736646122018  1.5990124286019713 16.1412043565727927   T   T   T
 18.4440923223958819  4.5764432070710930 15.0086026211652150   T   T   T
 15.9690302826120778 -5.6895197511290130 34.4568339298248318   T   T   T
  0.1769750177779828  9.0507500932532032 34.1978853534836276   T   T   T
  5.6837111753410010 13.8053100268824025 27.8562477689904640   T   T   T
 19.5212529643372790  7.1470795905201872 28.1670209575458905   T   T   T
 18.1489377771332414 11.1505438684958094 26.2213930052288475   T   T   T
  8.7410703807240449  9.6689666716003337 24.2821932494837505   T   T   T
  9.7829840185211587 12.8279997326191193 34.1941442406900720   T   T   T
  8.1208195559551992  6.5883993743359888 34.1659896287483704   T   T   T
  6.4162334432207437  4.5819417673236416 24.6385595986851271   T   T   T
 14.7484576408035579 12.4591188024644488 23.3506798604200299   T   T   T
 17.9506477605687067  2.6023721764616115 30.1374667501527043   T   T   T
  3.2706500925186694 15.1383569592419747 39.2402879212216007   T   T   T
  4.2158653085925772  8.7795966742533480 28.1687890900179312   T   T   T
 26.5424522010721446 11.5525608951511636 31.3991608769887556   T   T   T
  1.9170903111373032 10.2520716584912819 23.8409641870195763   T   T   T
 15.4903761908240725  9.6147099313294468 25.7682044516969704   T   T   T
 19.3222544766196620 -0.4504757528368912 31.4618574349836173   T   T   T
  9.6117990792659640 10.3632407399644286 34.6199031799660659   T   T   T
 10.4211805395367811  3.0205347871459720 29.4410518633738292   T   T   T
 26.3000163977473136 11.3016676848703277 28.0312203628742544   T   T   T
  3.4175206349851641  0.6746918144198825 20.2134436121976968   T   T   T
 15.6457257876193463 12.6176421205971003 26.3260311951558776   T   T   T
 12.8945007924874737  2.6733512005229429 37.8127292164303412   T   T   T
  3.2693248026938870 12.6032210137835783 40.3503806957459261   T   T   T
 12.6146139533082771  1.9047995914115383 28.7935667563140569   T   T   T
 -1.6773994305608724 11.2864977026020625 31.7953082346789131   T   T   T
  2.3206059801372745  4.9859710978795935 26.4717329540250788   T   T   T
 16.4145445960322007  7.0663940850085565 20.3749980249208456   T   T   T
 21.0018491503375273  1.8873799661852044 40.4573520958264439   T   T   T
  7.6216003246113759 13.9281352334503232 35.7729076899815013   T   T   T
 14.5734896319950842  4.0553596200722248 30.4018654603439593   T   T   T
 -0.3954274716335436  9.1073856944263945 29.4384748982855520   T   T   T
  9.0383645852023413 -1.8059866157215680 24.3843099640591987   T   T   T
 20.9964967751730356 16.2312588870816370 23.1051898839295617   T   T   T
 20.4263197355639434  5.5818615719866749 33.9542710935127516   T   T   T
  6.0714553764626435 11.1554971693667859 36.7895178241379313   T   T   T
 12.5218215846717786  2.6745804472923687 31.7655560546853835   T   T   T
  4.9404003276235544 16.5236327387159427 27.8330976202399789   T   T   T
  6.2845874013277143  2.8516683765151143 22.5106742477545652   T   T   T
 18.6937779533190138 12.5647279875693023 23.3887992640768303   T   T   T
 20.9759096252321129  3.2968142770738700 37.9935317963926167   T   T   T
  0.3261816930074664 13.5964426338114635 34.4940228403896398   T   T   T
 11.7924301625084915  5.3644441098650688 31.7052880812680336   T   T   T
 22.9477317089921087 11.5021711068463723 28.4677227207762975   T   T   T
  4.7702496512176289  9.8900049944903046 30.5025139947030297   T   T   T
 18.3529532989621345  1.8003352783263302 27.4806031380048346   T   T   T
 22.3246064104608877  8.7409730351803248 26.0785795761956436   T   T   T
 10.0007682949235264  2.5855118108287445 23.6975701448936569   T   T   T
 12.1653183903247282  5.8956281071181058 28.2612939721826706   T   T   T
 -0.8301210500691324  1.3309135786422914 35.1402908755727381   T   T   T
  7.1445913911931678  9.8041923841580498 28.5290540000668926   T   T   T
 16.6062497411807470 13.7282731092033110 30.0954453290491202   T   T   T
 21.7169538956971877  5.9017932101544597 24.7712459638445921   T   T   T
 12.3153982328795628 14.7257592707863196 24.7791717660504816   T   T   T
  3.0935210279688339  2.5481106906850397 37.0229971907963815   T   T   T
  6.7821471120332806 10.0336823036266765 33.8772748934149064   T   T   T
 12.2926522246508227  8.9209104767740293 22.5374813642848721   T   T   T
 22.6643438614762260 13.5336407865542938 26.0599643918165249   T   T   T
 22.5598714224913834 10.2578644608272747 23.6309704371020359   T   T   T
 11.5076624908599658 13.1891044131390345 22.3299704751989125   T   T   T
 18.9145712527613057  6.7151853422913357 36.8836585743021104   T   T   T
  3.1852259673266814 13.5866854619941932 35.8207631974173353   T   T   T
  8.3756743065261876  7.1985838725614020 30.2747286267441567   T   T   T
 20.8358009204843810 16.0028795525073377 29.6588308509798964   T   T   T
 22.8061500630887863  7.5625989342164077 21.8203677127231757   T   T   T
  9.3008084570491327 15.1061404310857128 25.8916988095229961   T   T   T
 16.8463327281573712  7.7913475801275309 39.6245189810116116   T   T   T
 -0.8093031534784912 16.6378377425063206 40.0919503844108363   T   T   T
  7.7461778898191369 16.5585799412834405 28.6914430839090393   T   T   T
 19.2116503392373801 18.5641612744026148 24.2698311706706100   T   T   T
  9.6910000070252291  1.9777554489850320 16.3117750701532813   T   T   T
 18.8882287164713389 12.2142375289097629 34.2766263247436598   T   T   T
 -2.6331729888922744  3.1052023536827198 28.0652616405535582   T   T   T
  6.0797386325169205  6.1546730914084620 28.3665755815263729   T   T   T
 16.9795319246560652 15.0166479955567098 34.1916192569787114   T   T   T
 24.7831950104476064 16.4385466959368216 20.2090361453078842   T   T   T
  8.2644481945989234 14.3249712482529610 22.1210486381331854   T   T   T
 12.3345860852863449  6.1375508928563818 34.7349007685257405   T   T   T
  2.4129593937787743 20.5689172004259646 34.1855231305062190   T   T   T
 23.9641884307878001  6.0942718692678444 27.9095453933564457   T   T   T
 13.8603328563817616 12.4721383882646997 28.8119529392241240   T   T   T
 19.7326038112381426  6.0694615563323282 21.6263096094016447   T   T   T
  2.1058817747778464 17.2294512619661084 23.2714816114023932   T   T   T
  5.3432987347356216  3.8488669057994214 34.1502185981035424   T   T   T
 14.5567864846680219 12.2750714848571008 33.9775263187660528   T   T   T
 24.9196584529846135  8.2337835310460328 24.6149809927618399   T   T   T
 12.9845319969259112  9.8352356669605712 28.8743075484612888   T   T   T
 15.5197767789848893  5.9869103073665517 24.3136090377582548   T   T   T
  4.1517918071770854 14.2888082066390254 23.9489409038810273   T   T   T
  5.7509712854673118 -1.8662888296929396 34.3271817382692745   T   T   T
 15.8484692549979478  9.6536211302618575 36.9382562664849488   T   T   T
 -1.4069757523030757  5.9166217477760084 30.7332548203468043   T   T   T
 12.8162048212904036 10.6289114062701984 32.1073175390034109   T   T   T
 20.0615530074303834  8.7416087600901591 23.5301481486319481   T   T   T
  9.3089999046555540 12.4434024181714058 13.7867298979897370   T   T   T
  8.3613386448303988  2.6369254843157335 34.3825371308955710   T   T   T
 18.6504707847312687 11.8405123181262653 37.1818139044802294   T   T   T
  2.0477134498237923  5.0397944448601679 30.0481024764519589   T   T   T
 10.8168082216740125 13.3438418024416379 30.8493520805597257   T   T   T
 16.7023823821683592  1.9064365272347643 23.1095281659647505   T   T   T
  5.6969472916426147 10.8073380625393476 16.9329795578306772   T   T   T
  6.5393105384865926  5.3943404952653031 39.7084668495247186   T   T   T
 18.8520062470465675  9.4720460661606545 35.8415652982462447   T   T   T
  1.1210419373306992  2.8821296141364492 28.3515154211465834   T   T   T
 19.8956790722924524 13.2248239873791356 28.3766620210066591   T   T   T
 13.2122050410517815  8.1316809103755681 19.2649312021198824   T   T   T
  7.7062862887340806  9.9324071197801977 20.9618954023110682   T   T   T
  5.4761010253369689  5.4948538450804802 36.3251797594067796   T   T   T
 25.1495709850901861  8.9533991849581867 37.2165870163937029   T   T   T
 24.1278711125967362  2.9383137410987885 31.1687437265879907   T   T   T
 10.3666153842861082  9.8517037220482813 30.3496417478330365   T   T   T
 16.8667299680590475 -4.8266150161943253 22.7776410166064203   T   T   T
  5.8981768656543601 10.5624395209524913 22.9046892888002276   T   T   T
 10.6744424599779890  0.2348225625181569 40.2524575321536844   T   T   T
 21.7992738960768193  9.6999893962733630 34.4949194318169248   T   T   T
  1.8115690847776675 -1.3866872672377117  1.1170302105928258   T   T   T
 11.2941052390540069  6.1529677615117953  1.1210258015455687   T   T   T
 17.1944338493001752 -0.8662580932068747  5.7271809828404683   T   T   T
  4.5477091622835095  6.6088582195294405  5.4373563236040292   T   T   T
  8.4736472973730983  0.5527662663746450 11.8082779156473148   T   T   T
 21.2848455452492118  5.7928557620042822 11.8100106818532549   T   T   T
 23.4399390811783377  9.9111371646079398  5.6439266819760308   T   T   T
 10.6535760869540450  2.5977589632185305  5.7271534803973205   T   T   T
 14.8547466401835191 10.1009502495518255 11.3657423330899583   T   T   T
  3.4153109416411453  4.7744741554986083 12.8536344092139263   T   T   T
  9.8778326122767393  7.2090498525763573  0.1598623332960773   T   T   T
 14.1518963164030911  1.5215596209411244 -1.1355983495594397   T   T   T
  4.4575152262643343 -0.6233108649454545  5.5516956932884058   T   T   T
 16.9956175021345004  6.5289382594766607  5.3873374114976915   T   T   T
 21.7315434480464162 -1.1652151682534908 11.8363022503133770   T   T   T
  8.5450453023843558  7.4402793972420120 11.6980822210658069   T   T   T
 13.5770005107594471 -2.4383435872565888  0.3838317591531435   T   T   T
 -2.6637926053708778  7.0943136170799557 -0.0953893567626697   T   T   T
 23.4941096222877306  3.0431824540553891  5.8835320754023748   T   T   T
 10.7531700484303894 10.1389349358417569  5.7610075253050059   T   T   T
 14.6177190362484737  3.4134187087245440 11.6412281464451830   T   T   T
  2.8354308538875643 10.5899367220913980 11.4007441738016979   T   T   T
  5.7058605374247922  2.9714745698705642  0.6201733931797505   T   T   T
 18.5285565975699527  8.7290583815123419  1.0469575066985024   T   T   T
  3.6780917351210496  4.3376721200918826 21.4973467372422320   T   T   T
 14.9261160941174840 10.3139105689680122 19.6603173140960799   T   T   T
 20.6909611185060385  3.9007340335959890 31.5755678456508910   T   T   T
  8.1167647073164062 11.5664876008272479 31.4336262380960605   T   T   T
 12.3578175820269536  3.8755904287589042 25.5272847512609324   T   T   T
 24.5256923508167759 11.6054012829343840 25.1190656057838630   T   T   T
  1.7830923345006047  8.0325029116927809 31.3051849391486066   T   T   T
 14.4193683564450623 14.9467040387623804 31.5953379153128253   T   T   T
 18.3153090967139747  7.4987237528307267 25.7167366137638922   T   T   T
  6.2344433828699053 15.1400396457184350 25.4954905842792137   T   T   T
 10.0501000352050269  7.7549339099707879 19.7886408653066930   T   T   T
 21.2383135048010416 15.8927677822114788 20.2272006755173521   T   T   T
  7.9464210287438899  4.1232897626934575 31.3068545818354060   T   T   T
 20.4854556892959181 11.1555804276438728 31.2862915713862186   T   T   T
 24.9564556670331115  4.3644779891289236 25.1735448442876262   T   T   T
 12.4569137645766812 11.1766552748181169 25.4049603005306963   T   T   T
 16.3832147817189338  4.1925463521016155 21.2816140714544879   T   T   T
  3.7525912810505622 11.3603037309632420 20.8530840998711646   T   T   T
  1.5559246050180151  0.6338212035185317 30.9998769681018054   T   T   T
 14.1432181185266703  7.7686359733611203 31.6735839706933255   T   T   T
 18.9326680305750870 14.8942949619840626 25.3908171228877890   T   T   T
  6.4128933109843018  7.7759465963248351 25.4938463957455959   T   T   T
 11.1519946935372758 14.8484451578832264 18.7162016849305211   T   T   T
 24.3685712870018847  7.3352682001172820 18.5029049750442454   T   T   T
  3.8457253238678830 -1.1789069109714025  7.4058353992865076   T   T   T
 17.1164981906178539  6.3538670980120013  7.5424254632881791   T   T   T
 21.8861424240096909 -1.4232979187285653 13.9039265175781228   T   T   T
  8.4993963709271316  7.1040020291367405 13.7489186064395223   T   T   T
 13.5018828557795008 -1.2039397996901668  2.0627602508370155   T   T   T
 -1.0087646318493440  6.6587341162932159  1.1394513838489841   T   T   T
 22.5685564353533223  0.4867121891629297 11.1208078762331741   T   T   T
 10.4431090780597202  6.9123417890424177 10.8118552973656286   T   T   T
 10.0299028059135242 -0.0447330177716278 17.0729701653171482   T   T   T
  1.9123323120824087 12.7480943881609718 16.2620575590742575   T   T   T
  5.4373479862463912  1.1101198605871865  5.3680202178799856   T   T   T
 17.8468858625281612  8.3040555429809082  4.9262315599007804   T   T   T
 23.1269194499590398  4.4190777852411776 11.3755671329380768   T   T   T
  9.8668649228355179 13.5440372024319018 11.4044464671206960   T   T   T
 14.2908765066285888  4.8689139376675703 18.3762321325825368   T   T   T
  0.4573274524906140 14.2020549837836860 13.2292423449490517   T   T   T
  5.6954502031467751  4.9743507029595060  4.6741418804144033   T   T   T
 18.0410774705892294 11.9406805807867791  4.8178024312401586   T   T   T
  6.6694935878528110  0.0245238965131773 10.9384560801353370   T   T   T
 19.7330827461931761  4.8520994136696416 10.9918559949664214   T   T   T
 25.4722013312680815  2.2652760693015161 10.2784839851798253   T   T   T
 11.7952372611389844  7.6022874208848217 17.2284808478592382   T   T   T
 15.2556281175630080 -0.8944331195098042  5.0511688807083424   T   T   T
  2.7169942266416780  6.2711380976482687  4.7379791246062357   T   T   T
  2.3468207132703887  2.7693342250564399  7.2825396793775949   T   T   T
 15.2137758126650944 10.1228498010465522  7.1187239637471293   T   T   T
 17.7190446177283647  2.6101459805739293 13.7843355016488189   T   T   T
  6.5801140807934546 11.8599362588136081 14.3857361373102908   T   T   T
 10.8857602570011931  2.1031256162840357  1.4166117810416707   T   T   T
 23.6518483961023662 10.5673705662638255  1.2439325916656936   T   T   T
 23.6081731911903034  3.2647117782923463  7.9390363770889705   T   T   T
 10.6789958592110583 10.0646844136349927  7.8736915356521235   T   T   T
 14.6340192010180150  3.3787463926234440 13.7544521642701696   T   T   T
  2.7591555865332338 10.3152834413732748 13.5097375949736289   T   T   T
  6.9860601580205293  2.9446231774232308  2.2727543451311920   T   T   T
 19.5508636153015445 10.3194777817960848  2.0438558982914561   T   T   T
  4.3152659041516763 11.9955186115601293 11.0373126516731190   T   T   T
 15.8561765679056155  4.9347646439363615 10.9520707810886151   T   T   T
 19.5865854431004820  9.3218082113146501 17.1474706896811497   T   T   T
  3.0307863216565716  6.4021895584574775 19.2278702864637161   T   T   T
 11.7320220513415556 11.9429329925689487  5.3149694750001730   T   T   T
 24.2660957814502964  4.7910918813900301  5.2040134154746767   T   T   T
  5.1128557295195138  3.7154298979932627 12.7385597599013298   T   T   T
 15.7795162772969100  8.4439894852439039 10.6026821571411833   T   T   T
 19.8402558485512444  4.3471727182698485 16.7591767423188145   T   T   T
  8.1769870196444643 10.6484674177823777 17.0737065788343898   T   T   T
 11.4079095296982818  0.8180083097667139  5.0944305314316018   T   T   T
 24.4513197765884271  8.2339651552997317  4.9351777485169110   T   T   T
  2.7538081768293274  5.3816542957044122 10.9283307328584751   T   T   T
 13.1271965823195984 10.5185497176438822 10.4050709003959625   T   T   T
 19.6573769437332402  1.6590567112223116 13.7295864700167733   T   T   T
  7.9808175489140849 12.3958425103890946 15.8685610650755962   T   T   T
  8.7175687302522000  2.6283916042544231  5.4753086219418350   T   T   T
 21.5318330639700477 10.1500121747560712  4.9285445790267532   T   T   T
  2.1255585188752928  1.3763887560649863 10.7767906929688166   T   T   T
  9.8381768688619431  7.5421358488651613 17.7696828807055169   T   T   T
 17.5699076233030453 -0.9872860559091792  1.2071351893370268   T   T   T
  4.8861624214761319  6.5786744368639809  1.2799879071319746   T   T   T
  8.7145626035624524 -0.7559240779697425  7.3791999594034783   T   T   T
 21.1518092733693450  6.8537384538452262  7.5522918379150301   T   T   T
 25.1224111233165033 -0.5648442193154548  2.0037134690871725   T   T   T
 12.3135767673060332  4.8888601520921551 -0.2455052708634967   T   T   T
 17.1429461952583964 -0.8776586764500498  7.8946718219112579   T   T   T
  4.6483536587414287  6.4100438152564907  7.5114533171339968   T   T   T
  8.3094281548366613  0.7250096147405033 13.9192524668998043   T   T   T
 20.8254427856400923  5.5368288711747571 13.8462502150179159   T   T   T
 21.2283336119093136  7.7888357881819426 11.5240307812632814   T   T   T
  9.3902657904249729  2.1429321245620425 10.9020066997929597   T   T   T
 14.9786316844110967  6.9492289010456796 18.2867167748675712   T   T   T
  1.3781775243145691  1.7491602135271345 18.6503199682987528   T   T   T
  5.4600483662472818  8.5077994563592689  4.8368917403465161   T   T   T