Li P  S  Cl
 1.0000000000000000
    20.5609999999999999    0.0000000000000000    0.0000000000000013
     0.0000000000000033   20.5609999999999999    0.0000000000000013
     0.0000000000000000    0.0000000000000000   20.5609999999999999
 Li  P   S   Cl 
 191  32 160  32
Selective dynamics
Cartesian
  1.6464076969412242  3.7131343658592377  4.8896472672684546   T   T   T
  0.8600365236694628  8.9733842704246118  8.3124424187138644   T   T   T
  7.9109972769878167  8.5460333295452191  0.4307075159233437   T   T   T
  7.9861871982960739 -0.1051178272664450  8.2987105925030651   T   T   T
  2.6703576263681450  7.8215529574984917  5.5996491550110870   T   T   T
  2.2412448680333186  4.7602787714875170  1.8988469421718874   T   T   T
  8.5503356152773939  2.1303385893697979  5.7923555734701866   T   T   T
 10.5089914867175498  6.4324798563370056  2.7905552084974601   T   T   T
  5.9871528285571562  2.4388777061947029  5.7916313612633683   T   T   T
  7.8545140875271331  5.0509414523845972  7.8965081539061472   T   T   T
  0.0575766415909323  3.4206844340812594  2.7576549357523708   T   T   T
  2.1545736986130750  5.1218338836987334  7.5549138620554421   T   T   T
  9.4043797614403726  8.9448342343470593  2.9693107283468154   T   T   T
  5.9588389769328742  2.9193341617220074  9.1780209753637525   T   T   T
  1.7881393304812347  0.5761642466451706  1.4834272006613727   T   T   T
  4.0491948112011578  9.5677297315218066  7.7439258379255405   T   T   T
 13.9668856020805983 -0.1959374164390204  6.8039306853017623   T   T   T
  7.3640136427015719  7.7891833950527198  4.9823197760725249   T   T   T
  5.0730132143260320  7.2117857442246702  8.3433764864221551   T   T   T
  2.8628798907142770  1.2420326177479122  4.9430794706464827   T   T   T
  4.5800332904380312  5.9232879102390150 -2.3046700601409218   T   T   T
  3.1212097146503690  7.4280249749246199 10.5354148263586165   T   T   T
 10.2085753488437128  1.4452510049392198  8.4764034998687947   T   T   T
  5.6044711284602426  8.6129812181947543  2.6899210860071761   T   T   T
  3.5184770653942814  9.5891762543734718 17.3454180816284875   T   T   T
  1.1823314190328975  5.3192618459991730 17.6754389914228192   T   T   T
  6.2694428417068977  6.0549271598415979 12.0502808701983124   T   T   T
  5.4503370542156118  1.7578284129046677 17.6083823271253017   T   T   T
  0.5364772818704282  8.1242161780110038 18.8290378408356958   T   T   T
  3.0039104059329960  2.5882754867537581 10.3584898011928725   T   T   T
  6.9586371610865401  4.2457618686255980 19.6507148273606411   T   T   T
  9.2934449921618363  5.8112222509415519 13.0892469648317107   T   T   T
  9.8094997141743967  2.2810566179124754 17.3315511698427080   T   T   T
  9.2230419355984328  9.8069280551646525 12.6433870952780296   T   T   T
 -1.3249376817812555 10.3314200768367819 12.6774817287479440   T   T   T
 -2.9004928840457622 10.1256326297044161 23.6275220466863516   T   T   T
  5.6308157168458441  8.5349994539595802 13.9258864473628829   T   T   T
  7.0882647538883843  1.9843598644862634 15.6712296748365798   T   T   T
  3.8954704299859055  4.7696545650340374 12.0423672213412463   T   T   T
  3.4039242837057566  6.8633242948959614 20.5479831816874068   T   T   T
  7.2654658181145164  0.9580104001370118 19.5296740429210267   T   T   T
  8.3676226952356831  7.8696256674357565 10.6085491256556796   T   T   T
  7.4043769586569352  5.1494720928498667 22.7005066429375901   T   T   T
  0.3599365218143660  1.3667345884132920 11.9632599910072255   T   T   T
  4.8172493450663643  2.0865369772937807 13.2415222293568338   T   T   T
  1.5231240401210902  6.9014314951413276 15.8859493345092240   T   T   T
  3.0510661019978795  1.2900417809096549 15.0516576099054404   T   T   T
  8.5580093242279069  5.1055278727562152 16.8817851153975695   T   T   T
  0.4503880176746120 12.3715537162839624  1.7205577728060084   T   T   T
  2.5257371308963577 20.5744256087982080 12.7784068090193852   T   T   T
  9.3205554987745600 16.0689120230342297  2.7171608259640121   T   T   T
  6.8074322901089914 10.8096242134651117  8.0420425082743687   T   T   T
  0.6409859839962593 24.2141047980683908 13.6220757672258905   T   T   T
  3.4545628469525691 12.1138305030408198  5.5417919266191342   T   T   T
  2.2580683685750782 14.7706823118411776  4.1737982451382321   T   T   T
  4.9486824504541085 12.9480721233143434  2.2961011552226394   T   T   T
  9.0895196853207896 12.4209904742277679 10.2806365995578162   T   T   T
  8.5324087976174869 19.6263982594729995  1.5683544245707697   T   T   T
  2.2154716102241614 10.6784738869735847  1.9813627954245987   T   T   T
  1.8676482398028003 18.8480627041957618  9.7548652906528801   T   T   T
  5.7488388522073413 15.8849464058487069  2.5262505726005777   T   T   T
  8.0125503940921980 15.0247976284870273  7.5040343760792751   T   T   T
  0.6460566340740894 12.5876833366820406  4.5849911925787623   T   T   T
  0.7377597136578187 20.1269685091269466  7.6734632508724356   T   T   T
  6.2230600954808653 13.0218591590366692  9.4101492250297039   T   T   T
  5.2272769351844568 19.0837653972111738  3.1963889302234789   T   T   T
  2.8225423639966527 12.5389898062944329 10.3296833104851959   T   T   T
  2.9636235392488874 13.8847724038743632 -0.0670746121255825   T   T   T
 -3.0920503349173276 13.3688967209994356 -0.0988316959679243   T   T   T
  8.5419381955939517 22.5668978748621001 10.3830258627437093   T   T   T
  7.1576180501900852 12.6741722149607128  5.7115055243792225   T   T   T
  6.9590238887559135 18.2001977225414748  4.5876280243673264   T   T   T
  1.0316299444641224 11.9619840715604280 13.1972737445645141   T   T   T
 -0.2396360405001945 18.5421782591817674 18.3567171331378880   T   T   T
  5.7111848459725723 19.1746995059511036 13.1341257859052654   T   T   T
  5.7284535401235530 12.8641335207656198 17.0072162457047824   T   T   T
  4.4465758287459272 23.3019742435275461 22.0940639519439905   T   T   T
  3.3670035817747355 10.8296780789762099 13.8717966388497462   T   T   T
  7.3072008363695717 10.5735700544210065 18.0189468901003629   T   T   T
  8.3959401771966249 15.7998977971377208 17.6686887568020659   T   T   T
  6.9900287107586641 13.5441283559341610 20.4383041104201268   T   T   T
  7.4269181740078904 18.1753914197231552 15.4022181479016922   T   T   T
  5.1663862723308354 13.2243201432514930 12.8738849565639271   T   T   T
  1.7158007808157825 15.9183173168391150 17.5601122284795039   T   T   T
  9.1361518046189225 19.4715881566522384 12.3013672952803628   T   T   T
  9.6277982035522864 12.9280743927822481 19.5634143631459452   T   T   T
  2.1056427648983038 15.2849601410676286 13.1618369970309192   T   T   T
  1.7308379667034304 20.8079480801058949 19.0966451463138576   T   T   T
  8.9066603519747076 12.8910427299473795 16.4691713389054897   T   T   T
  7.4349133800184335 16.4506343652988463 11.4068522509567174   T   T   T
  4.3627912741804478 18.6976847002773852 17.5098897111196656   T   T   T
  4.5715312403243624 19.2585313329792740  7.4875251618924068   T   T   T
  3.7229005711384833 16.3159948429594692 10.3609451145369480   T   T   T
  2.8909080900590558 17.7293367913514075 20.2484839468997073   T   T   T
  7.1462514567476800 17.7049343179659928 20.3818481723520968   T   T   T
  8.9898614848883973 15.8198541887123998 13.6572557655197606   T   T   T
 12.7367591744345727 -0.2716213633983129  2.9872818195027895   T   T   T
 14.1068440237859392  7.5213693083407600  9.9395681236750342   T   T   T
 11.4720838363914641  2.6098557911070746  4.2697199601734237   T   T   T
 17.9932123130712505  5.8618763849793911  3.3987366776474519   T   T   T
 12.3899041994001688  5.1553229504856661  7.3282343204144924   T   T   T
 10.3119933364330745  1.9795917073494680  1.8941986852006958   T   T   T
 20.0027990975272587  3.2322783318187569  6.9214007046807451   T   T   T
 15.6355239590571102  8.1779297165641243  3.7601715508469575   T   T   T
 18.7159342503630697  1.2870584765177240  9.0229208793912061   T   T   T
 20.1154485342958438  7.2780220921915131  3.5125400402468636   T   T   T
 14.7527857435140071  1.9743542012372781  2.5443852723133298   T   T   T
 12.4274386510725527  7.0684014900480330  5.2901215373871198   T   T   T
 19.6778144835754887  8.7665613848230830  0.7610959489308275   T   T   T
 17.3978064279764055  3.9448704398357299 10.1936723435293803   T   T   T
 12.2018941115226891  0.5926031109118921  0.2358421821472970   T   T   T
 13.6359000368337799  9.6725210335528082  6.8733229784918661   T   T   T
 17.3346331741848623  0.9393348763064314  6.8330530745113380   T   T   T
 15.2809687541509298  7.4414148429065960  7.2617798869997321   T   T   T
 17.4671402398744569  4.2597882175068182  5.5579137952326985   T   T   T
 13.3644739892255924  4.2204271627035403  1.2066789170280423   T   T   T
 10.7862217137619059  8.0324879606642039  8.2055500843844857   T   T   T
 15.5827254106788029  3.1623416590783693  7.7348227441846982   T   T   T
 17.2276522072984406  6.4679862770402901  0.2522547307706318   T   T   T
 13.9658153445893873  2.3193336159155220 14.9831476355523723   T   T   T
 12.2888466721198668  8.3127112404589223 20.1508609662857623   T   T   T
 13.0926171535791180  7.8126640261206814 15.5055761706834314   T   T   T
 19.9882076296671016  2.4127545325508453 18.5903507736086304   T   T   T
 15.2992042382130009  8.3031797067983817 17.8030182251783984   T   T   T
 13.2220813938774935  3.6970951597342983 10.5036889162797582   T   T   T
 16.5634942888898600  4.3583013771454455 18.2825113575542240   T   T   T
 18.8975076904039874  8.5761356844071734 10.4348658167884913   T   T   T
 17.1846619034223025  2.4796480786705906 20.0950664333846767   T   T   T
 20.3755656380742920  6.9558365942470033 13.1107850781984787   T   T   T
 11.6431885860386224  3.8009499274375371 13.9291582825029092   T   T   T
 12.4488443884479896 10.2677200141378808 17.7035334188027811   T   T   T
 16.6784005696622550  6.0261306250184674 12.4088834964788060   T   T   T
 18.0836988207654841 -0.1611424599385074 18.4959365523640749   T   T   T
 13.5326632394633428  0.4880650389065674 13.1338285765099645   T   T   T
  8.6620403756437465  7.7569008970703903 15.1720681459540216   T   T   T
 18.9091881225644443  4.5251160443019520 16.8078939527814661   T   T   T
 16.6142566738954720  7.9393084006803107 14.8143997712371593   T   T   T
 10.6197106801290317  7.6296798134660033 17.3863730540900789   T   T   T
 10.7929613458418459  1.8435411999484115 12.2804181567632540   T   T   T
 15.2494613673225086  2.6614696951905490 12.5302517421543858   T   T   T
 12.7408489537993965  5.4751028556180943 18.4407443263512150   T   T   T
 17.0720381124326472  1.6272191341049957 15.8897275248984062   T   T   T
 16.6025439670590558  9.2993638846004991 12.7895133087583055   T   T   T
 15.0676279867857836 12.7495133761672026  3.2723673417193657   T   T   T
 12.9974362301887822 18.0439530433706707  5.5247086815371667   T   T   T
 15.8617972003389980 18.3801794385194341  3.5792155650796968   T   T   T
 15.5915161941997056 13.0886692950261914  7.7334003534850275   T   T   T
 13.3382371263833388 17.6134089643548464 10.1065722582727862   T   T   T
 13.4979238847285856 13.0238047641003423  0.0993380200778271   T   T   T
 17.5806612883341593 12.4729305592127737  5.2354150658195540   T   T   T
 17.8364831488339313 20.2987287441902495  2.7358274636810633   T   T   T
 17.7274305244533181 15.1231371991002526  8.0114699823204489   T   T   T
 16.8978291291053644 17.5274078175595136  0.3596932786925404   T   T   T
 12.5404266416863717 10.4660946301502698  2.2866620353208718   T   T   T
 12.3959336553075747 15.4254143771968302  6.6099623923816964   T   T   T
 17.7280376399055264 15.5181274128544118  2.1804186433913406   T   T   T
 18.4573090166239595 12.7494738253242854 10.2033028504599610   T   T   T
 12.6875895532916267 12.9640175241494724  4.5345926898187008   T   T   T
 18.5790855563364588 16.4318868004052234 14.7683154012674684   T   T   T
 20.3331061910035977 13.6593458489128228  7.6628274328667816   T   T   T
 20.1147985231449304 18.0765412989069674  4.1393938049149330   T   T   T
 10.7329395779068122 18.4081059360251444  8.3550841474213637   T   T   T
 13.6387725722837345 15.1045352632907033  2.2722491294955112   T   T   T
 10.7567955457887212 12.6545098629739226  2.9129434839813166   T   T   T
 15.1306565630116694 17.3272602406342529  7.4803066755744840   T   T   T
 18.4789095649266955 10.3756910308631003  7.1874325359725253   T   T   T
 20.1610549426860786 18.5164692026411686  1.0771217868215683   T   T   T
 13.1720445049110833 15.4229290469317419 12.8207163628452143   T   T   T
 11.6666722061638044 17.7181761980787797 15.8868506614038445   T   T   T
 19.1704146593468927 18.4489761798009440 10.4141291455130798   T   T   T
 23.0336941331301546 18.0216054013380997 15.7403084589696114   T   T   T
 14.4045743006714222 18.3902990365670647 16.7480351010913324   T   T   T
 12.8867155689708568 11.1522200188102758 10.7990089355672403   T   T   T
 20.2772449878621863 13.0834735153208293 17.2505907664669351   T   T   T
 17.0057694982989922 19.9072449560977347 13.4678968125835272   T   T   T
 18.3855012359073662 10.6576338199412533 18.6431866955944514   T   T   T
 22.5115862724083762 16.2872417784047414  7.4062044891965115   T   T   T
 11.1133545146868169 13.9745615951528226 11.7402185554587817   T   T   T
 12.3997107844077625 17.9102969436797039 20.0741944788513784   T   T   T
 16.0700745315490678 17.9125785493877885 11.2216835315395151   T   T   T
 15.4807903844389578 12.9642105974769564 17.9652759615962410   T   T   T
 14.8293163249206454 13.5827411998276872 11.0393549102301929   T   T   T
 10.2977132072946507 19.2781200108039457 18.2328806732358153   T   T   T
 17.8202451293967847 12.2721037581117507 15.0594421636031655   T   T   T
 20.4279751763429864 17.4159276530572384 13.6414577699700850   T   T   T
 12.0255091268835930 15.4178662159800268 17.7016453279685209   T   T   T
 10.1229590789324195 13.0187357662590060  7.1865872615937691   T   T   T
 14.5608668293640697 11.5633237339043831 13.7644007279795542   T   T   T
 12.4927876899536159 13.1175514839664054 14.7866339814335497   T   T   T
 17.8449708481960094 15.2433905131304872 18.3311076454656217   T   T   T
 18.3371773623057450 15.6515047496583612 12.1715524108753375   T   T   T
 -0.4478570149277817  0.5207634189746112  4.6835366592705743   T   T   T
  4.8622331671136312  0.2417622409782212  0.0252355309922853   T   T   T
 -0.1978891163383310  4.8030003009371400 -0.0102204861624452   T   T   T
  4.8163371110147351  5.0401736704153537  4.9655418682526182   T   T   T
 -0.0281039664679384  0.2100909027897750 15.6736497250757836   T   T   T
  5.2140205797868218 -0.0534452944105984 10.2249835865962275   T   T   T
  0.1808480227126634  4.6652950139972589 10.3266413073823884   T   T   T
  5.4130509853029798  4.9789750761938656 15.1244808209176060   T   T   T
 -0.0124360339457731  9.9668442428753536  5.1324430144246289   T   T   T
  4.9376433859734572 10.2851061630638263 -0.0871193225455824   T   T   T
 -0.1776381730101247 15.4803485851841796 -0.0875691358239692   T   T   T
  5.3344107445380473 15.3632731886816192  4.9944420816267474   T   T   T
  0.3322768691249065 10.3661925503876766 15.6969254321808336   T   T   T
  5.4395279636418703 10.2061314877431322 10.6868890089082615   T   T   T
  0.4049075839716517 15.1358494523993947 10.4465432348270895   T   T   T
  4.9095143750825239 15.6980857124923148 15.6514927557763350   T   T   T
 10.0455082272396794 -0.2553380399029718  5.3346289071682609   T   T   T
 15.1670996536901548 -0.0106507168519897 -0.3260076610467436   T   T   T
 10.1066400737879967  4.9086852555897300 -0.4163351387353981   T   T   T
 15.0532913613343950  4.8890210005477730  4.5468762630435453   T   T   T
 10.3907121486687473  0.1785703544044872 15.2604465725253622   T   T   T
 15.3747368631553094  0.3664342009418980  9.8638311398573748   T   T   T
 10.3624024680042375  4.9398485161965624 10.1904680474445666   T   T   T
 15.3479574161910328  5.0803450670742611 15.5922397796678887   T   T   T
 10.2761071117334577 10.1813111231364886  5.4093770391682110   T   T   T
 15.4627125489122665 10.2672342489882649  0.0357285283521181   T   T   T
 10.4759152359148757 15.5830219515538548  0.0858989426183901   T   T   T
 15.5599492186250252 15.3613373718603903  5.0365965600369638   T   T   T
 10.4632550621174758 10.7067009566772438 15.6885057974910005   T   T   T
 15.6928672342933915 10.2171298829734134  9.9449580433365963   T   T   T
 10.3085213899770292 15.6465102892935413 10.3705657970604967   T   T   T
 15.6213859357690268 15.3346589206911990 15.5956968355246168   T   T   T
  0.7524472874048814  1.6524073995173738  6.0549991592630334   T   T   T
  1.1871715237491525  9.0279993098606841  3.7573857344653296   T   T   T
  9.0683220062942258  9.1491147703372295  6.9387769339984091   T   T   T
  9.0783011057572001  0.8415138000398745  3.8315152391192528   T   T   T
  6.2885853329283483  1.1579836447365568  1.1473103430443798   T   T   T
  4.3400360313932964  1.2995978860375217  9.0797663613082378   T   T   T
  6.6508840190034428  9.0510931046727769  9.2996407395339649   T   T   T
  3.7482870903329659  8.9746028330883068  1.1905907280843029   T   T   T
  0.6597654816120521  6.4037418708606992  1.1804870097445119   T   T   T
  8.8195231272246986  3.9553009812884015  0.9129059984985453   T   T   T
  9.1755073982144975  6.2011825138321734  9.0865212885923405   T   T   T
  1.1659553438098464  3.5609209232163215  8.9176570602267216   T   T   T
  5.8962561425291593  6.3686815977934899  6.2700430064454444   T   T   T
  6.1268866409322733  3.7621342683121566  4.0299658198946462   T   T   T
  3.7482439419879250  3.6647529244253469  6.2142196417930116   T   T   T
  3.5321729451419768  6.1748253693479436  4.0153582649650801   T   T   T
  2.2702762330067876  2.5878862298506338  2.6872938170983618   T   T   T
  2.7423270353273219  7.6901079824302556  7.8587919001676250   T   T   T
  7.7746412057735439  7.3455806147706211  2.5657278214596548   T   T   T
  7.5841274458680363  2.4798184141590478  7.6465998665293409   T   T   T
  1.0201231985791159  1.4312966044556696 16.8313769350435969   T   T   T
  1.4050489282481697  9.1957466978862978 14.4691648823995695   T   T   T
  9.4071774935301278  9.4652682257347092 17.1708105736565919   T   T   T
  9.1371425453255544  1.4634835259551149 14.3231570944689732   T   T   T
  6.4533636037804056  0.7139863245422201 11.6395487137505143   T   T   T
  3.8351400287688016  1.5845347592311174 19.6697870902817584   T   T   T
  6.0398673956818394  9.1194954703395315 19.2799342240012379   T   T   T
  4.2932946192039507  9.2254502394587359 12.0084375291478320   T   T   T
  1.7756622173199343  5.5342051848347760 11.5490986112410408   T   T   T
  9.3467586498852757  3.7940269580220214 11.7042066478761608   T   T   T
  8.9444985016439738  6.2067647412188638 19.0954969432449815   T   T   T
  1.2881109110516868  3.6030292870857137 19.8398617757158924   T   T   T
  6.4519461585128237  6.2882513977131484 16.3623945195145133   T   T   T
  6.5017881645184801  3.9749671712404160 13.7599344143223981   T   T   T
  4.2312765206074481  3.7096443778730537 16.3645349558575184   T   T   T
  4.1376645324140675  6.0746332610008267 14.1036708468469509   T   T   T
  2.4135090285291181  2.1908111942014385 12.5983401997464242   T   T   T
  2.6869411474664227  7.6061853885391546 18.1117803305387497   T   T   T
  8.0491010330766297  7.4716110813241805 13.0198752473529122   T   T   T
  7.5926309981322886  2.5879585908818892 17.8305881756745990   T   T   T
  1.2020034064280491 11.1334303160565096  6.4209948737391302   T   T   T
  0.3611923341548511 19.7830222584269819  3.2488390714129096   T   T   T
  8.6400754880071347 19.2031958674877998  6.4040667000094702   T   T   T
  9.0535854491427603 11.1779193536006325  4.2247375389963322   T   T   T
  6.4520716935054017 11.1975162456238611  1.0545213543233234   T   T   T
  4.4129560341556555 11.2713537057342261  9.2301011765929992   T   T   T
  6.2158227528448382 19.1090248507992584  9.0317888731567706   T   T   T
  3.6519475480941654 19.6335327087257809  1.3033895104816697   T   T   T
  1.3537644258422514 16.3753936923363739  0.9702947506396263   T   T   T
  9.2717868419668594 14.1071129724564166  1.0725935827854014   T   T   T
  9.1731489440137928 16.7113903016182661  9.2086746196164064   T   T   T
  1.7464709606194455 14.3350071307114089  9.1984911697217893   T   T   T
  6.5464606386089352 16.5105203195477230  6.1996836216119915   T   T   T
  6.3125598297759797 14.0369473251504022  3.9480382998624606   T   T   T
  3.9353541262684661 14.3241514619468866  6.2014373910675360   T   T   T
  4.1284085149769734 16.6169813808658873  3.9537989166343115   T   T   T
  2.6090447266515069 12.5883366691020022  3.0149056965736181   T   T   T
  2.3998187953135814 18.5150548516608353  7.5956438739499772   T   T   T
  7.0745230032363153 17.9882144815073204  2.1337893880722385   T   T   T
  7.9535278455039862 12.6931977424486711  7.9325158588473705   T   T   T
  1.5415990970074902 11.4298977363560983 16.9456445377863254   T   T   T
  1.3512246394292105 19.6254849279909322 14.5795619550123483   T   T   T
  8.8601853660536083 19.9687330973327875 16.5676726720771335   T   T   T
  9.3667254509088682 11.7055859771301396 14.3086852192004574   T   T   T
  6.6759964110449177 11.1754006007495725 11.8982795889946811   T   T   T
  4.0337617322462620 11.6257643469337992 19.3531082987245320   T   T   T
  5.6860529772466402 19.4788923784593919 19.1468943360086428   T   T   T
  3.7797284628968790 19.4081439846176025 11.2081748987559031   T   T   T
  1.1791949169560445 16.6840471639930996 11.5897056235313656   T   T   T
  8.9806180642540294 14.4656082909649299 11.5273088988811949   T   T   T
  9.3113676068781324 16.8793105816926428 19.5666185566744986   T   T   T
  0.9397245734767181 14.2628137374207125 19.0886210765313251   T   T   T
  6.0519087698663814 16.9589180457395443 16.8982015558135430   T   T   T
  6.3312956180806985 14.5076999004524101 14.5657592105349387   T   T   T
  3.6553028075102993 14.7070717689332451 16.8525269909632627   T   T   T
  4.1300575293263808 17.0523271122680953 14.2350687323509799   T   T   T
  2.9817738845381929 13.0419215353960993 12.8138102826680740   T   T   T
  2.0391730039829037 18.3789723469061599 18.0873982608895396   T   T   T
  7.6643509864205894 17.9384062270667428 13.1367312668533653   T   T   T
  7.7842637902413525 13.1349064160453892 18.2831524760948270   T   T   T
 11.3073448936688248  1.0343725651857176  6.4329718342031210   T   T   T
 11.2555989529974774  8.7618231769780230  4.3216075994485745   T   T   T
 19.7552035139719138  8.5908140110330162  6.2797507769803849   T   T   T
 18.7901484458667447  1.7600700054998393  3.9834829599977875   T   T   T
 16.7709268441915604  0.3601169140514980  1.0011504138675191   T   T   T
 13.7980273696588096  1.3238577043820594  8.8991649884318580   T   T   T
 16.7407486054019046  9.0539543965864731  8.5824910412401216   T   T   T
 14.1647849568733779  9.2060740611218606  1.0879294572601013   T   T   T
 11.5509677469214260  6.1170134771067461  0.5703904818282564   T   T   T
 18.9838953900933340  3.8531653303380295  0.9330471378505359   T   T   T
 19.3521658493831019  5.9728562108851557  9.6568266158539533   T   T   T
 11.1336707421180439  3.4982481325538819  9.0461921390106816   T   T   T
 16.5361566087626066  6.3399750650293250  5.3718312210697086   T   T   T
 16.3582041257067736  3.7211542040064010  3.5512193727806265   T   T   T
 13.9841857234993885  3.9497978298812750  5.9778916005199054   T   T   T
 13.8655745125923335  5.8845486239010523  3.3753290011516803   T   T   T
 12.5559443786363882  2.0780541564504578  2.3188543875525900   T   T   T
 12.9718248598246859  7.6922778336239048  7.7303440209777561   T   T   T
 18.1556899375366250  7.8808802370874496  2.3211694388202830   T   T   T
 17.7596226790943597  2.9392495612121534  7.6571152567346399   T   T   T
 11.7353934761356271  1.1075045765189901 16.5430150568431351   T   T   T
 11.2919994551654543  9.1079427569452296 14.6764465385787251   T   T   T
 19.5098512413560101  9.0282324529264617 16.4548130080680934   T   T   T
 19.4603858867532722  1.6132548942677420 14.3687533053694914   T   T   T
 16.5871754349613738  1.6143726149043305 10.9357759468248421   T   T   T
 14.4770428788062233  1.7221182870180358 19.6089512043706620   T   T   T
 16.7025167881704490  9.0145795504235107 19.5736333657371659   T   T   T
 14.3821369019453691  9.3638092881032247 11.3101163192308753   T   T   T
 11.5226767194391595  6.3145024490282546 11.2045896956679716   T   T   T
 19.5488904072191296  3.6966587098871608 11.8155354152526435   T   T   T
 19.5916173838076659  5.8017384031597121 18.8840834896604335   T   T   T
 11.3759968011787063  3.5626618810424775 19.2985365663795818   T   T   T
 16.4621701027884235  6.2993408196947671 16.8055562894393802   T   T   T
 16.5410162469891340  3.8324478693564759 14.4859103530024367   T   T   T
 14.2483903464404786  3.8335952089121643 16.7350488857902846   T   T   T
 14.6020982939436816  6.3826973299319789 14.0665850793029250   T   T   T
 13.1527618284699042  2.5791966945114173 12.7167938455448635   T   T   T
 12.8692234602375724  7.9335496563711860 17.7867845324625762   T   T   T
 18.3826020178559730  7.9264873078952007 13.0320578803951914   T   T   T
 17.8852847280990872  2.5234001880154220 17.9929117633057061   T   T   T
 11.6921036643538745 11.4244014475501139  6.2265675628301196   T   T   T
 11.2323879354783607 18.8193624146245995  4.2246652946452841   T   T   T
 19.1346895001065640 19.7536988481253104  5.9700233981138675   T   T   T
 19.3945198340095892 11.3651549749771608  4.0617263638069199   T   T   T
 16.3350421869240243 11.3582716401584989  1.3490118520860559   T   T   T
 14.5862788854817609 11.6296518015989996  9.0507967222012891   T   T   T
 16.5875007963840666 19.9305615804596883  8.4757444994001361   T   T   T
 13.8915160322226168 19.3488980719682289  0.8947187629753910   T   T   T
 11.7592922359692267 16.6635543919964917  1.3408726559432405   T   T   T
 19.3629456666240500 14.3392928537063487  1.1863983699424978   T   T   T
 19.3415990768253714 16.0097881329597342  9.2681269283912826   T   T   T
 11.6532524377247455 14.4445928922351037  9.3028613806396301   T   T   T
 16.7547947073485908 16.4849384879041807  6.3935914615000859   T   T   T
 16.7509823486479910 14.1827349161959546  3.9340363187859353   T   T   T
 14.3314232262437979 13.9394629250554711  6.0506494558261696   T   T   T
 14.3948627558479867 16.6351380104086104  3.9536720747584808   T   T   T
 12.9638725350656259 13.0704710880405592  2.2925379286602410   T   T   T
 12.8753103119833359 17.7068913475379546  7.6714429293923025   T   T   T
 17.9791340990861670 17.9714652717763954  2.5422991372676473   T   T   T
 17.9623287495289752 12.5243195311693380  7.6365051825745578   T   T   T
 11.6172595288115534 12.2462480218613816 16.6795568974866697   T   T   T
 11.4700752179621936 19.5298942122797214 13.7554592084489222   T   T   T
 19.2552897828681573 19.4320096210022513 16.4412228113418983   T   T   T
 19.8210895530106157 11.8892731147583373 14.5489816086381349   T   T   T
 17.0536430373450507 11.1903784372090609 11.2945462630655733   T   T   T
 14.2158343545747528 11.3589372193719313 19.2461202994136684   T   T   T
 15.9236560342755276 19.0560040560752242 19.0445946850217744   T   T   T
 14.3014802375554133 19.4242178398614413 11.2947490591567199   T   T   T
 11.2688175771415171 16.7923026802992794 11.7573627218020516   T   T   T
 20.0439456979087716 13.7207749245018213 11.7156439284733036   T   T   T
 19.2305395973762252 16.8246299021199661 19.6191856591881404   T   T   T
 11.5965722527596959 14.2622070811712085 19.5596642237547513   T   T   T
 16.4016003521367466 16.5795150753019058 16.9348888235607937   T   T   T
 17.1253761743141126 14.6369287466017362 14.1895932278424830   T   T   T
 14.3887198009433064 13.7544429151891237 16.2047229253772116   T   T   T
 14.4135451130683521 16.6237558833204275 14.3474799619631082   T   T   T
 13.0601905421892237 13.0007195522360686 12.5677640216712572   T   T   T
 12.2211498892215484 17.8531807833148406 17.8054226685815848   T   T   T
 18.2528153589206958 18.0804269026575639 12.5578334028373320   T   T   T
 17.7053669553021855 13.0942362718915550 18.1248877650294382   T   T   T
 -0.1938521831143859 -0.3624630113711600 -0.3346608225957680   T   T   T
  5.0607222591984318  5.1392974366661921 -0.0759526215518598   T   T   T
  5.4404982512236790  0.0426668291667982  5.2321199811595775   T   T   T
 -0.4740009738315862  4.7637128623411016  4.7610030626238355   T   T   T
  0.0586041533487071  0.0543045541886462 10.1012262125369237   T   T   T
  5.2020528667146140  4.9833455093291308 10.0847499217460772   T   T   T
  5.0597525264035141  0.4212137979987045 15.2876989949997295   T   T   T
  0.0913356135217537  5.3628256844640623 15.3071546395786431   T   T   T
  0.3772832209084673 10.3841723632801610  0.0080563104978846   T   T   T
  4.4305051011124199 15.0566839958597942  0.9987542218367854   T   T   T
  5.2978684682802211 10.8274275417494081  5.8729281599704217   T   T   T
  0.4437971851022415 15.0042256160963507  5.8711482946637137   T   T   T
 -0.2213771186266118 10.1610844140926702 10.1822122797017851   T   T   T
  5.5481637430880486 14.9950184834006954 10.7354908906842788   T   T   T
  5.3406085056129475 10.7097052716245127 15.5088254443004310   T   T   T
  0.5986313869303741 15.9466312300966937 15.1355915782195023   T   T   T
  9.8813262097135528  0.1491305316885477  0.0551770881719442   T   T   T
 15.4389243599269257  5.0969186439931855 -0.3586088577762931   T   T   T
 14.9976894859219900 -0.6304454523541227  5.1005915792952568   T   T   T
 10.5562690911377715  4.9160412694649054  5.0420563156877307   T   T   T
  9.8361632672861887  0.2657451508423327 10.4389031590727619   T   T   T
 15.2152481643675621  4.8596479131153307  9.5741692147684159   T   T   T
 15.5500870587013704  0.6395166865732286 14.6156937658536830   T   T   T