Cl48Li286P48S240 E=-2511.722149 eV
 1.0000000000000000
    25.1819793006824639    0.0000000000000000    0.0000000000000015
    -0.0000000000000009   14.5388225279766061    0.0000000000000009
     0.0000000000000000    0.0000000000000000   37.2126966544236950
 Li  P   S   Cl 
 286  48 240  48
Cartesian
  1.0260030584623812  1.6713885189953595  7.0181623059989393
 13.3768788765962636  9.0844042120119806  7.0037754381158024
 18.0925084458098908  2.0201025805153239 12.5178473388150397
  5.4658200709083529  8.9663973126720649 12.9555735497054574
  8.5049059378294078  2.3500822470730540  1.5679722976523902
 22.1590681676681136  8.6151637986090410  0.4377363230831403
  0.2990572328892481  3.7126058365650612  9.3058139753723506
 12.6924389686368464 11.5539846254354774  9.2394470623037019
 16.9570202699143309  2.3664326674311669 15.2445549753517735
  4.4861340394558624  9.7838976663732034 15.3610009346909209
  8.7964822954944708  4.2722542784553665  3.4823291899923534
 21.1066147926463721 11.2736495096607179  3.2493478445398059
  3.2022547368355250  5.2790438982641286  9.2725122880584312
 15.7277132566528177 12.5647168826910747  9.2849576191327277
 19.1986852757548121  5.7628211972619123 15.2413391636522189
  6.4019735293572788 13.1796776780938689 15.3440186284329361
 12.0422177089983329  4.8560136936522618  3.3488137858197460
 24.4511079494020080 12.0931819431320555  3.4837443904925500
  4.3592064502226320  3.6696166567666819  6.8920275775459352
 16.8887123146601716 10.9526730961322851  6.9819076875699047
 20.9958699909195552  3.8148234557416227 12.8943751610428485
  8.2498155801347597 11.0531757167765079 12.6804435455343913
 13.1416723734703709  3.8347545444864011  0.3154369057419028
 25.2791126918514522  9.6706353059026462  1.6886515556131527
  3.2734445823828371  2.0910939107094180  9.2932271446159547
 15.4496275704816135  9.3039977010315003  9.3562894563864631
 20.6758213918008771  2.3212798204372174 15.2500803501128495
  8.3240745593291603  9.7307186991284027 15.2225299217104038
 11.2761721598788220  1.8134658893847493  3.2053020237689371
 23.2415950694891684  9.0028420284438653  3.4319361922102640
  1.0053253367527102  5.6028229632532049  6.9217785518818058
 13.5227804973259502 12.7767526732219228  6.8503458180541443
 17.6402443216198215  5.3551291940696588 12.9373016291475320
  5.1088424929888969 12.6203623178581008 12.9663801991694640
 10.3660919576018280  6.0823653163161326  1.5579387887477909
 22.9069991772410830 13.5109073843547893  1.7555835418255303
 24.2804808880174363 12.6046807353252301 12.9256450559842158
 11.7767835117526296  5.5489084160373565 12.8389644956314992
 15.0147138712455366 13.3255183117579890  1.1061187297232116
  2.2030514611152552  5.4877103077850302  0.7835877159271288
  7.3663022243740786 12.4923075345099868  7.0180018947917358
 19.9277399890973186  5.2914195511959186  7.0382990114429171
 23.2085192085939767 -0.9800011604091902 15.3777271903453361
 10.5795032459655438  6.1105469213121459 15.3664502243656536
 15.0862775085451624  0.4418764109592468  3.4517253583412399
  2.3239977205632609  7.5821308269570489  3.1199251718683638
  6.5299967322087422 -0.3468796893549726  9.3368263734748957
 19.0213381364249976  7.3773846096805213  9.3405641682055975
  0.0553564713349557  2.2738740102657400 15.1032310714172642
 12.5795798708399111  9.5693918518393257 15.3548714643517723
 18.1075159192287387  1.8283295797717505  3.2450910403828948
  5.2219683763042744  8.7732678804264150  3.1021691294080407
  9.2248245971862204  1.6632930921451881  9.3423362169709758
 22.1080339408655782  8.7371164688929248  9.3698190676528199
  1.9803842882944251  0.1672650355131032 12.7235521856807150
 14.6727973246278154  7.5238728403490569 13.0379515869866758
 19.2647315515971478 -0.6120945539896379  0.8203934876244038
  6.7293640337046012  7.5967897874044619  0.4483869549785338
 10.5321861464473621 -0.0746875828673573  6.8575986216391893
 23.2496584203965284  7.1736504632152229  7.0663331947243924
  2.0459318293143669 13.4877641846473182 15.3280969539206460
 14.5269451173442583  6.0983992927950039 15.3459813107877263
 17.4787984020704705 12.9257628334410199  3.2166771526095284
  5.0604350928201507  5.4966886635559185  3.0868624881562421
  9.8772966829317710 13.1063032972505393  9.2446690567150291
 21.4761451761992923  5.2884443844125588  9.3011358208791020
 24.0676508115993251  1.5638688509352934 12.6812013321619617
 11.3675137922773359  9.0141239792170591 12.9632401612296562
 15.5171109517045256  2.0492644839951444  0.8147685993062616
  3.2628001788054846  9.4061861991342095  0.5670127373525515
  7.1996087410820460  1.8871323446814043  7.0937540171234632
 19.8701513174623905  9.2801924001220506  7.1430239780839813
  1.0105240467076095  8.9267907791416210  6.9458084423522912
 13.6691483767394715  1.8849819660311249  6.9276285164916933
 18.0185776472192494  9.1179159464208812 12.8914089222493722
  5.4271470940809303  1.7647035106345297 13.1297306257555864
  9.6143656438358764  8.7085065385965041  0.1298924540195006
 20.9054053738364765  2.6254283210004750  1.7113649992931168
  0.1828237301637224 10.8730289001813851  9.3151354301107521
 12.8286617752064487  3.5032667327689637  9.4585551317867864
 16.8220583822665866  9.7628435725070801 15.3044056772768808
  4.3445654302120618  2.6585462583269148 15.7502147904823193
  8.6215372247595390 10.9023991489169738  2.9256863932417021
 21.4648036782074634  4.7117549375921595  3.5586165345109144
  3.0821512621971396 12.5080324829026193  9.3004616689846014
 15.7004149649952769  5.0657343264515911  9.4125487128717413
 18.8439372082057872 13.2362162865472168 15.5249637989801350
  6.3527852157262998  6.0945264445577374 15.4485156226063083
 11.6156702301951107 12.5483409272282511  3.0843495781145180
 24.3916582999047584  5.4278632656230803  3.0227420389172424
  4.3467677013997594 10.8434250681850628  6.9397867739480139
 16.4280336390313373  3.5187402613657475  6.7534857724268651
 20.8522991563658344 11.1228293377950873 12.9444072847352434
  8.2932835718472475  3.8393368302612685 12.9848184630903649
 13.0868954551176238 11.0585245699233781  0.6406690471100853
 25.4101873691103073  2.8366083877730399  0.8596623715442572
  3.0525646039380718  9.2231704263807597  9.3125802573270207
 20.8366007481903566  9.7215327906340789 15.3789620291009470
  8.3274065401922233  2.5482152624777781 15.4968589208511798
 11.3673568383330927  9.2243396089002392  2.9331843966417619
 23.5735604741605833  1.9778619161026554  3.2905390468164577
  0.9844643428344354 12.8542239016124942  7.0232287113191001
 13.3781046341902812  5.7099300351928619  7.1408225132737373
 17.6635366438853367 12.6345191304822855 13.0460395980177939
  5.1817105260156913  5.2973434672253754 12.9655814268615170
  9.9649465117952456 13.3724637750306368  0.6173922407025718
 21.5515766106235667  5.4676649140176705  0.6911887012739746
 19.8558948605850674 12.6231641916551496  6.9627290728048958
  7.2178883834643983  5.2979128823293777  7.0251143101003208
 11.7005883966562170 12.6444990196084266 12.9566541054591529
 24.2485237293525451  5.4097606238950631 12.9381769877498130
  3.6225771599938730 12.3504964645177715  1.0872574719397508
 16.6521194856963071  5.0888205468840226  1.0417835830698507
 19.0839671955446093 -0.2957075685537129  9.3117456586221294
  6.5666609155013376  7.5056602784656627  9.2873760093274349
 10.5634265542412056 -0.9774348525210648 15.2798187747804981
 23.0415033288642057  6.0689622149809690 15.4511057356712822
  2.2644989715651183  0.2460396580888804  3.1989889185516192
 14.8812141883666484  7.2895134249177014  3.2728304637299517
 21.4532426416616779  1.9952651653042162  9.2758013821652163
  9.9728154109141940  8.5521059947303169  9.1810993500376572
 12.5482203883606296  2.3045960851841483 15.3862948841738323
  0.0014501152574972  9.5822670626889828 15.3422552925857758
  5.6075208348696997  1.3805128660206794  3.3266635996501996
 18.4382888567054088  8.6044665590650027  3.5607739032323362
 23.2641715383053374  0.1246068365954356  7.0931247476095356
 10.4882516569439854  7.2869434239525992  6.7110015560327456
 14.4675868677155339  0.2048855284147841 12.7198751291541203
  2.1332065126939752  7.4140103045533552 13.1433487595856047
  6.5792625604308270 -0.2623860987966519  0.4702908832994170
 19.0879889212227027  6.2963314661093914  1.5764693961160430
 22.0606030233892554 12.9992315798418314  9.3145694997583455
  9.3487436727638631  5.5762764147951049  9.2587221999679219
 14.5783115617719083 13.3922344709943655 15.2698628105337999
  1.3009885482273287  5.7644413932836907 15.5447647393707307
  5.2500615945403251 12.9260107466240264  3.3050076530813959
 17.5749467207839984  5.5941742350267605  3.7252694538230839
 19.8680762171118985  1.9063997197340923  6.9704155320142940
  7.3554019199165674  9.2519995283765279  6.9674652917167554
 11.4148740469984453  1.6311334641315760 12.8966875061792656
 23.9503915731561321  8.9235216207546983 12.9494390982939258
  3.9355764959123372  2.4381455678849813  1.2270617017097614
 16.7673963193112741  9.7946753044359944  1.7235511517071025
  9.4007727510721004  5.5691728402922118 30.2601528881667079
 22.0669239500509953 12.9336507246333028 30.0899618273097182
  1.0588682281857096  5.4334363290321335 24.3539369321968522
 13.5616668126637485 12.6141935898699522 24.3074577103457479
 18.5012244761099325  5.8176902835621505 35.8614686349804899
  4.4423171017682392 12.1043954159311475 35.6408290053002332
  8.5694595880712132  3.3815427017863984 27.9052596872763843
 21.2023227066725397 10.9920234545664695 27.9742216386831117
  0.2597991436129397  3.6285022319921580 21.8236400329483011
 12.8323025789101628  9.7212094022436073 21.8404207017370418
 16.6031099343829069  3.0571914871587853 34.0755379522376955
  4.1718675164165697 10.6150819409648456 33.5146016828399453
 11.5752939112117428  2.1182559142606059 27.8771910769687672
 24.0812977885230026  9.1944778584650440 28.0254652030968465
  3.7129233214664477  2.2718275234817544 21.9871932487807271
 16.7332247778933549  9.8467355827997469 21.8936295749229330
 19.6150828983096908  1.4982453475211146 33.9629143540315042
  7.7549296246097539  9.1818904083316806 33.9556456652612297
 12.7592230579624228  3.7403973084173541 30.1046355690047065
 25.1704339459526736 10.9005282011379645 30.4717523721307089
  4.3373826798796005  3.8464879703555752 24.2636457682644142
 16.6697402810574680 11.0993057497350076 24.4038556092071772
 20.8095459423330311  3.7289528300255905 35.9664868435512943
  8.0221392962231963 11.6334856336466945 36.0214460866750983
 10.9106291368056691  5.5764720392844955 27.9000263921059499
 24.6300574346753436 12.1986879578743661 28.0256303591612443
  2.8103221921812862  5.5138023493205042 21.6884023006336442
 14.7091844994552403 13.1565984966614469 21.8827856247809081
 20.0972900520065849  5.4137144362609115 33.7799875955436164
  7.3341891488851374 12.7514741769275037 33.7258520216150899
  9.3203077021222498  1.7075481497651943 30.1806186643408125
 21.9395142312492410  8.9378931709674898 30.2304327902923546
  1.0932377231740849  1.6592748945818325 24.0958073551394882
 13.8367701071624793  9.1210201312499066 24.3806328541393391
 18.0907423337514999  2.1295549168479297 36.4340896177207583
  5.2619021419547254  9.0391703780754398 35.6392819627855744
  7.3537344104095750  8.7460035428857825 24.5031047441008489
 19.7805612991599133  1.7790536899336513 24.2552042767492892
 24.6014655677695835  9.0959639158276406 36.0561350428078313
 10.8675240499563870  1.0477512076671958 36.1884205923041335
 15.7494019178869049  9.2536431010224813 30.1335812178133438
  2.9369255923669266  1.9198813505867685 30.2436142190683981
  6.6645751117148899  6.1042987802672766 21.8339138381484013
 19.1788316988350189 13.4502597085122400 21.9155452178708892
 22.9584548850340688  7.0551176388176327 34.0774304711719651
 10.2984332054737102 -0.3505740780559600 33.8294014983044917
 14.9208236964569103  7.2451217501269651 27.9336230619558172
  2.2137324827932225 14.6000666511011374 27.9238471400267727
 10.4453156448349507  6.3558568924624677 21.8019993965939634
 22.9887282839965685 13.4919428243756645 22.0280444194236118
  1.1568633593254933  5.2988620078153135 34.0792559191941251
 13.6615495118101915 12.6205366260969853 33.8231209363615335
 17.8073955032010254  5.5893419122194432 27.9618236474887176
  5.1199983159809985 12.8895698934417755 27.9327773430738375
 10.4711715626011301  7.3869600868572638 24.4268656829698614
 22.8398710208353855 14.6308170803798436 24.7834588064495840
  1.9229257039392949  7.5207991847341544 36.0950219552814886
 14.4189946240153049  0.7378661380221110 35.6430728755930488
 19.0491149085834337  7.2764986410736698 30.2375282135952403
  6.4013461572802992 14.6044318182562307 30.1614935617821125
  8.5222288095439147  9.3209305113723211 21.9315721420511025
 21.5062559070512265  1.9406362590333064 22.0001253461397397
  1.3503296610069191  9.0471885816392064 33.8627617494515221
 12.8947549760441014  2.0163197252727989 33.8792760397498398
 17.8926072655923178  8.7712600508276726 27.8966389162318329
  5.0990631388104672  1.6373526780309602 27.8890371137331918
  7.5635632240321948  5.3534624780127782 24.3225943517819516
 20.1313853332985921 12.6031440467998976 24.3806562906032838
 24.2936285640933107  5.6783892995370611 36.3997678580517956
 11.8051696508236006 12.1285810830603431 35.6618750510723714
 15.6692531585921344  5.2672015713059546 30.2153257060313365
  2.9065821791963904 12.6335571497168484 30.1754034766019288
  9.3516917431704165 12.8657038837636701 30.0426387905581187
 21.9597926790258811  5.6083133873779785 30.1212452136406981
  0.8430770698725980 12.6283384002929200 24.2153800426529813
 13.7025503572694873  5.1086189657030747 24.6183116525576011
 18.3310891188884852 13.1135267520733212 35.6246146799143517
  4.6970615837278000  4.9478795933903932 36.2005755524483206
  8.6237268107815943 10.9317543457711341 27.8210195334706860
 21.2124839094630282  3.4465436081013667 27.9183499850199297
  0.1664073766025425  9.6775254732079183 21.9473369067665942
 12.8617009688847723  2.4976252235511733 21.8969838597987625
 16.7305116787599992 10.4941856688126620 34.0685645467485116
  4.1031478804478603  3.8838204910042111 33.7503341580031773
 11.0315640827250601  8.8851237237270944 27.9169987806043487
 24.6476324853393791  2.3012454745585460 28.0028115510220985
  4.0896985427925179  9.8379467330249781 21.8321952316790231
 16.6929465047167476  2.6528572959003278 21.8546212077804860
 20.2385088212545377  9.0404890322481570 34.0863262519595835
  7.5431340664827218  1.7170507193120574 34.1255531104193324
 12.7829011501926857 10.8174496131323785 30.0420056718725768
 25.1608801769928796  3.6141824925077883 30.4606127933903821
  4.1662856294929211 11.0812823239350973 24.2482995771452536
 16.8746864062970126  3.8300172888275217 24.2882517637975717
 20.7915341732826953 11.8070271009357413 36.2226780582764718
  8.1931790267184450  4.0707790364999648 36.1473129675746634
 11.5840095245526999 12.4526054137076443 27.8246329075833820
 24.1488315820918018  5.2569240217201010 27.9897938816184535
  1.9488356889993272 12.9722835339423579 21.7980667374948425
 14.5990349073594405  5.8427612613515150 21.9536081705175086
 19.9718192412421836 12.4970507570393661 33.7169816618624125
  7.1116197852961758  5.6931685851006240 33.9423637501615261
  9.4404635159008272  8.9557388378755114 30.1974637410528857
 22.0111039050512147  1.6104525617514560 30.1580982796373362
  1.3040420008395488  9.1710624609395239 24.4940563266474705
 13.8824094530805198  1.6594907162805084 24.2385776363003913
 18.3059316378823453  8.9832706907521143 36.3465797736364067
  4.6125932422669251  2.0976643114306048 35.7232618496871268
  2.6802956050190652  9.0370204958037679 29.7896883405650996
 15.6591434116415140  1.9498773758064742 30.1767702544299965
 19.8946010779687441  8.9317973677243270 24.5063003051763033
  7.2451065321032475  1.6556717321570094 24.4375482215626789
 11.9755538757354447  9.2457117194194378 35.8958783251867928
 23.3900162981583470  1.4127954622675056 36.1172423676763827
 14.8990511234392340 14.5162000081896512 27.9211010638327259
 19.0632244340058001  6.2390987391548958 22.0109820475917246
  6.4930414713585760 13.3125441383508480 21.8439549152907411
 10.3108693230744191  7.5281058567547481 34.0307134176026338
 22.8871113836303870 -0.6791395777959048 34.0631377131039486
  5.0738765097141547  5.6583166642840652 27.8595349546304689
 17.7592596746224949 12.8441732300420863 27.9389713593146602
 22.8012866399054452  6.4479453191940328 21.8092044898314015
  9.8702023121463061 13.1727062469481435 21.9687094641449150
 13.8778371400524723  5.2370759746758351 34.2033960420045702
  1.4561481957496123 12.7287193952212974 34.1903331901837220
  5.8518585641553447  7.2805212901330290 30.6768655497365224
 19.0383838986319169  0.0089772325022140 30.1950948950653597
 23.1330315841864333  7.4285106806262995 24.3202660629080540
 10.4187710166033654 14.7363065690287200 24.3076783773307668
 14.3438753253632960  8.1546843703338840 36.2628479463531974
  1.8236034195591659  0.4785250403263791 36.4509670172081712
  5.0406762611756957  8.8408620212007278 27.8085010490348452
 17.8188551452978707  1.5499056688960697 27.9191394067279539
 20.7594829054053349  9.3998917077944295 21.8133581126091300
  8.3285233470040101  2.1699504556640474 21.9001238420797684
 13.4516024922495063  8.9955224298237262 33.7464207723051786
  1.0683954709234533  1.8697476432378699 34.1730889016501891
  2.6948083682923696  5.4821331260925339 29.8680134315006960
 15.6798316337295134 12.5586389725463192 30.1953763988707671
 20.1555638441694853  5.4332734606499056 24.3997164367922750
  7.4269947641044762 12.7045638593991388 24.4322298332124177
 11.0341765570747672  5.5881256893015463 35.9087506693784206
 24.3327099495395416 12.6371205820728516 36.5044907161092027
 -0.3886316803581338  0.3076275808142308  0.6959226176220327
 12.1253589001750477  7.3835893487307356  0.3803424665605221
 16.8005796418827060  0.0277755598080599  6.4393216870789596
  4.2574810380432764  7.2726355404627414  6.2494617211277061
  8.3859620338910332  0.0267114080018854 12.4369430700791774
 20.9681644195249817  7.2800318937949813 12.4253624389270261
 23.0385446768215054 10.8898833141994249  6.4266641872235493
 10.5033740913887126  3.5604337957926711  6.3957571300413703
 14.6428216164007292 10.9510042646833892 12.4193154945258382
  2.1590306083567219  3.6994358641477203 12.4107980086674541
  5.6307298680648588 10.7766793401736134  0.3637115134676582
 19.0082570165873541  4.0158716905471179  0.5506080683938477
  4.2281321743992972 -0.0305735283228409  6.3419926282394909
 16.6970093014515157  7.2450641019397208  6.5612312171068785
 20.9736028381510025 -0.0296774725754778 12.4308678852664762
  8.4497345795334535  7.2440981232681985 12.3654301699300131
 12.5962165059307587 -0.4360532147543564  0.4927867747180102
  0.0089928990105537  7.4025980128411284  0.6247957632504187
 23.1404300767098654  3.6518983001675109  6.3468894931403534
 10.4469521352764119 10.8896943197318006  6.1514685894308219
 14.6888020541488036  3.6133551445627679 12.5386762872146047
  2.1033804304848309 10.8693424765701341 12.4567688178725753
  6.3339474308217421  3.0933787589445814  0.4754211762920727
 18.5359303366387742 11.2259256827087928  0.5933194775628620
  8.4149554713202619  7.5598274214139236 18.5774166583296427
 20.7667978281610317  0.2788793426377396 18.6201492657338150
 25.1102881147136401  7.2231830161872255 30.9663335449929207
 12.5463792463363859 14.5341179471386681 30.8297851379844232
 16.7783477445837406  7.3028590947274425 24.7957815837975417
  4.1415502461261759 14.5322588599254470 24.7759148981428154
  6.2722314819139875 10.8382267183045080 30.6846774388333365
 18.8762127720219191  3.5619045196632211 30.9017663983317981
 23.1192958959220185 10.8836344925360589 24.8619280591870186
 10.5523855313060739  3.6099054652409821 24.7366474535733474
 14.7039812451597243 10.8712464611823574 18.5973278558163102
  1.5109135872173851  2.7734072005953894 18.5491343865489320
 12.6466411726111456  7.1992439076565082 30.9146344244308011
 25.1580523427917804 14.5177593045466544 31.0689163860317770
  4.2532795311174425  7.2841259749704532 24.6701822750886031
 16.8480288412615486 -0.0152260940580891 24.7888012552036550
 20.6786762892744775  7.2763470835662458 18.6665146969646791
  8.7464370684393185 -0.0618826370449952 18.6052346226592391
  6.2271857201171006  3.6685240211403132 30.8389400746795204
 18.8888952280036335 10.8543445394442983 30.9217440074799796
 23.1573996277609702  3.6597371332557027 24.8279218854113921
 10.5248518025612317 10.8767012914188044 24.7411251846528941
 14.6853885609764223  3.5840874570129584 18.6008496538520696
  2.1155532172627809 10.9397583677949335 18.5433259300199893
  4.2230834557216470 -0.0250911732639703  8.4248903521838425
 16.6330559423439048  7.2866943857334219  8.6317664507095042
 20.9866996246588613 -0.0494815110188764 14.4832123825539920
  8.4528829185267362  7.2984367418180902 14.4165175280002043
 12.8593100153540814  0.0905189174127899  2.5779564801727175
 -0.0238063194482465  7.6119982540051554  2.8541840342772562
 21.8359732284240806  1.7130005053854851 11.7177430606896671
  9.3097853857331749  8.9640316293232409 11.5996228981758680
 13.3685473455332708  2.0399891540957205 17.7721325430041261
  0.8342831256062516  9.3651101381271058 17.7153986941313732
  5.1921365803593309  1.6527812369284056  5.6565865325205973
 17.7543033412058051  8.8615975917027754  5.8526522554207991
 22.0514259409481106  5.6859114193838458 11.6834682560185037
  9.4767008142998233 12.9564151468045026 11.7186197400349084
 14.0007127487320258  5.5064930084613444 17.7734265487382821
  1.3733184336418316 12.8064596218100277 17.6899444167423781
  5.2196105146298333  5.5882969021603355  5.5429023757874205
 17.7269354294301316 12.9224631593886095  5.6134915084748878
  6.4411290877010599 -0.0776036208913776 11.7438861185769117
 19.0096815703452471  7.1617823808694157 11.7590826829001962
 22.7670713341632300 -0.1641985361156766 17.7714807427037620
 10.3952547897516094  7.0148063374291372 17.7014624359666612
 14.8321617146256592  0.0656450721574744  5.7782639692860238
  2.3250440698551258  7.2727649773332761  5.5555917018367218
  2.1693404960283122  3.6569319093759884  7.9214180684485047
 14.6400155580990905 10.9573811956021192  7.9393844250462973
 18.8897088567210574  3.6270513695374555 14.0843810417209969
  6.3539589856824392 10.9219019662265975 14.1442942609042568
 10.5377155353860115  3.6951815972306901  1.9078005007920977
 23.0623145819582298 10.9578349975425873  1.9045232907410441
 23.2130648971901614  3.6695020282050099  8.4139232659220831
 10.4049943337937716 10.8290753053261266  8.2157558170719174
 14.7048176736920961  3.6350203618449646 14.6051034178880030
  2.1174162584615663 10.9006031114849637 14.5107336642427924
  6.4961002582313716  3.5374835239856810  2.6097865652383279
 18.7816721736988796 10.9223164401364627  2.7343005318530467
  2.9691404900958185 12.6103783907654172 11.7274051442249299
 15.4753488984147882  5.3947714669367466 11.8136414222611581
 19.6301714673613290 12.9580467749077926 17.8929658875664224
  7.1436842792031872  5.8121290753526376 17.8226099262213324
 11.4239078839894681 12.5869795416939763  5.4858079604377217
 24.0280073104490164  5.3393555346835004  5.5547509721098081
  3.2476799920832620  2.0649228923564014 11.7445960965677738
 15.7435684649446817  9.3355708909745356 11.7454365352055490
 19.7892951730778108  1.6599151492034494 17.3387855105115989
  7.5325632090113634  9.0529039485343468 17.3689082324938440
 11.5079801060752587  1.8972017019637768  5.6890196824266059
 24.0031912340967821  9.2309796579760608  5.7144539512849688
  0.2101128110076013  3.5605044399912846 11.7145811576965002
 12.7249870056975425 10.8213451162072776 11.6688380118237518
 16.6495827243863772  3.1943158112433054 17.7453343486714203
  4.1234056569279316 10.6522465892586187 17.6918086149153346
  8.5599889908214504  3.5220327137422514  5.7362222965976617
 21.1109355077023331 10.8795726959796504  5.6777961588542842
  0.0073762106688274 -0.0329978088682105 14.0839933542929003
 12.5734675927395116  7.3056825225908781 14.2671550008245660
 16.8567741909131463  0.2791521395482852  1.8108270818079051
  4.2086166096316830  7.1361433751860375  1.5572839398423870
  8.3995393546027195 -0.0407935794542511  7.9713102276118679
 20.9510091586289704  7.2556814464986221  7.9960727147579460
 24.9834001778613555 -0.1058602590891666  2.8000256279322207
 12.4999502319133420  7.1002498546942032  2.5235669052631335
 16.8223333689397379  0.0606905732496766  8.4723257065381734
  4.2763558005579965  7.2829115504467463  8.3375180648284886
  8.3948835111055118  0.0405504372821562 14.4879237937842351
 20.9930543328075281  7.2725302329968082 14.4790913376633483
 21.8006812769090459  9.0480181938799848 11.7456615591908005
  9.2496079564807605  1.7866675593186736 11.7576866460974259
 13.3794692104576782  9.3275317841695529 17.7466978243011688
  1.4877157490004804  1.6366756210144293 16.9176340332250419
  5.2326327479806363  8.9360672275219208  5.5435884426588586
 17.7293092497941274  1.7430371440388426  5.7033828564956552
 22.0428748389626037 12.8818868382236005 11.7250016125872545
  9.5181355196770490  5.5969758538382184 11.7000732054987981
 14.0528950822464065 12.7749043773188262 17.7304513104536632
  2.1044052611763422  4.8682552271927912 17.9301209590864161
  5.2251718891277426 12.8432709561490626  5.6740432248360619
 17.6712832570087315  5.4970463355238488  6.0319723909491003
  2.2977716835091568 -0.0318580835066706  5.6323466812012315
 14.8006813968043716  7.2818664990280242  5.7631319470526954
 19.0231141871457652 -0.1441447087361502 11.7496518644357320
  6.5010729902382129  7.0906324856055667 11.6824339905340349
 10.4684211747055258  0.0824022466167977 17.3827183073984202
 22.9071063325675475  6.9790176349194262 17.7668810926496619
  2.0974649800200242 10.8772245556642897  7.9480718373333730
 14.4891293323363808  3.7968479114714540  7.9274091084680292
 18.8571044929439395 10.9019688026499217 14.2918702501269159
  6.3091801023623466  3.6816562166355045 14.3802994570857940
 10.6262871960611367 11.0541955865698576  1.4633375692250807
 23.0184827420295939  3.8119002547052561  1.8554819477979376
 23.0068445889963265 10.8754812491375255  8.5081097307616673
 10.5266481500907627  3.5603898671854100  8.4739455409046283
 14.6213332157680220 10.9366523474886925 14.4825677853702643
  2.1282856138261974  3.6544434688504053 14.4590364084612606
  6.1867312222042310 10.9039204934720360  2.4331035687255973
 19.1607468996387844  4.0499134290767342  2.8199753248013080
 23.9899578459718406 12.5867016722167673  5.7735211082739912
 11.4106850211055928  5.2492010462155605  5.6402661375229082
 15.5403102932710055 12.6862974188348527 11.7374503329071782
  3.0301384759604661  5.4395101038286375 11.7166061333772209
  7.3454533636441193 13.0104382673283148 17.6962360519843926
 19.7317065023824050  5.7893336546434542 17.5288185689016558
 24.1082381251087483  1.9786690178957647  5.6393492588422793
 11.4314946685957484  9.2394458122871370  5.3983906007945910
 15.7320189682874254  2.0501251803134197 11.7571680963916201
  3.1637354512851794  9.2423532980912082 11.7576456528149560
  7.7839199780367965  1.9003697705189082 17.8835467552089966
 20.1975272901226610  9.2432069027466746 17.7668388085424169
  0.1536594622454120 10.7322683023802661 11.7578646831287728
 12.7152658050484906  3.5035605771861640 11.8778745967062598
 16.6945869686087214 10.4771051266731483 17.7565904837773552
  4.6654100561859098  3.2182885568721966 18.1927580038360155
  8.5177086736039911 10.9048774439399043  5.4284210436350167
 21.1910241899551224  3.6054589842460860  5.6695405250006958
 20.9823121954755933  0.0209002444826275  7.9665231653294066
  8.4057667970311414  7.2334591112262938  7.8907011184895808
 12.5935983719561744  0.0087785770150674 14.1989362904894119
 25.1000002446176289  7.2521285277889698 14.2996071749291573
  4.2879920557988296  0.0405613257952186  1.8220097091963021
 17.0150030100246781  7.2968716326563481  2.1648399635632942
 12.6685188432046569  7.1272722848013288 28.8472025233818705
 25.1321498688388232 14.5262871956789876 28.9904839510767189
  4.3918690305422752  7.2642570670181783 22.5961226716675014
 16.8632790340476468 14.5463736324508606 22.7343429419059682
 20.7863544963238454  7.0904778096342165 35.4617883136321126
  8.4991448468613306 -0.4735773260282237 35.4578473616104048
  5.3616664862387298  5.6970304469100173 25.4424902350613849
 17.9076529277299876 12.8952182052932915 25.5093097365570856
 22.1983874020857002  5.9347299384783740 19.4593979455203083
  9.8897114374947055 13.0550995845224413 19.6328719509430805
 13.6116647976866680  5.5276921812772013 31.6467272797843329
  0.9685496423518155 12.8369264119088697 31.7413797075687434
  5.0440184313687322  1.7315522003877128 25.4626843977671733
 17.6336547049737717  9.0552635225352809 25.4989860758377063
 21.3233425477196157  2.0071582488188762 19.6509222194543902
  9.1389306648654873  9.2183410809119071 19.6486628250994215
 13.4903519080712186  1.6869941399739583 31.5139417242897046
  0.9458641700323452  8.9327809964524221 31.5518520338131907
 14.8347815262162950  7.1765871837149877 25.5074806979869386
  2.2090910650758242 14.4500279943554730 25.4851332923565401
  6.4796560520872086  6.9284568762559537 19.4870164389438827
 18.8773898639969211 14.0856769313099246 19.5139277194347152
 23.1496952428080363  7.2313632340480440 31.6298067551103763
 10.5714540883829038 -0.0289984718328747 31.4481642474852627
 10.4596613558217566  3.6440304543459963 29.2516937020937462
 23.0818794768274351 10.8811671531999039 29.3268519711415223
  2.2021200100381724  3.6836299651386319 23.1564790845729718
 14.7132955450008662 10.9149178934391013 23.0261656198071343
 18.8347106924593533  3.6424326110339953 34.7620646871200734
  6.2537967326628268 10.8903176131924173 34.5968737774143449
  6.2736071457645064  3.6278820904779008 28.7520496389816387
 18.8514191547043097 10.8098798829648093 28.8406159304376075