Cl48Li288P48S240 E=-2487.309114 eV
 1.0000000000000000
    25.1819793006824639    0.0000000000000000    0.0000000000000015
    -0.0000000000000009   14.5388225279766061    0.0000000000000009
     0.0000000000000000    0.0000000000000000   37.2126966544236950
 Li  P   S   Cl 
 288  48 240  48
Cartesian
  0.9639488283752041  1.6731333704101679  6.8887047505138437
 13.5549352978785453  8.9425452954671023  6.8887012690827003
 17.7735619616769256  1.7042455673859709 12.8790740001818502
  5.1825704247891835  8.9736532800971762 12.8790762322127517
  9.2891854060889472  1.5541742259142446  0.7667646169151844
 21.8802050272440418  8.8235737476125760  0.7667757365972866
  0.2096175119043658  3.6348381800602598  9.1562002565355627
 12.8006063945339488 10.9042456437222164  9.1562008878760519
 16.9145200587628466  3.6156822120363796 15.2089125660384852
  4.3235264440381052 10.8851108681981668 15.2089020201827232
  8.6193340420954829  3.6365406558919728  3.1876360772469829
 21.2103224486784292 10.9059616551962328  3.1876387456337096
  3.0430800385250318  5.2703712492438299  9.1563550719969751
 15.6340725512242464 12.5397826259716432  9.1563553647104268
 19.8556343572314518  5.3523279452476471 15.2086835849067619
  7.2646563035297964 12.6217360409095889 15.2086679477159148
 11.4305227130624729  5.2560666079548755  3.1877076125353310
 24.0215132376054541 12.5254771123443742  3.1877064229879664
  4.3645870483502671  3.6330788014852846  6.8887501049735080
 16.9555745043804187 10.9024802597281045  6.8887542499353804
 21.1146888153006884  3.6362486855623768 12.8790702191469304
  8.5236981203463973 10.9056557872215869 12.8790676703468314
 12.8960566870478672  3.6332369220812302  0.7666015457815718
 25.4870375260248814 10.9026280062642051  0.7666005063606641
  3.0428006710984303  1.9987348715262456  9.1560247256784724
 15.6337862060325108  9.2681447986855954  9.1560268847610065
 19.8891756546160394  1.9365730775838474 15.2090938783948548
  7.2981588361191596  9.2059779354799325 15.2091095255203772
 11.4276204752315369  2.0116573008264438  3.1875690889809727
 24.0186097694341711  9.2810706475208669  3.1875740445585490
  0.9669596718591427  5.5981104749951793  6.8887956673967237
 13.5579509326738226 12.8675236364761059  6.8887996297841250
 17.7711893879518392  5.5636237185247710 12.8790679093079827
  5.1802015497443268 12.8330336423115412 12.8790607970189832
  9.2922062321918890  5.7172472737340421  0.7664405122319019
 21.8832164784665721 12.9866697051687989  0.7664482996035521
 24.0690552313049864 12.6083600001508103 12.8790772496971719
 11.4780676126044128  5.3389496676130941 12.8790712518557218
 15.5846929898057773 12.4582867583690469  0.7667672478082176
  2.9937311224771279  5.1888638104063460  0.7667728431269516
  7.2594443162617610 12.5772505213250660  6.8887017879459265
 19.8504315767070594  5.3078378899005649  6.8887049690428341
 23.2100167978565786 -0.0190075868443606 15.2089178612851406
 10.6190189936026513  7.2503785729554933 15.2088964119172090
 14.9148291374467235  0.0018475964798784  3.1876371881850516
  2.3238361893777451  7.2712537664204344  3.1876348794160201
  6.5051122301243778  0.0001285128721038  9.1562007739515590
 19.0961010520388150  7.2695424112086879  9.1562001335715379
  0.9691645111615961  1.7176201909960971 15.2086711943340660
 13.5601356166945983  8.9870337134692875 15.2086789055381431
 17.7260227764566309  1.6213639286675496  3.1877012399584248
  5.1350285042247030  8.8907716344971632  3.1877066151885018
  9.3385755319256880  1.6356637361900674  9.1563551363184938
 21.9295660504368399  8.9050748747027235  9.1563574458554822
  2.2282033351245922  0.0015398656374711 12.8790688797495303
 14.8191932715164736  7.2709527697049081 12.8790685106668352
 19.1915502195614032 -0.0015065404916182  0.7665992140242099
  6.6005563848184288  7.2679211217575368  0.7665973686058905
 10.6600827731445627 -0.0016311186777476  6.8887494475360898
 23.2510711514241173  7.2677787589401666  6.8887538447402230
  1.0026777445769455 12.8406865356521642 15.2091094449599566
 13.5936667350359262  5.5712765461435545 15.2090992176137174
 17.7231125507621705 12.9157778952763476  3.1875730153283461
  5.1321261699257956  5.6463642119413313  3.1875651658091799
  9.3382935855625693 12.9028485343965293  9.1560228367341949
 21.9292829784847783  5.6334384424659412  9.1560264776853710
 24.0666857817047735  1.9289166937283668 12.8790659382893260
 11.4756948204455753  9.1983290251383441 12.8790664471595839
 15.5876782715457463  2.0825359193403443  0.7664391879541468
  2.9967122273243185  9.3519612937225052  0.7664404379423202
  7.2624538997390280  1.9634059242280979  6.8887988594749210
 19.8534449658433481  9.2328153637932626  6.8887982541256063
  0.9639475252220155  8.9425448973060018  6.8886996574549775
 13.5549379182873402  1.6731353019702970  6.8887048497299697
 17.7735611159507059  8.9736531386488156 12.8790765307509805
  5.1825718904919009  1.7042456576082989 12.8790734039252648
  9.2892178745321310  8.8235702660016031  0.7667745643875613
 21.8801650489612491  1.5541740076009558  0.7667602580883749
  0.2096151162775595 10.9042422487041009  9.1562015843557933
 12.8006069151414383  3.6348376689450195  9.1562001158393080
 16.9145161522157643 10.8851114605461934 15.2089010358442867
  4.3235298681870304  3.6156827456270744 15.2089117131027542
  8.6193315328492108 10.9059603340629234  3.1876365561505642
 21.2103224954492262  3.6365422974115780  3.1876346221956862
  3.0430797998318546 12.5397812098422232  9.1563568624269642
 15.6340726424212253  5.2703730685808301  9.1563545045110093
 19.8556507979301209 12.6217342044656498 15.2086684666712095
  7.2646482646580912  5.3523255393033589 15.2086849286564227
 11.4305207237325721 12.5254788150956013  3.1877028365713684
 24.0215174273476464  5.2560665777128435  3.1877003077316401
  4.3645846130573371 10.9024867644538155  6.8887538304113249
 16.9555764313785140  3.6330711480841753  6.8887503718922254
 21.1146882982498170 10.9056558332835660 12.8790668449345347
  8.5236988269390679  3.6362484791161895 12.8790702013514586
 12.8960496020808506 10.9026221170079491  0.7665954499150561
 25.4870471714727564  3.6332355165556245  0.7665974954308631
  3.0427977925219807  9.2681422467527348  9.1560252597103151
 15.6337864295287794  1.9987357304443505  9.1560254970757420
 19.8891469468536393  9.2059763177111034 15.2091106139552021
  7.2981840704212697  1.9365715857478087 15.2090961495869035
 11.4276266256579522  9.2810725760281247  3.1875679151769147
 24.0186078699122554  2.0116566541010967  3.1875673493289320
  0.9669579730220055 12.8675231439304714  6.8888025740928001
 13.5579493949825505  5.5981128579963002  6.8887970276812780
 17.7711918826644180 12.8330334179562566 12.8790604898715380
  5.1802001114315335  5.5636234517235756 12.8790680962205588
  9.2922195845667339 12.9866718540915116  0.7664432262333474
 21.8831983060759718  5.7172513674040797  0.7664381093973262
 19.8504307874550108 12.5772496846378665  6.8887028294500920
  7.2594435972034228  5.3078409823058008  6.8887012133301688
 11.4780656222839887 12.6083602711930105 12.8790775739154668
 24.0690571635953958  5.3389493827340049 12.8790710339756913
  2.9937146782657842 12.4582858619240682  0.7667715375675564
 15.5847344874484950  5.1888567862884081  0.7667742521008661
 19.0961012753422068  0.0001293091428379  9.1562009622284286
  6.5051105869998116  7.2695391138471344  9.1562008349422133
 10.6190267806507901 -0.0190029808870794 15.2089172014259848
 23.2100087367141050  7.2503835394142797 15.2088959584602446
  2.3238394592532781  0.0018502027926404  3.1876372185013624
 14.9148263272908927  7.2712574543925186  3.1876350303530576
 21.9295657266506936  1.6356666971538212  9.1563534774527948
  9.3385757599489185  8.9050772262707660  9.1563579536088966
 13.5601555956422075  1.7176199648215069 15.2086715761091078
  0.9691478305570159  8.9870335623636759 15.2086771048595963
  5.1350289316622106  1.6213637685997921  3.1877056533433459
 17.7260295799105378  8.8907718919557119  3.1876999605898999
 23.2510702840633243 -0.0016298220086724  6.8887506597128656
 10.6600789299825252  7.2677832349413798  6.8887547694052591
 14.8191935948327149  0.0015395447475289 12.8790690872355835
  2.2282026968663673  7.2709527047877378 12.8790677369077251
  6.6005603903631718 -0.0015013775457148  0.7665995976039101
 19.1915450399856660  7.2679128231775829  0.7665971436224113
 21.9292827125027010 12.9028499138893444  9.1560235497194888
  9.3382926983599734  5.6334385237361184  9.1560262573697777
 13.5936656043445332 12.8406851328672680 15.2091089106975179
  1.0026758627074457  5.5712766814696835 15.2090998923017686
  5.1321292914747660 12.9157790288248719  3.1875705538059784
 17.7231052773814390  5.6463634198024844  3.1875735311013500
 19.8534465208069797  1.9634055485860982  6.8887961036717353
  7.2624521638171240  9.2328192121799066  6.8888007780530289
 11.4756964229793965  1.9289168041565408 12.8790643798062732
 24.0666853734945292  9.1983295854185130 12.8790650073354431
  2.9966914472844155  2.0825383897916789  0.7664378984647092
 15.5877025955941537  9.3519595202606247  0.7664418647114578
  9.3546998731769744 12.8766406869710988 30.2624526126548439
 21.9456891404571728  5.6072282788677894 30.2624516612726602
  0.9795554838139767 12.8369819329067880 24.3734902903288209
 13.5705476662878386  5.5675709290405671 24.3734852386548475
 17.9359258517784994 12.5511282112362004 36.1262358335175051
  5.3449569581543397  5.2817131764876804 36.1262585571830854
  8.5895916212985259 10.9056747288284033 28.0508766960849556
 21.1805819154286681  3.6362628919136153 28.0508778474854310
  0.2015413023461526 10.8828836732172878 22.0445491310435280
 12.7925344824905576  3.6134745613114165 22.0445510458172045
 16.6370786786863007 10.9028749790898871 34.0500880927611576
  4.0460860817143978  3.6334601665977129 34.0500904314025448
 11.4426234318074371  9.2554562584472535 28.0507890905087294
 24.0336136990960512  1.9860415169217198 28.0507875515995870
  3.0657349810029157  9.2723208843411911 22.0447647295466460
 15.6567270811120842  2.0029088097752927 22.0447549851794058
 20.0121809307959388  8.9566138067612684 34.0499952772892627
  7.4211887418686064  1.6872016545443511 34.0499931726626173
 12.7696502567881076 10.9030985628134420 30.2624276940273482
 25.3606394682065961  3.6336899945101049 30.2624280477838319
  4.3317801477384910 10.9066857782654765 24.3734399842401679
 16.9227675217213651  3.6372765334035817 24.3734376066284888
 20.7881632152276339 10.9033193908866668 36.1262045694095519
  8.1971730312297328  3.6338935934153307 36.1261988471095066
 11.4452576110340551 12.5513786718302125 28.0509582809761682
 24.0362457202908537  5.2819640689970075 28.0509611082244774
  3.0283346665243931 12.5577119826204200 22.0443885633143992
 15.6193350306847982  5.2882953226470368 22.0443856153153952
 20.0101995696542510 12.8527005194115436 34.0501935906338105
  7.4192080509665788  5.5832860575575296 34.0501880518731070
  9.3531246827278025  8.9324828401715148 30.2623982032519194
 21.9441149121667181  1.6630720673006867 30.2624035311321400
  0.9841655765255581  8.9688139327348235 24.3734071996570840
 13.5751558205589529  1.6994031496183841 24.3734075160855177
 17.9353649261055068  9.2573119519042901 36.1261560593791842
  5.3443530958669294  1.9879030721532009 36.1261333403080798
  7.2750536806823840  1.9328648586858617 24.3734861628471755
 19.8660389445358128  9.2022757947259404 24.3734909274431786
 24.2314548662623253  1.6470101620628208 36.1262691182804261
 11.6404316689040339  8.9164239892017445 36.1262322905825286
 15.6501921874868497  1.9725236302579148 30.2624563192635527
  3.0592058346309341  9.2419340826823007 30.2624551802948787
  6.4970391231014935 -0.0212400496554071 22.0445518468885915
 19.0880266530309584  7.2481861338840146 22.0445484225765753
 22.9325713444541499 -0.0012374131534747 34.0500901052064435
 10.3415831173750359  7.2681614238199534 34.0500864350597894
 14.8850867204267772  0.0015581921668746 28.0508775869612776
  2.2940968059471381  7.2709695297979646 28.0508783390335950
  9.3612390837779689 12.9070298680779949 22.0447545834602252
 21.9522144193447204  5.6376104567815233 22.0447655287567095
  1.1256953183582283 12.5913200775054399 34.0499943798156792
 13.7166859512765189  5.3219077277178855 34.0499915521827745
 17.7381190448844883 12.8901600595160701 28.0507879944363943
  5.1471281249145138  5.6207500371575332 28.0507849704756929
 10.6272718490736899  0.0025725113454864 24.3734379232620100
 23.2182631977934761  7.2719816739977432 24.3734385720998397
  1.9016786768325189 -0.0007925237818087 36.1261997369025778
 14.4926658123377994  7.2686058307601442 36.1262052351318630
 19.0651455427046059 -0.0010141499891110 30.2624293103402628
  6.4741547213776123  7.2683954237914090 30.2624282372327080
  9.3238490660921336  1.6535874260280683 22.0443794401976199
 21.9148099684722197  8.9230098071406445 22.0443947962806810
  1.1237098664710716  1.9485836634893290 34.0501882770682442
 13.7147058745502743  9.2179924958546451 34.0501885144541561
 17.7407504745013505  1.6472601938732896 28.0509590528645454
  5.1497614720633891  8.9166692345028480 28.0509666028035447
  7.2796607251114027 12.6035187660137034 24.3734032532547147
 19.8706480881040548  5.3341082879059822 24.3734103049274715
 24.2308222515025165 12.8920230180369728 36.1261271333477936
 11.6398737754955786  5.6226053404188470 36.1261547922138462
 15.6486219919242906 12.5671895564391392 30.2624009378304955
  3.0576297501532568  5.2977770419266523 30.2624008112606688
  9.3546935577434649  5.6072261843698037 30.2624541055881835
 21.9456877522219500 12.8766389342468788 30.2624529065568950
  0.9795554030640524  5.5675692633449128 24.3734903727076144
 13.5705449943353553 12.8369829330762109 24.3734882537296684
 17.9359469282642578  5.2817153144025140 36.1262576530285386
  5.3449680653151477 12.5511334481453769 36.1262621154238275
  8.5895919061423065  3.6362636000725668 28.0508775864592579
 21.1805826275791134 10.9056749490286489 28.0508767924495857
  0.2015446717149950  3.6134793479925911 22.0445495193347547
 12.7925312287423427 10.8828811557772145 22.0445486125142196
 16.6370758799369831  3.6334587799844642 34.0500903699798059
  4.0460886948498800 10.9028760144445709 34.0500900862605604
 11.4426239210805853  1.9860437155136401 28.0507872710906696
 24.0336126137250936  9.2554514901907243 28.0507872863988226
  3.0657391248663459  2.0029102102132588 22.0447536486503921
 15.6567231834465570  9.2723205794416153 22.0447652371247074
 20.0121782191344479  1.6872009793717047 34.0499943448102940
  7.4211905995855760  8.9566135531182489 34.0499989301927997
 12.7696516427277462  3.6336881059674897 30.2624269233307075
 25.3606411301299133 10.9031014936894710 30.2624265128059307
  4.3317742177452896  3.6372774063152384 24.3734365417790784
 16.9227671545594482 10.9066875710995426 24.3734385736505175
 20.7881624049912972  3.6338998694372608 36.1262006339991970
  8.1971716688172691 10.9033201164918356 36.1262048606494943
 11.4452573014480592  5.2819691728064040 28.0509603311833544
 24.0362475282149575 12.5513780973968831 28.0509595736892265
  3.0283446319327347  5.2882961210507773 22.0443860974554369
 15.6193250797699204 12.5577117219779542 22.0443881656046337
 20.0101980155142520  5.5832864860512057 34.0501816608120222
  7.4192095208005648 12.8526997534536509 34.0501839859957087
  9.3531305100061104  1.6630719762478345 30.2624052649512585
 21.9441167508074884  8.9324847155669485 30.2624011388402465
  0.9841659082522194  1.6994011648611667 24.3734033788345279
 13.5751534806277707  8.9688150787873688 24.3734097163151162
 17.9353430212783138  1.9879053638206297 36.1261340521783012
  5.3443464345681599  9.2573132622996201 36.1261299747420637
  3.0592015451877952  1.9725214397452751 30.2624471938793143
 15.6501896520698249  9.2419335199490558 30.2624553636766507
 19.8660433200794522  1.9328644426993937 24.3734862107518389
  7.2750478886745356  9.2022748812191182 24.3734910146703143
 11.6404639126643108  1.6470088132281435 36.1262559308946365
 24.2314506493439481  8.9164243074302991 36.1262610925421939
  2.2940975021958661  0.0015569635052330 28.0508775410306406
 14.8850869606135134  7.2709693902548400 28.0508769068671029
 19.0880290410770002 -0.0212401290476550 22.0445517873389889
  6.4970372311663631  7.2481850606855911 22.0445480466691954
 10.3415810076874859 -0.0012340202170672 34.0500903413794660
 22.9325733190232732  7.2681669423965989 34.0500875054765828
  5.1471289270021909 12.8901583562108915 28.0507875126135211
 17.7381214025027312  5.6207476650843811 28.0507866254514937
 21.9522254004139441 12.9070294279500075 22.0447515506331797
  9.3612232696653717  5.6376099843261134 22.0447627382449163
 13.7166867499231948 12.5913199973901868 34.0499961325127387
  1.1256974822299570  5.3219078354532980 34.0499974659690281
  6.4741567144103005 -0.0010156544559533 30.2624269718230252
 19.0651456916133419  7.2683970725257856 30.2624250428576502
 23.2182604206043699  0.0025698014339941 24.3734376531995665
 10.6272721293422361  7.2719844609151529 24.3734381107554618
 14.4926684646030495 -0.0007979359614295 36.1261992819573194
  1.9016766692056102  7.2686065999421565 36.1262045649488286
  5.1497630083399493  1.6472639929224731 28.0509572329723476
 17.7407504243512868  8.9166732401585769 28.0509625104485565
 21.9148382550286271  1.6535880304239685 22.0443819646064547
  9.3238175345776373  8.9230104267527501 22.0443971432998183
 13.7146982884411859  1.9485837851081107 34.0501892496399705
  1.1237139203457078  9.2179929977330364 34.0501833684776969
  3.0576311207519797 12.5671895785111936 30.2624062553275870
 15.6486236983643536  5.2977778767378290 30.2623961577023834
 19.8706508337593846 12.6035183025045576 24.3734017719944021
  7.2796595057262126  5.3341077710930840 24.3734095359465108
 11.6398329383266503 12.8920225018190759 36.1261410282613298
 24.2308317955010502  5.6226067829250104 36.1261264107171698
  0.0000146881640159 -0.0001106452424325  0.6171718301487724
 12.5909852617815172  7.2693273741550994  0.6171694191193551
 16.7879883543839128  0.0000158316716056  6.2661054686014035
  4.1969969209128104  7.2694264681162641  6.2661022812917224
  8.3940217113931084  0.0000727026079520 12.1865115691956554
 20.9850099082321577  7.2694847772512041 12.1865158081546099
 23.0834790256488773 10.9041291820389326  6.2661068432997462
 10.4924925636360520  3.6347183592129180  6.2661051608424971
 14.6895166622278683 10.9041906319562649 12.1865125823799580
  2.0985265645042555  3.6347785971901705 12.1865090661251116
  6.2954928446647624 10.9040273301530508  0.6171722391595074
 18.8864978935128356  3.6346299735903664  0.6171698218865428
  4.1969951325825923  0.0000140271517184  6.2661062929533653
 16.7879851421282105  7.2694244599233455  6.2661041144080443
 20.9850177933535313  0.0000718240983978 12.1865106848153406
  8.3940198549013729  7.2694860548877172 12.1865153150683128
 12.5910065999071730 -0.0001077183984598  0.6171716896848769
 -0.0000010317429423  7.2693183018352823  0.6171700707270398
 23.0834841164086022  3.6347194510089222  6.2661042498376380
 10.4924959498385810 10.9041336087865677  6.2661015612551303
 14.6895185005459297  3.6347798620582914 12.1865078187864775
  2.0985225693132641 10.9041917367827281 12.1865121339989528
  6.2955098399459883  3.6346252443806377  0.6171694953751871
 18.8864881454396709 10.9040272476218352  0.6171714520585824
  8.3939601743007213 -0.0014275325296518 18.6172807802592573
 20.9850435425357666  7.2679915610292642 18.6172849168455663
 25.1819731573954861  0.0000146547834284 31.0297845186829697
 12.5909903000882188  7.2694262040869511 31.0297768591127117
 16.7879948062095430 -0.0000248936360220 25.0074362408736235
  4.1970005417915095  7.2693846883679205 25.0074409541656628
  6.2954957741332089  3.6346961992544076 31.0297808881878474
 18.8864812005391052 10.9041346418097973 31.0297807129501919
 23.0834839253201949  3.6346798429888154 25.0074409764875654
 10.4924949471365174 10.9040926241962879 25.0074367167447491
 14.6894865120119196  3.6332917215691345 18.6172815506046909
  2.0985272046538062 10.9026835084671152 18.6172841978692318
 12.5909891936068270  0.0000171491961062 31.0297834104782879
 25.1819851094931657  7.2694259620864790 31.0297777933451719
  4.1970008981737648 -0.0000239691650567 25.0074371494459164
 16.7879927948944214  7.2693882135342243 25.0074393005008453
 20.9849486912017476 -0.0014136335086664 18.6172794996326765
  8.3940569527484996  7.2680072668946165 18.6172839625449207
  6.2954961533717482 10.9041327494445959 31.0297836612491551
 18.8864893548366162  3.6346931250973142 31.0297809243949700
 23.0834832372369476 10.9040953524843225 25.0074355678000266
 10.4924919659779157  3.6346814533788234 25.0074358497520350
 14.6895220048995618 10.9026831680287213 18.6172836797042933
  2.0984988275377616  3.6332866607496803 18.6172806454236373
  4.1969962171673014 -0.0000729304141992  8.3413010691666774
 16.7879869749030561  7.2693415815062723  8.3412990620386420
 20.9850076001418486  0.0000250543320893 14.2583242184562096
  8.3940068327553305  7.2694368806452223 14.2583265454562795
 12.5909961773059003  0.0000251796702810  2.7505251910928252
 -0.0000030398126657  7.2694472408683879  2.7505232172706862
 21.9577048452989132  1.6857397237916811 11.5311373492781861
  9.3667129441142070  8.9551505087116627 11.5311403691571535
 13.6860210459354601  1.9742963669974107 17.6246512823284007
  1.0950048957140086  9.2437170202408403 17.6246604760444683
  5.1635735026608991  1.6699819401331015  5.5692310728486811
 17.7545662864145655  8.9393927169622245  5.5692291968332803
 21.9583971915488725  5.5843612948374606 11.5308371170318722
  9.3674131825695177 12.8537682812556184 11.5308321785970662
 13.7527116279015882  5.3327547804341568 17.6262435231439980
  1.1617034379621241 12.6021460626243105 17.6262690313317734
  5.1599184901566986  5.5974069001300837  5.5691181918356509
 17.7508981737413478 12.8668124701188393  5.5691268112459253
  6.4478930390850113 -0.0005276683428118 11.5310148439811169
 19.0388736792509441  7.2688843834820878 11.5310117587874110
 22.9245574691965643 -0.0377046293039213 17.6258425132234890
 10.3335864672481197  7.2316434021965277 17.6257704040030703
 14.8584883237237584  0.0021526053701116  5.5691741144277538
  2.2674989963945902  7.2715602612284682  5.5691737581734682
  2.0984971416865119  3.6347446536914427  7.7873201249341211
 14.6894867344412159 10.9041558837654993  7.7873223958501807
 18.8864796302860647  3.6346195970837161 13.9309680120174164
  6.2954908719252876 10.9040276181953413 13.9309654695949732
 10.4924973340948924  3.6348234108516739  1.6632867499626580
 23.0834798750458923 10.9042346027257988  1.6632921496063640
 23.0834832373845451  3.6346347199193021  8.3412978226018009
 10.4924921385151535 10.9040445814447633  8.3413004579259162
 14.6895099624462588  3.6347322820862407 14.2583271435813224
  2.0985148672086384 10.9041415377246977 14.2583273360414928
  6.2954995582785287  3.6347452256801995  2.7505240837943106
 18.8864829671266605 10.9041555243792594  2.7505233928253907
  3.0712175614186590 12.5898560486927504 11.5311388130327472
 15.6622103352829267  5.3204449064455552 11.5311375725829599
 19.9815064361144614 12.8784046860386852 17.6246507933617487
  7.3905287629407983  5.6090172872350976 17.6246805942982157
 11.4590711236070000 12.5740936195072344  5.5692259221653950
 24.0500614924357947  5.3046882223710341  5.5692255659880008
  3.0719155078575300  1.9496540352535237 11.5308348239217189
 15.6629041497694157  9.2190654834339973 11.5308367533833049
 20.0482234370514227  1.6980566109601216 17.6262206798027670
  7.4571794975061865  8.9674436524359251 17.6262787134740933
 11.4554136349366029  1.9627016567410689  5.5691226876072308
 24.0464019751587372  9.2321093369705043  5.5691234408074513
  0.1523962434869403  3.6341773317917982 11.5310146872505115
 12.7433803188376622 10.9035895280571697 11.5310135806488958
 16.6290734681764292  3.5969722098184329 17.6258218832021321
  4.0380868555991078 10.8663839554829860 17.6257967049158246
  8.5629940287724917  3.6368547863589162  5.5691744947625956
 21.1539833045777250 10.9062642282619606  5.5691773556831023
 -0.0000030211246843 -0.0000894563078215 13.9309725723682778
 12.5909858534730805  7.2693240466769806 13.9309616922340531
 16.7879914419910463  0.0001243539572836  1.6632863318540152
  4.1969947086401671  7.2695359983017944  1.6632874216331404
  8.3939919015269862  0.0000384121395693  7.7873207987207698
 20.9849816880416924  7.2694489647495972  7.7873225588997119
 25.1819855362280443  0.0000239290867275  2.7505251759615943
 12.5909834704800900  7.2694398745874267  2.7505231844286100
 16.7879866375424029 -0.0000688370091297  8.3413015920909537
  4.1969968071973032  7.2693369616041288  8.3413000485893303
  8.3940175159537898  0.0000243140900900 14.2583245863124422
 20.9849961364256217  7.2694368243519003 14.2583268233212230
 21.9577032574296283  8.9551512087272656 11.5311390749443881
  9.3667165598538258  1.6857405747977392 11.5311363429813927
 13.6859949001566612  9.2437178072022199 17.6246630560255255
  1.0950276444132621  1.9742976344528396 17.6246496625944928
  5.1635714639945958  8.9393949425483132  5.5692325013746773
 17.7545704616703581  1.6699779732146758  5.5692259240779967
 21.9584016569234102 12.8537700557706813 11.5308334167390427
  9.3674073483086921  5.5843602799934091 11.5308368136045889
 13.7526902427488480 12.6021441335977116 17.6262669521799218
  1.1617207774831089  5.3327511465838331 17.6262459571330616
  5.1599166204488416 12.8668158895491871  5.5691231061323121
 17.7509050964713779  5.5974049816019207  5.5691227308717268
  2.2675003004049286  0.0021486601095500  5.5691760558820382
 14.8584882497586026  7.2715619869090453  5.5691744086502633
 19.0388787913622899 -0.0005266025004159 11.5310142216209002
  6.4478834277115045  7.2688839710996236 11.5310114833421871
 10.3335716036777949 -0.0377037939815401 17.6258433299149253
 22.9245777574044993  7.2316478929659427 17.6257745949060407
  2.0984958162216567 10.9041548751267587  7.7873232766519509
 14.6894860371743903  3.6347463517832965  7.7873206557696548
 18.8864799493230180 10.9040278372278543 13.9309658681384168
  6.2954901725087948  3.6346197450900273 13.9309691390412809
 10.4924879552204100 10.9042366715449290  1.6632878889846450
 23.0834865803343767  3.6348217278682333  1.6632825277985330
 23.0834803680002523 10.9040463467874300  8.3413020867712273
 10.4924902078031721  3.6346328706892086  8.3413023905965815
 14.6895042017324808 10.9041420497028323 14.2583267923666099
  2.0985194133277774  3.6347326609550659 14.2583261824925138
  6.2954906160419677 10.9041493782414953  2.7505247924328633
 18.8864879657470262  3.6347524582975486  2.7505245134433634
 24.0500566106023577 12.5740973912455622  5.5692296237964243
 11.4590652351858253  5.3046893114834415  5.5692346599281359
 15.6622072391867313 12.5898551002698724 11.5311386524708261
  3.0712208835232460  5.3204464303371966 11.5311375580514426
  7.3905073370476257 12.8784066390379710 17.6246448534221258
 19.9815105056461384  5.6090173085834918 17.6246725966007993
 24.0463996497392642  1.9626993183938424  5.5691246594181054
 11.4554077974863144  9.2321085094482598  5.5691224289207923
 15.6629051824905527  1.9496544512620884 11.5308358852737154
  3.0719155977062518  9.2190633095187930 11.5308365310051126
  7.4572342969837058  1.6980498614372863 17.6262278347319352
 20.0481676320251943  8.9674363739748131 17.6262819740110039
  0.1523929031555092 10.9035899241606291 11.5310142977923178
 12.7433848415313786  3.6341779149176126 11.5310143113143901
 16.6290760606444330 10.8663827478629109 17.6257948756175082
  4.0380847581144419  3.5969729427792352 17.6258209266974717
  8.5629912702698903 10.9062662582190466  5.5691743873041180
 21.1539828265548380  3.6368552181287601  5.5691715991319919
 20.9849813137633703  0.0000387414225094  7.7873207282209327
  8.3939911086852508  7.2694511462993674  7.7873227395698681
 12.5909846682618838 -0.0000890992044702 13.9309720726442325
 25.1819770105784038  7.2693239703460275 13.9309620081889722
  4.1970016244968251  0.0001246965387665  1.6632873934044861
 16.7879843020698125  7.2695359551923957  1.6632878158177999
 12.5909906016605930  0.0000843154553725 28.9467846701258935
 25.1819799802951003  7.2694928540611023 28.9467869489524681
  4.1969869287799924  0.0000565256079873 22.9290783915281793
 16.7879767235889368  7.2694676842985633 22.9290806802315039
 20.9849815650274358 -0.0000088041936533 35.6941063780422851
  8.3939958350892390  7.2693980241745617 35.6941110190439801
  5.1683270853412067 12.8580426425666339 25.6769657510931140
 17.7593145735446534  5.5886264438131183 25.6769694074484995
 21.9796173113591351 12.8837037436450839 19.6145691665744444
  9.3886328361599780  5.6142677428885595 19.6145814450769471
 13.5762669451835407 12.8294093405226448 31.6371396201463284
  0.9852749926517226  5.5599985459000241 31.6371440019389674
  5.1668919844851677  8.9509301570549233 25.6770835753202071
 17.7578828026752795  1.6815219036229425 25.6770618484070958
 21.9215598999313919  8.9572066041006675 19.6130297633967849
  9.3306287054191763  1.6877606701043002 19.6129678331548085
 13.5787308445376578  8.9773670644316006 31.6372779246309079
  0.9877430995871016  1.7079564345392175 31.6372732857346541
 14.8467696611316438 -0.0007515285728046 25.6770258691231774
  2.2557817260785571  7.2686593895738350 25.6770254049963462
  6.4633871248748909 -0.0327091511275156 19.6134137180714525
 19.0544021088495441  7.2367517604740108 19.6133653279221676
 23.2089667901127896  0.0013979929154302 31.6372062724844518
 10.6179707816825886  7.2708061182780108 31.6372071527777301
 10.4924922691736118 10.9041073600115652 29.3970669635155062
 23.0834821602868701  3.6346955329479802 29.3970658275480794
  2.0984374919962718 10.9043088790786733 23.4140173581135471
 14.6894314367078955  3.6348955043196387 23.4140120139371390
 18.8864838612668926 10.9040525855486088 34.7450389449771038
  6.2954924296720316  3.6346427076393626 34.7450361008021886