Li P  S  Cl
 1.0000000000000000
    25.1819793006824639    0.0000000000000000    0.0000000000000015
    -0.0000000000000009   14.5388225279766061    0.0000000000000009
     0.0000000000000000    0.0000000000000000   37.2126966544236950
 Li  P   S   Cl 
 288  48 240  48
Selective dynamics
Cartesian
  4.8293265781958210  3.6952757077809144  6.6914151979867391   T   T   T
  9.1885211828301259 12.9548945679205030  8.4654165747783381   T   T   T
 18.4821893898634499  5.0124819826861007 11.6285456259620492   T   T   T
  6.1789976706652459  9.0172945581074355 18.7393106344667792   T   T   T
  8.3966480056456092  1.7095463600828671 -2.2177076062190548   T   T   T
 27.4813555768588955  8.8294689090939471  0.0700134728849391   T   T   T
  4.0977844428446888 11.2641911230033003  5.9185614892140350   T   T   T
 15.3171084869995315 15.3935978584013675 13.2503105664351537   T   T   T
 17.4222367154656297  3.8128155644036035 19.4480352567560253   T   T   T
  7.9383398201451998  9.9613770397293582 14.4042775659954518   T   T   T
  9.8510530447564157  5.9428540419790306  8.4101720541948026   T   T   T
 17.3165471821617629 10.6250634170440073  6.9038804858038034   T   T   T
  1.5047187726271201  1.7527548233048824  6.0753334242438983   T   T   T
 12.5194508640674176 13.4388199358816696 11.0527897332466232   T   T   T
 18.4378108413040991  2.1117267700888966 11.8908976220435783   T   T   T
  7.6783392260544447 15.6042557624953488 21.1724977244910804   T   T   T
  8.5846663920946131  3.8631363434899129  2.6720195180177471   T   T   T
 24.8644427965476851 18.9190658493211856 -6.8874823203456543   T   T   T
 -0.2160268794160156  9.5933398468321531 13.8655377878527837   T   T   T
 16.9138525162292837  9.4826076506571955  9.7687653689346519   T   T   T
 22.2194165582185974  2.5746410826879345 12.8952622195598234   T   T   T
  5.0423169334008664 17.6663285128604315 14.4528093826961861   T   T   T
  7.7759966626878994 -5.7149134488491349  9.1378509753810100   T   T   T
 25.4645534232497397 12.7385655102375441  2.5063308775176130   T   T   T
  1.1852379553480055  6.1219473212544102  7.0866051446370122   T   T   T
 15.2133367922758307 12.7666465505114157  8.1455120625526121   T   T   T
 19.7666981391753822  1.7374672419521562 14.5664354759820132   T   T   T
  6.7065253485710716 13.7285086682022719  8.6716007790595793   T   T   T
 11.9809551637625198 -3.6833473504991829 -0.5974174613354941   T   T   T
 21.8308916148048127  9.2375119850090393  3.0966194352432170   T   T   T
  2.9873175462443164  5.4160094669165684  8.8162051961459618   T   T   T
 13.0567310741266738 12.0717173761244947  6.4816873584475587   T   T   T
 20.2224695923976228  6.4382107261576333 18.1058000280269447   T   T   T
  5.8916513658074656  9.4466137084902186 12.1089390637683927   T   T   T
 11.2767792148265666  6.1076362379543392 17.3515774784528745   T   T   T
 21.9751198219072563 14.9379766930145923 -2.4754299954352934   T   T   T
 28.0906309298960721 15.4664510534363231 13.1804128740729727   T   T   T
 17.3050789045861961  4.0101836572091756 14.3554453536369362   T   T   T
 18.3974137865349903 14.5251544300904385 -0.0662768723762686   T   T   T
  3.9130712021393634 10.3087926616561862  1.5240587432895343   T   T   T
  9.3336890407102118 14.1968106980430946  5.0390899538637113   T   T   T
 20.5225274681082936  5.9861746416478834  5.6343703243093453   T   T   T
 24.2299735083488770  4.2614122935221053 18.3381937890757598   T   T   T
 13.2680750247920791  5.0166845381765635 14.3986592448965265   T   T   T
 20.3983772940509169 -2.7109353828468579 -1.1035888148818751   T   T   T
  2.1466637193537226  6.1907487545540549  1.2572697130331945   T   T   T
 -0.0018542831051146  3.1575247371089903  8.9001380856826220   T   T   T
 21.2068137771671914  9.0562187000431233  9.1199142686682375   T   T   T
  4.7096992482798727 -4.0776068885058985 14.0896674830384399   T   T   T
 12.4693646776502849  6.4447800977264853 11.2240245679054453   T   T   T
 18.9376918044299174  1.1458886509458865  2.5469526658166597   T   T   T
  2.0595738714782863  8.6732528523415784  2.9090474843078975   T   T   T
  7.9793521505338054  1.3914369824550243  4.9328375064235708   T   T   T
 17.5990063894934536 12.3648471481586526 14.8423162961846433   T   T   T
 -0.1337576441463187  1.9200159015639149 12.5853337239800975   T   T   T
 10.9001529256247540  6.0451621499559236 13.1444616171021096   T   T   T
 25.1101079402962029 -5.6489808972941820 -2.4225263716541585   T   T   T
  5.7281263976616463  7.9056458329665897  3.0782495049161840   T   T   T
  8.2902895105090249  2.8340807200158182  7.6855816487958935   T   T   T
 19.8129760574717224  9.0591013037618140  6.0653499553359493   T   T   T
  1.1449489801487027 12.8413813180262721 14.7609620515738538   T   T   T
 11.8205956609669514  9.1860734504280916 12.8737369078912867   T   T   T
 25.2541174725490265 11.8828661663502082 -2.2683850995158372   T   T   T
  0.1736147601744367 11.1713111311970472  8.6324123958567576   T   T   T
 11.0035248196786348 15.5618078077006494  7.4536204186781569   T   T   T
 18.6357550187263428 12.2287972028259606 11.2893472706177604   T   T   T
 27.8328275765101552  1.2986770954841083  9.0097819186307664   T   T   T
 13.9658403467759697  8.1218338647915669 15.5856715542832340   T   T   T
 14.4912188063205605  5.7726496489151247  0.6156745862224601   T   T   T
  1.7029927808432197  6.6362214613708526 -8.5278819407808690   T   T   T
  3.0266765040308958  5.1889145212758994  5.2431163974942985   T   T   T
 18.8450495260465800  6.1898950343243122  7.8218587344419426   T   T   T
 -5.7041738813301359 15.3305436727257440  8.6191046807930043   T   T   T
 11.7520704921952905  1.8562893648412186 12.1899721693357215   T   T   T
 16.6088421107213264  9.8761774841389620 19.4505291613423559   T   T   T
  2.4744768791597940  5.1734430898976180 18.2031217298054848   T   T   T
 12.9133843101443446  8.0762898345961815 -1.7511079691508946   T   T   T
 21.9531290091549849 -0.5929525887002316  0.3239396546952989   T   T   T
 -0.4412681200703671 14.1606492004429398 11.5392957854052796   T   T   T
 15.6558963391233572  3.7118202716521127  5.2754270295496246   T   T   T
 21.2198892949846680 11.6898045940231707 12.6627946351759579   T   T   T
 13.9564052821163713 -0.8695804176976579 19.7170275782391045   T   T   T
  5.9422892053597911  6.8800546902935187 -0.0678971197441674   T   T   T
 25.6914648511900197 -3.8843497833717890  0.4649220663155463   T   T   T
  2.7200642318825863  8.9597273165660170  8.8402624564705672   T   T   T
 13.9299050585488988  1.4560247568352547  6.1905119642659425   T   T   T
 16.8744771535221290 14.6192645959472394 17.8928540080457239   T   T   T
  5.8227115430545844  5.8449381178366231 12.9313753216237188   T   T   T
 15.5929642485497979  9.7231678867504989  5.3497988483822176   T   T   T
 27.0282152178557666  7.9145836841077450 11.7106877165359133   T   T   T
  0.6481707156694220  9.3470895016613262  5.8567931277279044   T   T   T
 12.8488401102249519  4.5711090880162049  8.5251085459683065   T   T   T
 17.5971152088475762  9.5320751961689485 14.2461591987776988   T   T   T
  8.0356536126548104  4.2157051511726324 11.2135025271493092   T   T   T
 11.6203623212212896  3.9302434711596956 -0.7728299495238670   T   T   T
 29.4457971962049996  3.7868429728574791 -2.1780281036429368   T   T   T
  1.0605245214527723 12.4517505945544578  6.0886217493307484   T   T   T
 17.1564632976840272  2.3155123274512452  7.3925266240709364   T   T   T
 21.3320321448615715  5.1308410564994427 13.6154880849629425   T   T   T
  9.0510474926817714  2.6441675683840047 13.7321189582625731   T   T   T
 13.9770214653326139  9.4072848761465941  9.3738937281369523   T   T   T
 20.4604074955153266  1.7953933776430797  6.2458826642421670   T   T   T
  3.2772302292824120 11.7120741028052961  9.0387419367143398   T   T   T
 14.4577125012600369  2.0858357036797530  9.3307030142876162   T   T   T
 20.8695679978093480  9.6640017672174263 14.9811991451031243   T   T   T
  5.7745973307222194  2.1495205270574296 12.2316868871957158   T   T   T
 -0.1934272273773563 19.8998317182213711 -0.4623474251838888   T   T   T
 24.7412556766446201  2.6361455602361326  1.1260180346929904   T   T   T
 19.2944096656761701 13.2498958957641833  6.7746036491577328   T   T   T
 16.0401459884442943  4.6836123750935883  8.7860876091140678   T   T   T
 11.2805880068773110 13.9834924197339507 14.1262764105727818   T   T   T
 25.9125123928505303  5.4729656414364696 21.3398263406209949   T   T   T
  5.7495294536877370 15.0964375562799589 -1.1978424867121973   T   T   T
 13.4513299682829857  7.8816468924242784  6.6344424262807093   T   T   T
 21.3577480960737418 -1.6691855699222153  8.8945342311758768   T   T   T
  7.0508752996373385  9.0819441770485518  6.5563028264467125   T   T   T
 16.3646512846481897 -4.3679693696889865 22.1205150520162732   T   T   T
 24.1907426915765811  7.8475886928731295 11.5329040249889179   T   T   T
  3.4824160986668016 -2.5245207240150460 -1.2451281854001903   T   T   T
  8.6847928552009108  9.8267102585089248  2.4179433463745270   T   T   T
 23.4037391696376744  0.9380420454659648  7.4498760461198774   T   T   T
 15.2098871833332723  6.7399740500512744 13.2637128137071603   T   T   T
 18.7789314571456316 -3.9414203034606135 16.6211192464323148   T   T   T
 -2.6082084478544481  9.6820798585943209 18.8694380701613618   T   T   T
  7.5155422502798990 -2.0743053478183180  6.1392658722185800   T   T   T
 14.2560714396821933 11.8645513683374126 -2.4705268606497568   T   T   T
 22.4259751078880640 -0.0152569802918019  5.0538165506454638   T   T   T
 10.3555187916970848  9.0340151705535980  7.9120911227807849   T   T   T
  8.6870190973247929 -2.3060940033585866 12.2684532797003953   T   T   T
  2.6243195169641518  7.4761277806823641 14.5187454044660988   T   T   T
  7.0902271476925005 -1.6923276020258313 -2.5512296390337941   T   T   T
 12.4189547575387902  2.6351268874101597  1.9500513645789095   T   T   T
 30.4832369996629708 13.4861810995154539 11.9374247746072850   T   T   T
  7.1013592503498382  5.7330592158207789 15.2092534095714207   T   T   T
 12.9254673650733434 11.6318953783447530 13.9719153062728267   T   T   T
 -0.6232997952876892  5.1503744032092333 12.8621448127400999   T   T   T
  9.6871305911623473 15.0085961785149014  0.3391829027637626   T   T   T
 20.5549576083958243  5.2962764420350368 -2.5936529651866000   T   T   T
 22.0111405667793107  5.2641626855587997  8.8428094295879944   T   T   T
  6.8627490562762468  5.9129724870574529  6.9389995823591217   T   T   T
 14.5968682207021594 -7.6850213665923901 18.8073195189056293   T   T   T
 24.4428567550952280  7.4495509648744562 15.6327794747299826   T   T   T
  3.7894385508144532  1.7480409695581689  3.0627743344210794   T   T   T
 15.7077733895696650  8.3550409048737873 -5.2368197332617754   T   T   T
  9.7013620213935887  4.7778258504737128 28.3089084821298691   T   T   T
 20.4503088473727246 10.4873134653282509 28.4127976784684577   T   T   T
  8.3203387658790682  4.4487682264504693 22.0472073281651433   T   T   T
 14.9026921717830501 11.6379318154965183 26.3475222007019489   T   T   T
 15.1478063560010199  9.1163757812718949 38.3344730657559509   T   T   T
  9.9774664150721435  8.6077137507275019 37.1069691626581530   T   T   T
  9.3291486417597707  1.7903680901058638 28.0501906947080855   T   T   T
 25.0179070398950856  9.0510476570510114 22.8408500613060781   T   T   T
  2.3416058100132213  3.8628339678629624 26.0494945642326705   T   T   T
 11.8877313062538104  1.5203921824532864 18.3361025562093758   T   T   T
 17.5517393256428278  6.8486084137672938 40.1114611661869844   T   T   T
  6.8092122798350871 12.2316493579861945 26.9922951302803362   T   T   T
 12.4303738563098243  4.2884800687845255 30.0469971463203365   T   T   T
 24.3907492484044397 10.7728491699993558 27.8368661182908568   T   T   T
  0.9357846060926899  1.6403023176067888 21.8770123084066874   T   T   T
 13.8030550635646474  8.1475652815102535 23.4701498348769277   T   T   T
 20.4710191313658285  4.7869842676418353 30.3057633629808407   T   T   T
 10.8067965062183653  2.2493021780259941 32.2547782038407291   T   T   T
  7.6892933448296921  1.3724543850981150 30.6142555335628224   T   T   T
 24.7633956680095508 10.9007543739793338 30.5836170457015548   T   T   T
 -0.2813452281175475  3.9938850874782372 23.2789455800430005   T   T   T
 18.5552732587061158  7.4526392791915779 22.6286486174834351   T   T   T
 22.0002959228457655  2.9493569268041382 37.1718231713572251   T   T   T
 16.8250163331885645 13.2708233608036430 32.1879834662388760   T   T   T
 13.5113973983542568  4.1054152584290504 26.3287479466253416   T   T   T
 22.7548749818851235 13.2888161297968814 30.1745528432014538   T   T   T
  5.4289057843726223  7.3841156612153425 16.0870519554156957   T   T   T
 14.5465756651482234 12.2273526162681296 23.2912402105221048   T   T   T
 15.3701527817897770  0.9321488775866101 28.1790353850067490   T   T   T
  9.2071780866946611 12.1137689196714682 36.5107477608220066   T   T   T
 11.9177846254234776  1.7012653421605175 29.3308822855946296   T   T   T
 21.4379613319543694 10.6529707710593158 32.1852550623955835   T   T   T
  4.5331351411975946  1.1839697437914984 23.9022991054048468   T   T   T
 11.8817545791612140 11.0154704746630383 24.5164284877985921   T   T   T
 20.6739265942505455  9.4051064638129063 36.6740474524628439   T   T   T
  2.7903610692378700 13.1623015538847703 32.5539841152488876   T   T   T
  3.7516441136915875  3.7494440930738304 22.7708021405463263   T   T   T
 22.3694798519700981 -0.3051763021393417 24.7337477296495649   T   T   T
 18.3130091215336535  8.2119586016268844 34.0081827612314243   T   T   T
  5.4618218455423246 -0.4123140073015894 39.6031985802151141   T   T   T
 17.8395938679957524  6.8209177509903807 31.7739992460511615   T   T   T
  0.5209651716018822 12.2578936516644355 24.0895167003597521   T   T   T
  7.1952717542023290  8.5826014162945867 21.3185955261620848   T   T   T
 19.8873948650461116 15.4785244888322779 25.1415293900786665   T   T   T
 24.2813982790348177  6.3495216894026516 39.7497469352279396   T   T   T
 15.1045001634730518  0.7403494240700318 39.9218943712146128   T   T   T
 17.3275727868252929  5.3351728400206451 28.6020598625775513   T   T   T
  1.5124312486738054 15.3943262149518212 24.5350317196351071   T   T   T
  5.9227902137721689  7.6620960869411094 23.8744849997023891   T   T   T
 27.6597896662800693 15.7334564232274570 18.1339317474029968   T   T   T
  2.9070787398011539  3.1025507252854463 38.0175375486651816   T   T   T
 12.7409593864229969  9.0440759972768383 40.0699043358059015   T   T   T
 14.4316170334680454  6.8768622261772077 28.8119954218018428   T   T   T
  1.8743677829264349  7.4711934794692239 23.9335081053567329   T   T   T
  8.6973905757477201 13.4864272065168898 18.1830163972145371   T   T   T
 21.5549402217311510 15.0219986692696938 17.8168112481448127   T   T   T
  8.5416682583556618  8.9960202838288925 34.9600111054894711   T   T   T
 16.6068744716107517 -2.1561096727857039 39.6077428767018063   T   T   T
 15.1962195087486407  5.4572213284301219 31.9509946142174179   T   T   T
 11.5168079104192955 11.2181693445973778 28.4947458215315805   T   T   T
  4.8261594661019718 12.6188909043760962 17.9944751052586263   T   T   T
 21.0181203969833277  1.9039542634498576 22.6263774295240836   T   T   T
 -0.0040095959257483  4.0203778953895037 41.1398461016661940   T   T   T
 15.4627382742677888  0.2284686070332652 37.2791138985387676   T   T   T
 21.8953421237838697  6.5940313977690268 25.8555261676316199   T   T   T
  7.8046195373202822 -2.0606775431432016 20.6053384964189483   T   T   T
  6.9294851673118352  4.8220444383417913 24.2871826674105122   T   T   T
 18.5297066244539010 14.9576722204162227 22.1092966451145507   T   T   T
 34.8087258373069375  7.6247276776021895 42.4144831491765117   T   T   T
 16.1429899812733026 24.2065578001741137 35.5952253352402153   T   T   T
 22.4431285102369742  8.5701294966362536 29.7210254671402367   T   T   T
  2.1439611893779991 16.6725084061896567 31.1190660444144243   T   T   T
  4.9591085845762874 15.1636396719924278 32.5182981674823992   T   T   T
 17.3628852114185577  8.8369908119535356 29.6922613870520919   T   T   T
  4.1095478076253480 11.2455672033621514 24.0074294747899621   T   T   T
 17.2298599327850610  3.0104079854035981 24.5257752055684826   T   T   T
 18.8136639441409272 12.7826858439218292 34.2945046748324529   T   T   T
 10.4372805374142974  6.4743900604206415 34.8242830118807589   T   T   T
 10.1466641928143702  7.9420219831717542 28.7418309097547606   T   T   T
 19.9174325989711676  9.0214915697856988 24.4178603771460452   T   T   T
 -1.3282681606068922 14.8846015333570367 14.8379779171964135   T   T   T
 13.2699795506827840  1.0615036404587102 15.0798155755467533   T   T   T
 21.7011585185313507  8.2610045279737072 33.8980831225260104   T   T   T
  5.4688932515933981 -1.6463124197127170 30.4700829658707697   T   T   T
 10.0092554254591857 13.0816918430747275 24.1332371436327691   T   T   T
 23.1016960646931864  5.3303827212037387 28.4923982447135593   T   T   T
  2.4219883567134448 13.9903071429465395 29.0723342064651220   T   T   T
 15.1042885609967925  2.4835739229847644 22.1497502272121949   T   T   T
 21.2588779881322978 19.0433727204400753 40.0229213655407747   T   T   T
  4.7617143759227973  0.9894142616490758 28.7537699263166537   T   T   T
  9.2933123328924143  9.0082413823044849 31.6844296948208850   T   T   T
 21.9998315591785385 -1.7583358250313037 27.4691674249414355   T   T   T
  6.7780485356449409 13.7554580465632625 14.5574932527019403   T   T   T
 12.6080917489337416  4.2019044936572483 22.9421957414760733   T   T   T
 22.1565670616556432  6.2569177107524805 37.2649923455802110   T   T   T
  9.3201714521830787  4.9538515143764963 31.0732008618787425   T   T   T
 16.5061528423406045  9.7600971374525649 25.0294494835399171   T   T   T
 23.5656505317017491  1.7816904150056465 28.7964412717983116   T   T   T
  2.1867155509298231 10.6878571845424837 21.2177209708074024   T   T   T
 14.9167070445645837  5.5710690714606139 23.1514136747846493   T   T   T
 18.2022234838861792 13.7764187919135637 28.1640739001304716   T   T   T
  3.6793676332472063  9.3604147739935506 29.2462905103105122   T   T   T
  9.3902611257314703 12.1178339782864679 30.6831981607597015   T   T   T
 12.5767922463178170 -5.4862607141642377 30.4483019257323342   T   T   T
  1.6334273473337992  9.3022544628065109 26.1082750128345324   T   T   T
 13.3976108573444463  1.1245897385813273 24.7030699845405266   T   T   T
 20.1769310235794208 12.5600100904405458 40.2019862011798068   T   T   T
  2.8404102487486274 -5.2951920824367908 33.7911673047614443   T   T   T
  8.5214177159258142  5.7981314667421948 38.0730269365901961   T   T   T
 19.1916187468350543  1.8181043157738153 35.1164501914115164   T   T   T
 20.6408690573720008  4.6302264490596015 24.7928991149507212   T   T   T
  7.5603663240979309  1.5544800097483162 24.2706558539148816   T   T   T
  8.1072936999648721  9.3331882219394018 28.5471423716305210   T   T   T
 22.9161630102129266  7.7074144602728980 43.3705607209015227   T   T   T
  2.7012925497785432  5.9610095973271910 31.7430309616279658   T   T   T
 14.1925672704583157 12.5190364173137816 30.2935053279793216   T   T   T
 20.9785885685318192 12.2490174980604536 22.3125813843112297   T   T   T
  9.8927416395944281  6.5870718938153754 21.3630216782043156   T   T   T
  7.9004281382001738  4.8099143468595198 35.1635578025020124   T   T   T
 20.9501164127614601  2.6268665255351196 28.9328120084566187   T   T   T
  4.0778995153090696  4.4247938027096927 28.8356771737406632   T   T   T
 14.7036986175160926  9.0685934831743094 26.6743801513078438   T   T   T
 19.3885878706525645 12.5903463712039816 18.5758891999837132   T   T   T
 14.9294765313300051 11.5518169866777463 17.8809514088348820   T   T   T
 13.4958910532921017  0.5745245137082735 34.4483212487490320   T   T   T
  1.4559467742689234  5.9632087053812972 34.4889873538117442   T   T   T
  5.9519315385443408  7.0076427085510558 28.6558525238422845   T   T   T
 18.8095751298534495  0.8833667671596218 30.3181718308144532   T   T   T
 25.7055079690731674  1.9361795135033910 15.9667746933487162   T   T   T
 10.5603738514141838 15.3842390712862898 22.7396444510455744   T   T   T
  9.9968518021250894 -0.6574901820277098 34.3516161203996191   T   T   T
 -6.7994716408347431  6.7550318316693563 36.5797147221572843   T   T   T
 10.3016912866911134  6.0471556730730223 23.9328579647601742   T   T   T
 19.1671862734749965 -2.1220332179457744 24.6911637596753621   T   T   T
 19.1307955982146822  6.6703948284350005 26.4931381862833710   T   T   T
  8.6578101187995902  3.0538655958916565 17.3362127613329235   T   T   T
 10.2597535503308688 12.5655713747967059 39.6348046767836806   T   T   T
 -3.3018590675323916  2.7938056430476981 32.5898948495828336   T   T   T
  5.3563405075371682  7.2631647635470076 31.6303954903837834   T   T   T
 15.2264030683797049 15.9574820518064389 31.4660987750701295   T   T   T
 21.9040645636657416  8.1516391883522648 21.7599632522586468   T   T   T
  7.4043526010045184 12.0943782677215594 23.3650623146210599   T   T   T
 16.2460051444757667  3.2466024193809275 38.2557147161676241   T   T   T
 26.2680681666851115 16.7690840130040435 34.9575361033782528   T   T   T
  0.2955847878156769 -0.1473687618089692 -0.6289294191773763   T   T   T
 11.5616024093221359  6.4970319312978377  0.8025477144582772   T   T   T
 17.1812230366388619  0.0618095195050475  5.5651565899363789   T   T   T
  4.0932058813528265  7.6662053198444919  5.7338972797687839   T   T   T
  8.8719294125011370  0.3644492431783197 11.2195189366479706   T   T   T
 21.3256234529886441  7.4385217498749441 11.9532529030711174   T   T   T
 23.1167962551242070 11.0270375876603239  5.4615409726736024   T   T   T
 10.9142492051355724  3.8051094210697158  5.3331627539180211   T   T   T
 15.1084051445728171 10.6607994711685929 12.1056972701335113   T   T   T
  2.4997915654963836  3.7558632172936894 11.8874288704981232   T   T   T
  6.8954901690817758 11.1937014620718358  0.5955833479997362   T   T   T
 18.5546960208406873  4.4948742535793400  0.3242344422004603   T   T   T
  4.1053384640146913 -0.0843450277477837  5.7930718213812193   T   T   T
 16.6181086996186735  7.1604476681009777  5.8001344318486172   T   T   T
 21.6377324938843358  0.2721436385027865 11.5714734118827884   T   T   T
  8.8982666829706005  7.6053335068436301 11.5004195870691337   T   T   T
 12.9302490060470614 -0.1331751461668810  0.1491517400319106   T   T   T
 -1.1920060900703235  8.6111134525101871  0.3933389986779368   T   T   T
 23.2127837805489321  3.6025406131332178  6.0108405146022390   T   T   T
 10.5881159534587344 10.9086470780495066  5.4754630817384298   T   T   T
 15.0830228996357327  3.4457187771958764 11.6340335378368067   T   T   T
  2.2266565084717618 11.1313729816418050 11.8486561540899977   T   T   T
  6.6031948215468530  2.5936725755808294  0.5380896453867882   T   T   T
 18.3192354429861908 10.7922460862404481  0.7233558016467563   T   T   T
  8.1404096692313139  6.1159894820039860 18.1929194370221197   T   T   T
 19.4953739999869171  1.2874460785121145 19.0793700704207119   T   T   T
 24.4981672417336682  7.0480868220830120 31.6761737603000846   T   T   T
 12.0102455824677055 14.0174313162334698 31.4196753858432558   T   T   T
 16.3293484828962860  6.7525614572516375 25.7083973216723862   T   T   T
  4.1892683259519181 13.7658328621311536 25.9143185271945491   T   T   T
  6.1885269179476197 10.2127589056246286 31.7125400378158950   T   T   T
 18.3661580765847390  3.5131552981361516 31.7264844644272088   T   T   T
 22.6902887485037894 10.2990138620915790 25.3183709770390912   T   T   T
 10.4240470638656575  3.3911512730551676 25.7579285774751021   T   T   T
 13.5466388253018852  9.8740286581328309 20.9145133690000442   T   T   T
  1.4983006989435583  3.0967452816113177 19.8378715782531536   T   T   T
 12.2029370291006956  6.5696925272816564 31.6970689110669568   T   T   T
 24.8956779742641956 14.3843941510680438 32.1978883647360234   T   T   T
  4.1091621781408909  5.9779161018333680 25.5704225421093909   T   T   T
 16.2086781450901540 -0.2830621585678207 25.2935255071755698   T   T   T
 19.1359114874330274  9.7355809963826747 19.4965830935609716   T   T   T
 11.3708845247730412 -1.3240914038408811 17.1898020730291634   T   T   T
  5.8945033641277202  3.6084203064878952 31.9694682523906479   T   T   T
 18.3042158083482889 10.8720360985500566 31.2534242606320412   T   T   T
 22.8534727728974332  2.8574670534307312 25.5844771568707472   T   T   T
  9.4335473258778322 10.2409913423017365 25.6639841524001504   T   T   T
 14.6852080096993571  3.0762272855617114 19.1365587936194927   T   T   T
  1.8203840051734113 12.4133377258917825 18.8896627044007914   T   T   T
  4.1319094228937177 -0.1041688644038137  7.8437672542885037   T   T   T
 16.4804961221081783  7.2416021367907755  7.8743939381601233   T   T   T
 21.6709576489664997  0.5111966637273767 13.6035947484710622   T   T   T
  9.0453323431539285  7.5261176376186647 13.6409109694698785   T   T   T
 13.5409662557087032  1.9167904479076128 -0.4611252265198600   T   T   T
  0.6430639005648628  7.9312203867891951  1.5020590509038103   T   T   T
 22.4700692838558354 -1.6201390339497879 11.0849053134199949   T   T   T
  9.7699626963018584  9.3903576637256663 11.0209034181448988   T   T   T
 14.5547892742949792  0.4869369372823822 17.3377936568000983   T   T   T
  2.2263748175655702 10.4521906851959461 18.6026564915315049   T   T   T
  5.0337839696019460  1.6309070168883644  5.1541745607980980   T   T   T
 17.6086862293607567  8.6936433924941277  4.9527939556003497   T   T   T
 22.5581792395783367  5.7299789985571472 11.2635881792161037   T   T   T
  9.6660882843566824 16.7491200440137860 10.5611628474993839   T   T   T
 12.8877143144991724  4.2872778774506459 18.4673198016296745   T   T   T
 -1.5329278675985438 13.5661328755325794 17.5617381407693429   T   T   T
  5.0223431889901269  6.1012564585009734  4.9492658573052442   T   T   T
 18.1616828663261174 12.9537151782221649  4.7018593399779816   T   T   T
  9.9501891570769700 -1.3659639175241887 10.4749707947088257   T   T   T
 19.7083505540131796  7.2936817330210539 10.5888842503422875   T   T   T
 23.5611226126994069  1.1840357498940259 17.1949133551948101   T   T   T
 13.4819171867532308  5.5232417501789559 16.9301719558464221   T   T   T
 15.1606635075449780 -0.5556620725545035  5.0504167840054217   T   T   T
  2.0946740915748681  7.3909924475689897  4.9750650978867332   T   T   T
  2.4441081113550398  3.6879536384545890  7.1609500281847174   T   T   T
 14.7808482060282245 10.6358209024229371  7.2778196448022054   T   T   T
 19.5229787273059259  3.7009402423210380 13.4257999842430760   T   T   T
  6.6463179052409647 11.6451617657876163 13.2514853463125508   T   T   T
 10.7297114524671908  4.5157343204584599  1.4228962696871332   T   T   T
 24.1521262553444345 12.8428805361473906 -0.0617055753377102   T   T   T
 22.9319022163954713  3.4086689639919117  8.0394962260771354   T   T   T
 10.5909174454885324 11.1602611936733283  7.5223827407400510   T   T   T
 14.8615179805124917  3.4634294676850224 13.7670114066089297   T   T   T
  2.1698300888382196 10.9541092014556636 13.9778046130499973   T   T   T
  6.5497616552427669  4.4150539281122647  1.5820635929779796   T   T   T
 20.5508413666831942 10.9578110626821719  0.9103883919684042   T   T   T
  3.0262388500259236 12.9419516488072812 11.3620486191145940   T   T   T
 16.2795953441987677  5.1600638971463377 11.1999990640592220   T   T   T
 19.3272634510214658 14.8050330697356483 17.3235842862942384   T   T   T
  9.6614080760252410  7.1639665639588586 19.0667516382626125   T   T   T
 11.5198278159334873 12.4207342087961461  4.6177966760942484   T   T   T
 24.2063489460600749  5.4530878300701859  5.5231898163437627   T   T   T
  3.4745178709375191  2.0445421608257366 11.1690777268833656   T   T   T
 15.8014219953298003  8.8456159516715172 11.6906261512286811   T   T   T
 18.7845473576526416  4.3178356436050054 17.6361645536242833   T   T   T
  8.9166243899509734 10.4836962856355456 18.1950317313035299   T   T   T
 11.4020933239014042  1.7745772252985832  5.2875624351709538   T   T   T
 23.9862258544420826  9.2520222326952535  4.3999194230374874   T   T   T
  0.7034269403597678  3.7105663456295770 11.1519410196495254   T   T   T
 13.0636081119441414 10.7559917600354424 11.5090766157368467   T   T   T
 22.2910937886574274  5.8091546545340531 17.4111776425491911   T   T   T
  2.3436912078145395 13.6790638780541798 17.0979303730976611   T   T   T
  8.7799768885527314  4.0037101736093543  4.9599445600441205   T   T   T
 21.0989105726099524 11.1566602478403496  4.8283986613441181   T   T   T
  0.8552980132049351  0.1789332406791599 13.6514006228754408   T   T   T
 12.9765191737948857  7.1091523760685149 13.7403610357048240   T   T   T
 17.0035223641398474  0.0109916214203305  1.5866231702114051   T   T   T
  3.9907667224100813  7.6563387255795501  1.1637269328099116   T   T   T
  8.4686303000255929  0.1450515920133241  7.2230376726535317   T   T   T
 20.9935175118977355  7.3087604288615040  7.2985970714590724   T   T   T
 26.2456440596445191  0.3552365618059257  1.3517773064552761   T   T   T
 12.7034507096673668  5.9534764958492721 -1.0022150206133862   T   T   T
 17.4544002675894063 -0.1125436863280930  7.5419395303160330   T   T   T
  4.3332665246880957  7.4847245810757643  7.7028743838232252   T   T   T
  9.0302634992393109  0.3327087235114057 13.2169000280285243   T   T   T
 20.7354907739706036  7.4459125141913622 14.0384791981651311   T   T   T
 22.1529830172996469  9.3630795446353066 11.5900675824712192   T   T   T
  6.7697179298515611  0.2395042699351978 10.5597152316611638   T   T   T
 14.9789238158303188  8.2223813813660165 21.1447847783991811   T   T   T
  1.3610809405173856  3.2496693248125657 17.6242820390231145   T   T   T