Li P  S  Cl
 1.0000000000000000
    20.5609999999999999    0.0000000000000000    0.0000000000000013
     0.0000000000000033   20.5609999999999999    0.0000000000000013
     0.0000000000000000    0.0000000000000000   20.5609999999999999
 Li  P   S   Cl 
 190  32 160  32
Selective dynamics
Cartesian
  4.5835479458469690  2.9875459511218887  2.8974392337542714   T   T   T
  2.0123782654184952  5.5235033481169902  7.1883428335892301   T   T   T
 12.6550681568077135  7.3386194362847492  5.4374871339931925   T   T   T
  7.5233614514998450  3.8575015787354561  9.6589613044113030   T   T   T
  4.6333559976539309  7.2520810499504718  7.9672607077943969   T   T   T
  2.2553954067400888  3.5492146629789318  4.8549411752672817   T   T   T
  5.5226413361262336  2.5805454326503559  7.6302339675219670   T   T   T
  8.2275809563774995  9.9847558736438984  1.1424001432002555   T   T   T
  8.0274760758443904  4.8615577632104126  7.1117390961809628   T   T   T
  7.7652628347231545  6.4852028487083677  0.4950452475036477   T   T   T
  2.5374737341416478  0.5055859813201348  2.9213626830160568   T   T   T
 -0.1545242065083829  7.3267504100706473  7.2835092850386411   T   T   T
 10.0782230172722347  7.3537245876013690  2.6155014383728714   T   T   T
  7.3818738164558368  2.0503345669432136  5.3761652265091842   T   T   T
  0.1516373200844287  2.0212907778889462  2.1990379149961776   T   T   T
  2.1806839635481925  7.3426877061512084  4.9665621574393652   T   T   T
  2.8131098316234664  3.1188947989401581 10.6058736553562376   T   T   T
  5.3154193442895341  6.9777075709167340  1.5236439242974098   T   T   T
  2.9350557385924092  9.8562544993830592  6.9248861534936328   T   T   T
  2.8088286095622377  4.9028579324253414  1.9383433292638574   T   T   T
  2.8136101458039473  2.1997591789299880  0.3703438190664636   T   T   T
  1.8552012921422458  8.1378550790062167  9.9548893997727035   T   T   T
  8.2999890555660993  0.1718876333616906  8.0349929264593403   T   T   T
  7.1159695396960805  9.4851381348753314  4.0097714357927918   T   T   T
  4.9843760256679612  3.2085823280740713 12.6409338588348579   T   T   T
  4.9158549491854711  6.9727676651334303 18.1496352232343838   T   T   T
  7.7770730980202183  8.3818511876099162 10.4217015652151161   T   T   T
  9.4192133332463612  4.0179518511895207 17.3253665494232862   T   T   T
  0.9010725343543312  6.9034596615417705 16.6878594311477713   T   T   T
  0.3685182640666719  2.6692714646033351 13.1171512446756182   T   T   T
  7.0049170356543575  1.3459567201550275 15.9982081916129140   T   T   T
 10.1303906027874433  8.6279167853066863 12.1265193262681645   T   T   T
  7.9655655847032003  6.8376787689582814 24.9433012953534075   T   T   T
  5.7332294348179493  8.5402863327065077 14.6626450348188797   T   T   T
  2.6133989003243059  3.2394883802763710 15.4952093535315392   T   T   T
  0.8834897972482841  9.5693295102035254 18.4770610716543047   T   T   T
  7.0856481240086371 10.2808385614060160 12.9769630531051945   T   T   T
  7.5734424510018714 -0.0798398134299862 18.3778931231745375   T   T   T
  3.2158482052794160  0.5560470503262306 13.9814136840239076   T   T   T
  2.8181361732082655  9.4348558409228875 16.5479159080797871   T   T   T
  5.7566236831056070  3.0704603346577226 18.4098413866386750   T   T   T
  8.4348157736640150  7.2783637781799468 14.7647114475550740   T   T   T
  2.7440174291741082  5.2940228652368662 18.9082130740221359   T   T   T
  2.5801346699988650  5.2372012859822252 12.5959308265605152   T   T   T
  5.4828826133915971 -1.8020147218461446 13.3567752167044418   T   T   T
  2.3069013412223600  8.3850032578160860 20.3725201612159807   T   T   T
  9.8709063888593054  2.2027446545443974 19.4491080663891225   T   T   T
  6.7313783294352936  5.8404758522638875 12.6289105013416858   T   T   T
  0.7217071076877691 14.2732900328229189  2.0491807192789522   T   T   T
  4.6049863978781795 18.2475341417754073  6.7264875898941447   T   T   T
  9.6645021649806750 18.2168724235638777  1.6888293058421893   T   T   T
  7.3033111798831118 10.5882784076380698  7.0317983399509494   T   T   T
  0.1132752603032404 18.4042566378788202  8.8992477199081801   T   T   T
  4.5344655012884925 14.9846650020081249  2.1768176251169278   T   T   T
  5.1519925726336533 13.4432861149801361  8.1609773427832195   T   T   T
  7.0176681891499388 20.4114434887831671  2.4155266612411932   T   T   T
 12.6477016424231596 15.6876966069131534  6.3818609381761151   T   T   T
  8.2087198256654830 15.8729154269621677  3.1815850726562336   T   T   T
  3.2702818243468630 12.9887190644094321  0.0976199396376796   T   T   T
  2.9000866855239793 20.4917167976829795  7.2617509782545584   T   T   T
  7.0958754132534914 17.6698318288216853  0.2505203905025489   T   T   T
  7.1417612986529830 12.6530438851310638  5.2975555813789672   T   T   T
  1.5379605457132748 11.2322648048003906  2.1606124628289600   T   T   T
  2.9248304306826003 16.2625556487222589  8.8342673833542342   T   T   T
 10.3993291000204326 13.2418893086551197  7.1647576535466078   T   T   T
  4.9271392335042581 18.5643191540084445  2.8809419922766866   T   T   T
  2.8748373746607863 18.9550178300806813 10.4656467355618794   T   T   T
  2.3422808911120936 14.2877273513564802  4.6560249545803094   T   T   T
  4.4458508267068995 11.4536647890268188  3.0284590416981949   T   T   T
  1.1776631497800629 18.0281188139009849  6.0992310438772313   T   T   T
  7.6368029468820602 15.1147689029330277  8.0297112796287688   T   T   T
  7.2479220463958374 18.6259795818636391  5.0433906504367636   T   T   T
  2.8181729446986896 13.1330495510022232 10.6264977490814729   T   T   T
  3.2256556288479876 20.2283578107505058 17.3095471362229745   T   T   T
 10.4398236461990113 18.0660784154883380 12.1673185525389282   T   T   T
  5.5914640561157940 11.5552805576152888 17.4289418627668482   T   T   T
  3.4307505371100904 17.3546400037600321 20.2091143868713843   T   T   T
  2.3323900406174718 10.6841178800013683 12.3404639151572386   T   T   T
 10.0586000403138165 12.6818148338557553 17.8953325483749595   T   T   T
  7.7196279187590351 20.2172638293110118 12.3718222079316202   T   T   T
  7.6016903206067976 12.3677806235847800 15.3391868057383878   T   T   T
  6.9172854902223744 15.8548288506850987 12.4404032187152769   T   T   T
  4.7623093204136548 13.5529487609515140 12.3610075674742479   T   T   T
  1.9656191979054938 16.0153330063353749 17.8392869605574020   T   T   T
  7.3053146690896664 18.0850297124329842 10.4894903652082192   T   T   T
  8.5935304396617784 10.2116830530430462 18.6172507533779381   T   T   T
  3.3605000293343896 12.6303186828177498 15.3491204612890861   T   T   T
  0.5237384034082555 19.0816507778130777 18.5803998219804853   T   T   T
  8.2909621782843956 14.8118849833822193 17.1076798907908909   T   T   T
  1.6774163941283320 17.6529979716648207 15.6886023901888390   T   T   T
  2.7483164927129686 15.1916223838474274 13.1640263166519507   T   T   T
  0.4957197155287210 13.7504168376142282 13.6649496056065161   T   T   T
  4.8614209620834776 17.3846525175124569 16.9546971090646608   T   T   T
  7.0569948003763248 13.4384385534215554 20.1061478660441182   T   T   T
  8.6363250143848909 17.2424057307354772 14.9759612741486894   T   T   T
 13.4888405804849985  3.1808273540076177  0.3760779973416516   T   T   T
 10.3860407224130142  8.7005251211353443  7.7682331224602743   T   T   T
 18.5744756950712784 10.2006481841699070  1.7244864154581743   T   T   T
 17.0959145279044833  4.9392607567383759  8.4201729504354077   T   T   T
 11.0684608075578819  5.6325848254436606  7.2173336734349904   T   T   T
 12.7224207213543163  4.9729462428661693  3.1520088419685717   T   T   T
 17.6369683811223510  0.0628026357545670  7.6021248728374831   T   T   T
 17.8836061257789680  8.0535922239831539  4.7570356889910679   T   T   T
 18.5936038706663851  3.5807767224468563  6.2250632475492997   T   T   T
 20.4855756211323694  8.1843790877490683  1.8599924669059260   T   T   T
 10.3353730205870331  2.4104501703408245  2.6237774249311081   T   T   T
 13.7191893731402672  9.8767118596132324  6.5956265188594436   T   T   T
 19.7891193489149515  5.7831882314486531  2.9560514272041316   T   T   T
 15.2681394819172223  2.0303122975402936  7.4271354631147890   T   T   T
 12.2897750130461283  0.2218025836163014  1.9507367826698221   T   T   T
 15.4508515133424993  7.5589239801558525  7.5007718578214408   T   T   T
 16.6953188056787738  2.5844723232935563 10.1776361369937387   T   T   T
 10.1133494883428536  2.2641437383350143  8.1484668975593735   T   T   T
 15.4983080854634849  3.3751444030916793  2.5878290159058075   T   T   T
 13.5644516772180559  2.0679955897887550  4.8178918338969776   T   T   T
 12.5657063061087406  8.7198595655880560  9.9820228523018883   T   T   T
 19.9710667266887540  1.5740714477915168  8.7593348493461072   T   T   T
 15.6683569364936410  7.3043642663461332  2.2639607173371656   T   T   T
 15.2302428729686685  2.9537110464867755 12.5860829388510211   T   T   T
 15.3214434327066336  8.4457286971287395 17.0582321316230079   T   T   T
 18.3942072109198023  6.6605922601925220 15.1365685443923983   T   T   T
 18.6280135477841142  1.9639759672451913 20.0811606870924209   T   T   T
 10.9011803966548388  7.3226042681242864 17.0104874794205401   T   T   T
 12.8308433187040247  2.0504008227413943 14.8859120826085540   T   T   T
 16.3870426642000879  2.4198920160998787 19.4646841467323242   T   T   T
 18.8278722245058816  9.6517702206174114 12.8719929672985973   T   T   T
 20.4623262211674088  2.1408047786823228 18.0700626558902258   T   T   T
 18.7358163181020103  7.9381915098804523 10.5935728235310442   T   T   T
 12.6055054445281858  5.4359815392078694 13.9805411152093697   T   T   T
 13.4218988041663927  5.3496219631302715 18.1825512322618437   T   T   T
 16.0579445965613345  6.4441450859025116 11.8459882656838609   T   T   T
 17.6749681867644739  0.2883098047957198 17.2761297207031816   T   T   T
  9.9442277334820162  3.3310679641991263 13.6059692722465986   T   T   T
 12.7576108597809359 10.1727590356933728 18.0182770419484228   T   T   T
 16.9081240088739690  4.6307559011328774 18.4222265491548214   T   T   T
 19.0205797655635465  5.7205287815509847 12.7875067172947698   T   T   T
 17.5174564587829096  6.7218124667301415 20.7827764481944541   T   T   T
 12.9245351751326787  4.2510557254809660 10.9985492304588401   T   T   T
 11.8105283286287168  1.6611721705270852 11.1494419139205512   T   T   T
 12.5732955061771694  7.6883482385989543 20.1962184962924240   T   T   T
 18.5668520754494111  3.0211118180576992 15.8782740686062507   T   T   T
 15.7097397310468754  8.4499350799097570 13.7598593154594173   T   T   T
 13.1030769280757884 10.3881126346781496  2.4186757747389676   T   T   T
 12.6212364462816176 19.4445001609487242  9.1183645735993224   T   T   T
 18.0634251917911257 19.7675654219277952  0.6125287439307260   T   T   T
 20.8180588429419373 12.5906022656333541  8.2607607131397813   T   T   T
  8.5012788265885071 12.1605181638679376  9.9774158115798741   T   T   T
 11.9180118077019923 15.0541180752509263  3.0343352969682962   T   T   T
 18.2500725543356381 13.4419590355413554 10.2355806732435237   T   T   T
 17.4555636732854822 16.6573155644853195  0.5569753641267685   T   T   T
 18.2506534605809136 10.9784039943504563  9.3765507773423629   T   T   T
 20.4478764322755140 17.9148190982770075  2.4743484539437435   T   T   T
 11.4529580700585836 12.8771603021768168  4.6398450252166832   T   T   T
 10.8971082880035457 17.4337723470210726  7.5711635773727810   T   T   T
 18.2896028996988420 15.9640088147087216  3.9341462318331555   T   T   T
 15.9777809535835225 13.2761077294384506  8.4843484473150941   T   T   T
 10.5910810426362811 12.0916893386626878  1.4805431694261684   T   T   T
 15.1811064545943868 18.2362258476556498  7.2285724534731433   T   T   T
 17.8929335065384194 11.6180921993258277  5.5532638725197803   T   T   T
 17.9415406507383537 19.8491357017943706  3.8969921256513005   T   T   T
 12.8724170000876814 19.1253659947649055  6.0154693866276441   T   T   T
 14.9163394761830119 12.4099480517662322  4.3507656616161308   T   T   T
 13.8572617809939711 13.5570292792095639  0.6082076452675619   T   T   T
 13.7179657922177416 16.9292437021145261  9.9154665572718965   T   T   T
 18.2214345862541549 15.0725196802055130  7.6922552676304967   T   T   T
 15.8100211963533557 17.4337691807618071  3.2054212923700169   T   T   T
 13.2954932553202738 12.7996036470107200 10.3443925611631276   T   T   T
 12.4013442995881871 20.3536013575674168 18.1541019479500036   T   T   T
 20.1011851823947367 17.3363860455762406 13.3616216848300162   T   T   T
 20.4145645004675842 12.8155413761535595 18.5494209164933963   T   T   T
 13.3622549052469495 15.6963106924486997 18.2638145751219625   T   T   T
 10.7121265213932340 13.5541696353186154 13.3451224254603780   T   T   T
 17.3100247930979165 11.7936580870363308 15.8334419908789030   T   T   T
 18.4572622367735448 20.1196402441591395 12.3900953346434299   T   T   T
 18.5235840367455893 15.0185021587800414 17.7423455786951791   T   T   T
 17.1975174763894501 17.2071274718127931 10.5904431183394276   T   T   T
 12.9397172453846956 10.5516205935864527 12.9794076708618782   T   T   T
 12.7209140047737748 18.5738761422527432 20.1979526186474629   T   T   T
 15.3441094472036728 18.5532294318724738 13.4800096546476702   T   T   T
 18.2495512135748541 10.7469541111602798 18.3745609552865758   T   T   T
 13.3387426947279391 12.7032468114495511 15.2966311272901603   T   T   T
 14.9088040468430467 18.7351941070029859 17.7332991534627737   T   T   T
 15.6895258863080826 13.2052452126760329 18.8314739838823400   T   T   T
 17.7568699172878510 15.3709923580360410 12.9929271099730439   T   T   T
 12.9949899406992841 18.3549392874880688 15.2966133855636972   T   T   T
 13.8735099757614275 15.0124566317462200 12.7542082653245448   T   T   T
 15.4258460417487111 11.9995439816075304 13.5339677210922602   T   T   T
 10.0499780473481568 17.6596126952960049 17.5380954545373626   T   T   T
 17.7155055569972788 12.8972686087398785 20.3423689540020405   T   T   T
 17.8337919607589370 18.6728516415281653 15.0843559997899064   T   T   T
  0.0342173650191022  0.2119707118438496  5.3260810832387282   T   T   T
  4.7829701564462432  0.3174957323171421 -0.0891800333087787   T   T   T
 -0.2936896620006306  5.2614597183961207 -0.0589663393371019   T   T   T
  5.2549081819136738  5.0671281249050084  5.1256179613660446   T   T   T
 -0.0360044159013051 -0.0135501983156960 15.2044498539711661   T   T   T
  5.1153479606883545  0.3525138273250095 10.3377729148556341   T   T   T
 -0.0706869086159296  4.9361580435956798 10.2378073012101982   T   T   T
  5.2888300946964133  5.4197178874896244 15.5321642795386925   T   T   T
  0.0092613904756749 10.3690982620556511  4.9904959698834572   T   T   T
  5.1071559003180225 10.4064540557117589  0.0602600348840105   T   T   T
  0.0433634111052348 15.6198016739907164 -0.1168683223256403   T   T   T
  5.1249687664152619 15.5450369309049634  5.0392546863892225   T   T   T
 -0.0679756783599738 10.3470951704853942 15.5610413532078002   T   T   T
  5.0292384717641427 10.2805163448339805  9.9254178496984551   T   T   T
  0.1589459626310933 15.4275963761746269 10.4185590902644467   T   T   T
  5.4287494488121171 15.2206722963686438 15.3716787271664064   T   T   T
 10.3130381462171083  0.0147588366293047  5.0810798185596617   T   T   T
 15.3487108569134882 -0.0298882927507573  0.0415533932490285   T   T   T
 10.4305317673353599  5.0602719129399851 -0.0472307239083287   T   T   T
 15.5413909715830965  5.0647604729020133  5.3669581610099284   T   T   T
 10.0288577825033869 -0.1879294411652328 15.1097674779938291   T   T   T
 15.4532199153440750 -0.5248554811224726 10.5693752214041279   T   T   T
 10.0964738820413960  5.3861661742815272 10.4277737707387388   T   T   T
 15.3161282354820862  5.0280360014674219 15.2131460336080657   T   T   T
 10.2461142027289398 10.1726284887550165  4.8131371109369070   T   T   T
 15.5391831961530773 10.0873528186905776 -0.2084997237382453   T   T   T
 10.3815357015844185 15.4831968719220718 -0.0501413506394568   T   T   T
 15.5336197548845991 15.4291967005074291  5.3016289276655852   T   T   T
 10.3436757003162203 10.2247441242580859 15.0882174027903311   T   T   T
 15.4611430132179049 10.1478758617997489 10.2459217990549512   T   T   T
 10.4286689228966178 15.3578724520810947 10.3618265555122946   T   T   T
 15.4588592632558459 15.2774767407051879 15.7552491822986109   T   T   T
  1.2074227435723555  1.4926597221364899  6.4431449914103851   T   T   T
  1.2205509576195008  9.0731798555588057  3.6800313049743609   T   T   T
  8.7918620035554298  8.8294804295221692  5.7389018773486491   T   T   T
  8.8067319603138419  0.9450356461965569  3.7939256764899110   T   T   T
  5.8158708082097412  1.5848941717527394  1.1883571172294733   T   T   T
  3.6503437262126921  1.3622985872572200  9.1816356592282116   T   T   T
  6.2459468947557744  8.9106413674683438  8.8523430096353763   T   T   T
  3.8792281825726880  9.5968697016459874  1.4934467625992360   T   T   T
  0.9911859381020247  6.3187739843282742  1.2023968435916728   T   T   T
  9.2034562068191672  3.9521286125912973  1.2042628225759828   T   T   T
  8.9252071891268123  6.1876598819120723  8.7876384684674154   T   T   T
  1.0429607242773902  3.7548543208466323  8.8461652942923319   T   T   T
  6.5136241674035018  6.3351718825182655  6.2626835522930095   T   T   T
  6.5792174378820967  4.0098998724094734  3.8822200907517623   T   T   T
  4.0242641853540997  4.1103280679129712  6.5293195994368851   T   T   T
  3.8826160963977632  5.8954388167019527  3.8539153588654989   T   T   T
  2.3633435928816793  2.7278482587728656  2.6093291190414680   T   T   T
  2.2885689243141352  7.8272677106094868  7.2870516439780868   T   T   T
  7.4687769759040448  7.7902989270196628  2.3091847922073723   T   T   T
  7.9081384619589254  2.4391136913176106  7.5315449878312553   T   T   T
  1.2507057745400092  1.1633674875478033 16.3391058962893894   T   T   T
  1.2473721480665352  9.0878915554088273 14.5698512976680767   T   T   T
  9.0421711699731802  9.1319149978548690 16.2646995737407210   T   T   T
  8.7096204803711430  1.0449191895530019 14.1317317822150521   T   T   T
  6.4102939233279557  1.6208350981190354 11.2762537434582626   T   T   T
  4.0576357077458640  1.5242187423469136 18.9317563000031583   T   T   T
  6.3378528097007329  9.2814378386465677 19.3365788373249856   T   T   T
  3.7397956560487544  9.1931269986061999 10.9513396461821912   T   T   T
  0.8295794550416177  6.3722400788223688 11.5330205134955275   T   T   T
  8.8919433898266949  4.4747968953814530 11.7623351821110713   T   T   T
  9.4174080885779805  6.4398737545911526 19.4646725913753542   T   T   T
  0.8551375159407364  3.7142181917693105 19.6526738616644110   T   T   T
  6.5195576549478380  6.9384007043498137 16.4304390782025536   T   T   T
  6.3309245778173899  4.1137652670905140 14.3246129525848271   T   T   T
  4.2241129613359689  4.3027160233970427 16.9941789608898048   T   T   T
  4.0033444513351188  6.4465575512170741 14.4163702113110883   T   T   T
  2.5558028656196483  2.9030064625893797 13.1703080428900066   T   T   T
  2.5602042748105043  7.5636774853846509 18.2436884875214673   T   T   T
  7.6055420523615895  8.1707487663669198 12.8425557637951684   T   T   T
  7.9578155452091472  2.2087152128420069 17.8419518149373246   T   T   T
  1.2456234637891179 11.3238374148055598  6.3186654727570879   T   T   T
  1.3700101195836389 19.4791911184352102  4.2620145270339576   T   T   T
  9.2704207276741357 19.5094484974964821  6.4998731005415280   T   T   T
  9.0215874369847686 11.2838222243708728  3.6607486033427721   T   T   T
  6.3077096184770234 11.5839774623928751  1.2422021178966283   T   T   T
  3.9280354652653755 11.6705575420012657  8.7676487515213370   T   T   T
  5.9009092767471163 19.5640613253629141  8.9231789653776268   T   T   T
  3.3135185162879801 19.8854242313083915  1.0784853886666077   T   T   T
  1.4040966918446875 16.7877649521229877  0.9476914624284272   T   T   T
  9.2036171500983635 14.4989392594449207  1.2702237131684766   T   T   T
  9.3725561966938606 16.7441832893431126  9.2742362060652876   T   T   T
  1.3797539827247192 14.2678127774961929  9.1686188069063785   T   T   T
  6.3266817761245706 16.6275519400692531  6.3492398791330009   T   T   T
  6.2774971069845265 14.4384066931756241  3.7118942745840360   T   T   T
  3.8953980572445217 14.3970624951426025  6.1422477140834388   T   T   T
  3.7783134783762704 16.5491130347986655  3.7932088966378958   T   T   T
  2.8020585811439598 13.0603208912035065  2.5680579780358799   T   T   T
  2.2785533797163149 18.2869031777665221  7.9169881494129983   T   T   T
  7.2608036380006444 18.1293550262329326  2.4489418271073431   T   T   T
  7.9652395642918856 12.8200308941060417  7.5283234012241511   T   T   T
  1.0212607878855200 11.4478745877163384 16.9643416866719150   T   T   T
  1.1599274343968471 19.4549516740043948 13.8010685372729895   T   T   T
  8.7548309327123306 19.0847849894885826 16.3647066389071796   T   T   T
  9.2199506286791735 11.4915137611111149 13.6713616347859794   T   T   T
  6.2030734735318083 11.3642742267847812 11.1771388234841886   T   T   T
  3.9415431771348861 11.4027242879221937 19.2845369203384251   T   T   T
  5.9224728957760071 19.2942337900283434 19.5232111531871766   T   T   T
  4.1359253717717719 20.0784217725348562 11.9394311516807790   T   T   T
  1.2898319091328718 16.8613283294419816 11.2745680952070320   T   T   T
  9.0744848849598601 14.1886479902471194 11.5545963704227752   T   T   T
  9.0411690815546955 16.5671704410165503 19.3356475107260408   T   T   T
  1.4819274319088191 14.1454291985915344 19.4762124624882063   T   T   T
  6.8640323789904603 16.3356199649052378 16.2830782686681843   T   T   T
  6.3115215125909394 14.0014153320984711 14.0169787165729058   T   T   T
  4.0940641338479020 14.5401985020572635 16.6980035683716821   T   T   T
  4.4023031586297643 16.6228704620436432 14.1883992927066487   T   T   T
  2.5456290947120896 13.0177356418743386 12.8563676134353528   T   T   T
  2.6622469021574218 18.0490041273958362 17.6511970180032520   T   T   T
  8.0401057009178292 17.8787032979857976 12.7007071399540905   T   T   T
  7.7288448246408654 12.4505942123385331 17.8063671422986758   T   T   T
 11.4367780892845055  1.4792530104136086  5.9278694148687503   T   T   T
 11.7657833527496081  8.9887411392224941  3.8964191231433358   T   T   T
 19.1553237985403655  9.4030705067176203  6.1468016132985657   T   T   T
 19.3080859284897599  1.0668097159873584  4.0357731542702195   T   T   T
 16.8072252375173505  1.2035421673776374  1.0018396691322835   T   T   T
 14.2014907105711714  0.6767217487278824  9.3775480716921855   T   T   T
 16.7646674611729054  8.6831242495348864  9.3590684860461337   T   T   T
 14.4353987208178278  8.8846398381664837  1.0949560775460174   T   T   T
 11.7419182523199890  5.9766609799176438  1.1898152710288810   T   T   T
 18.8958698241790728  4.2166315719424459  1.1274049514905258   T   T   T
 19.3653209274177556  6.1938357352512172  9.0381415431073773   T   T   T
 11.3017162078212223  4.0132496019787061  9.3364759238244019   T   T   T
 16.9462481623227745  6.2058385554767606  6.3917668396830818   T   T   T
 16.8207551879726793  3.8097381238338031  4.2795665582095683   T   T   T
 14.2301180670208911  4.1587714429790559  6.6171299273687927   T   T   T
 14.5542839543806632  6.3862076034484918  4.0497202832437083   T   T   T
 12.9933280170693592  2.5466694080072019  2.3971063181539405   T   T   T
 12.8930698140652638  8.0010539395513955  7.6538836100622962   T   T   T
 18.1258901607395302  7.9339231029043056  2.4328720340012167   T   T   T
 17.5046491319545865  2.3469120886875432  8.1552842384153070   T   T   T
 11.1615671601562187  1.0707696648959162 16.3126843351534561   T   T   T
 11.6111242316174348  8.9895997008050443 14.1561674783479958   T   T   T
 19.3143931869166536  8.9649766322500444 16.7170605301159227   T   T   T
 19.1713223406652133  1.0919502236686693 14.2167980199584161   T   T   T
 16.2947489741994005  0.5538656439741080 12.0063021550559164   T   T   T
 14.3869174939119304  1.1587840707351418 19.2714436109786860   T   T   T
 16.5777140268497192  8.9676414294908362 19.0233953103850979   T   T   T
 14.2348677658875413  9.1090127958513882 11.4512316468476278   T   T   T
 11.4051422734246781  6.6585754435369733 11.4084728341186992   T   T   T
 19.4724832822644771  3.7760015014001258 11.4956732973751148   T   T   T
 19.4174319136238154  6.4494104172238442 19.2557642666296971   T   T   T
 11.4622319632217682  3.9946064317600403 19.0959231320548284   T   T   T
 16.2639883507114860  6.1562212076916394 16.5865536585671478   T   T   T
 16.6530609011646007  3.7486179914475652 14.0923966441795603   T   T   T
 13.9806030072139382  3.9265112751014892 16.1502212923741766   T   T   T
 14.5555639176064222  6.4252372348123696 13.8816060283255442   T   T   T
 12.3893123259114439  3.1829590005174646 12.8349253208013252   T   T   T
 13.0482084813213159  7.7776221087331630 17.8834352614655501   T   T   T
 17.7723511551525775  7.4774015270316054 13.0003250612923189   T   T   T
 17.9690269981945931  2.5596399329142097 17.8534865560473435   T   T   T
 11.2960333086412259 11.2324216197895943  6.1915523684686553   T   T   T
 11.3339564865897255 19.2581762344231109  3.9608368843402175   T   T   T
 19.4554773158605769 19.3831054173732156  6.4312396546267010   T   T   T
 19.6194229694769362 11.5507975043529587  3.7434674366512364   T   T   T
 16.5507296208879353 11.3792225427983613  1.0592468312197734   T   T   T
 14.3646356907411068 11.2035551771457964  8.8817194772105257   T   T   T
 16.7819692937408362 19.0749953492717772  9.2919542103326780   T   T   T
 14.2426637040060964 19.4554850516693811  1.3911321677352475   T   T   T
 11.4906112569463730 16.6939805282334000  1.4046181437073098   T   T   T
 19.1870567044954115 14.6617978938938620  1.0842773574839684   T   T   T
 19.3257557082606723 16.5128169695059697  9.3491284253495905   T   T   T
 11.5516168220232931 14.3480014779445249  8.9577002517740230   T   T   T
 16.8980143530212530 16.8827310293647699  6.0381492407771562   T   T   T
 16.6336042315777064 14.3020908299391110  3.9774863292729497   T   T   T
 14.6661071568920161 14.1662216317125971  6.6574646100753236   T   T   T
 13.9330552812925550 16.5382976667250325  4.4484939717103087   T   T   T
 12.9325417482647307 12.7156756273770526  2.7429106463913011   T   T   T
 13.0111183296922643 17.6279535582254283  7.9823985947020537   T   T   T
 17.9721222195777983 18.0736703317185423  2.4734812519200662   T   T   T
 18.3387049187956634 12.7914816540114629  8.0459699429791574   T   T   T
 11.6049888497271230 11.4576396914929806 16.3926281138054293   T   T   T
 11.2243205906134751 19.3059436555446879 13.8941488305496481   T   T   T
 19.6591930953768284 19.4000261279002650 16.5920836490972832   T   T   T
 19.2063522380405516 11.5183732832887227 14.4125592207763855   T   T   T
 16.6870351915765056 11.6142961405866192 11.2862155527972021   T   T   T
 14.2471153982871126 11.3296865254606374 19.4471264966327624   T   T   T
 16.5131529580824221 19.1405856101420220 19.3364994468289666   T   T   T
 14.0866415971594527 18.7824319862530302 11.3331835665113072   T   T   T
 11.7797801639810853 16.1738956206041031 11.7077568715207772   T   T   T
 19.8165812535482431 14.4125769399292505 11.7561012715890527   T   T   T
 19.4987975855773072 16.8002449632569366 19.1881368512290038   T   T   T
 11.6867204837875871 14.1561977750692858 19.8234335651044162   T   T   T
 16.4857164884762142 16.6211577580280192 16.8907569046923101   T   T   T
 16.5830438370992184 14.0693904304988457 14.5659250361900767   T   T   T
 14.3748943691649664 13.9627312785500628 16.9192491865893828   T   T   T
 14.3148697887268490 16.4684709121391428 14.5881182858262957   T   T   T
 12.9834835796358306 12.9241203310714656 13.0372362393810413   T   T   T
 12.7296592185522233 17.9405307785414543 17.9308700388311877   T   T   T
 17.9200651195351668 17.7065970031640845 12.9399089690473552   T   T   T
 17.9952348127070536 12.9610026103550204 17.9732960735797036   T   T   T
 -0.6808968818925069  0.1634882217439717 -0.1480759635012659   T   T   T
  4.3176268771293991  5.1082297622586088  0.1053060055651549   T   T   T
  5.2791066561419182 -0.3740871869176555  5.1810446104945509   T   T   T
  0.5627052336718729  5.5009120587939551  5.1212489365449425   T   T   T
 -0.0977952414172985 -0.1557042049627719 10.0392563979901173   T   T   T
  4.2778703847714183  4.6501375605395188 10.7778381335786353   T   T   T
  5.3554991752915440 -0.3437173576131933 15.7376461201092965   T   T   T
 -0.2863317054915966  4.7724061484979572 15.2185178407955366   T   T   T
  0.2525156846356367 10.2713675847405170  0.1789346113427087   T   T   T
  4.8682167356416208 15.2293485420780392 -0.2809118444880475   T   T   T
  5.4809463373181586 10.7286075178255178  5.0908611045146195   T   T   T
  0.1403064969439809 15.7580057818955677  4.2984065075792817   T   T   T
 -0.4858540255008262 10.2497486576385430 10.7846574948849323   T   T   T
  4.8368463884009136 15.3951848793371244  9.6829185929100117   T   T   T
  4.7146556638583634 10.4858703124326667 15.5857040539708880   T   T   T
  0.5526286877811816 15.8524565574977387 14.9259075259853713   T   T   T
 10.8478486421203684 -0.1295822164588379 -0.0808820353864573   T   T   T
 15.5946993286059659  4.6404571367201877 -0.1349283023516548   T   T   T
 14.6480381485418931 -0.2607762482775962  5.9603338113913589   T   T   T
 10.9079969728591610  5.3805794455228551  4.6779549405336738   T   T   T
 10.3872306363294715  0.4203271194932125  9.6887401534042237   T   T   T
 15.3189842319890062  4.5687830924119268 10.6055663528903779   T   T   T
 15.5771353210641585 -0.8704151297563445 15.6774250371704884   T   T   T
 10.4541441070717962  5.5918293827053382 15.2191871411452926   T   T   T