Li P  S  Cl
 1.0000000000000000
    25.1819793006824639    0.0000000000000000    0.0000000000000015
    -0.0000000000000009   14.5388225279766061    0.0000000000000009
     0.0000000000000000    0.0000000000000000   37.2126966544236950
 Li  P   S   Cl 
 286  48 240  48
Selective dynamics
Cartesian
  3.2471008540461410  4.4236689365380153  6.2699769402936543   T   T   T
 13.7791504525693984  9.5986207604775835  8.8124564292702381   T   T   T
 20.6820684483394572  5.5986705317283176 14.3871380338849004   T   T   T
  4.6024800194514865  3.3098525555788729 15.1103009045589154   T   T   T
  9.2718561108301074  4.3673737510323685 -2.5985602031589314   T   T   T
 22.3191959299873410 11.3983303622309435 -3.1431087545681056   T   T   T
  1.7386848202303993  2.5187735435806795  9.1899952846266846   T   T   T
 15.6092033633732363 11.8065931785546177  5.8228972968193826   T   T   T
 17.9161251608128396  2.4340702674953079 12.4203896221774368   T   T   T
  4.6008286445292255 10.4169477107423880 12.8849171714501729   T   T   T
  6.8020890497027393  6.4256690700551635  6.2671837323246216   T   T   T
 21.8872170441992004 14.4771796462858369  5.4378298100701921   T   T   T
 -0.5400934258940517  2.4339832421395755 19.3736775009191149   T   T   T
 15.5677860142056375 12.1616606911024583 18.6169518113141450   T   T   T
 20.0728668822218523  4.0564526529365974 11.2575013665896186   T   T   T
  5.8333766211631604  7.7510232815596849 17.8705153178786027   T   T   T
  5.6260706446557318  7.4204089701121010  8.7298351508281371   T   T   T
 25.4408355125110788 13.3151103653848288 -0.8304681981805381   T   T   T
 -6.0995704105650024 14.9033413145979132  4.9104871780285508   T   T   T
 11.9303642233740135 12.3656370525013202  8.3233789895108412   T   T   T
 16.2654922202489409  5.3314200838758383 13.8969533060640451   T   T   T
  6.4169755717300010 14.1214178232892280 13.8268535734294176   T   T   T
 12.2590253567266156  2.0691653859942409  7.0951059059194446   T   T   T
 26.7150726601892394 14.5516764235222418  3.4085070696731750   T   T   T
  3.4495506401353953  4.9504890970861917  9.3675592220154886   T   T   T
 12.8773551859738369 10.7313434062403381  5.5436735101518000   T   T   T
 21.2218512186757167  0.0721164004843246 16.5857955040650396   T   T   T
  8.9278334321262633 12.3851432867790336 16.5908576482938805   T   T   T
 11.3867719575374036  0.6231251619127109 -3.6357974357435672   T   T   T
 24.5040376443206860 11.4258387690194283  3.3098755812445506   T   T   T
  0.3456736032514827  2.8769019969347438  6.6825092092661311   T   T   T
 16.1954413464823759 10.8651056832125406  8.8319723756863624   T   T   T
 22.2880467555038919  3.1246326017125798 16.8948210722445999   T   T   T
  7.2025566810171302 12.4378020925893793 11.4187318482829721   T   T   T
 11.1300618951030383 10.0176880738858145 12.8475237971300338   T   T   T
 22.5583846551150096 15.3790298522475766 -2.6841425073095588   T   T   T
 27.1340355710148557 16.4861300070417052 17.6202514914016497   T   T   T
 13.9439800518558101  8.5030861213710480 14.9070244234872433   T   T   T
 12.6550906558630327 19.1543538894328691  0.6130446982064951   T   T   T
  5.0655793428311098  1.5425809884377533  0.1125274038850293   T   T   T
  9.7416472783707828 16.2390277739739766  8.9955616603250625   T   T   T
 19.5376880207912933 10.0064276328799977  6.5545922183320888   T   T   T
 26.1476846974609352  2.1286982349610657 14.7781440202319558   T   T   T
 11.8563986308003368  7.1213098909205774 11.0647205347578463   T   T   T
 13.0287014573116231  3.1188854067416631  4.4671350475571936   T   T   T
  7.0733177183286271 11.3006415137958776 -0.1259119497973679   T   T   T
  9.7683139728183068  0.5473729143562659  6.0169822125307046   T   T   T
 21.9169649149932155  6.3177405773232769  8.7004829458721407   T   T   T
 -0.6072481452304422  0.1147225414326422 11.2381508420952141   T   T   T
  9.9543770305010124  6.7266138898738959 13.1861236577582659   T   T   T
 19.1580042370750405  2.6748993504519647  7.2967377668563929   T   T   T
  1.6263870956223576  7.6212776941580955  2.5807091432772893   T   T   T
  7.1167203742376053  2.4074063781599313  6.5940553990243931   T   T   T
 23.1701658971772559  8.5824139080347521  7.7320885713630876   T   T   T
 -2.2245232525231713 -1.3069832657130895 13.8965285651632104   T   T   T
 12.4292750777050820  5.9392829463741847 14.7795573874425745   T   T   T
 24.1477151179969596  3.3820152195860067  2.8640689006564197   T   T   T
 10.2079603151060514  9.8403025488237539 -3.3925743572441269   T   T   T
  6.3960995354520858 -1.2898937067411027  6.9982445618502345   T   T   T
 18.7966735391857434  6.3057179990893184  7.5440471462313718   T   T   T
  5.7271740815824783 10.3140582229188205 15.2573997236922807   T   T   T
  4.8395642857384553  6.9428645327867766 13.7021655995710425   T   T   T
 15.2218591340379152 13.7807904825024004  3.9134796959162403   T   T   T
 -1.9079131697163880  6.2977318271479463  2.7870559393436323   T   T   T
 14.6558934273653403 16.2548314027911829 14.5981815102893524   T   T   T
 21.0466890408987659  7.2955520521062285  5.2908983371074401   T   T   T
 25.5532251986703827 -0.6452029117056082 15.3455717098048225   T   T   T
 14.5753490597704918  7.4662786873740341 12.5508172685605661   T   T   T
 15.6548184464499638  0.7803581326813289 -1.0768733755769082   T   T   T
  9.7903965117306448 13.1488031922811714  2.9036659921477153   T   T   T
  6.5440693110967585  0.1842969579111381  8.9981262019796464   T   T   T
 24.3273288135687054  5.6619164396330115 13.2188036354545133   T   T   T
  2.7035695501940502 12.6305426766070532  5.2972347599695517   T   T   T
 18.0008042559725894  5.2851692581915017 11.2173964093009833   T   T   T
 18.4547113218105778  9.1114383589147749 13.0229740842490376   T   T   T
 10.7743902092322195  5.5092279766721557 17.9273285081797233   T   T   T
  9.2732751103515572  9.4808150350184519  0.2196791862262630   T   T   T
 25.1458821870939460  5.0900833522281097 -2.9223338584163310   T   T   T
  3.9254344267710577 10.8287062864122383  7.6644848123718878   T   T   T
 12.1396252379633047  4.3412068810115745  8.7422897765300451   T   T   T
 14.5969962355952241 17.2341914403060237 18.2100092973019549   T   T   T
 14.0406863555417232  0.6207773523714650 11.9372103380485122   T   T   T
  6.9735939029854741  4.6609598809269182 -0.0018519201150797   T   T   T
 20.2781414735426964  5.2156811652680730  2.2303869805705068   T   T   T
  0.3374715047692259 11.0596406454739373  8.7342978764602996   T   T   T
 15.9608357277356649  4.1110909577749064  6.4192924748609759   T   T   T
 20.5377009110015187 10.6160266586825216 13.3215832233965283   T   T   T
  7.3692462622146877  5.9647781316884112 14.6227609155461042   T   T   T
  9.4613194500785429  9.3910948100233860  2.9925235194311544   T   T   T
 24.7737795390150026  4.9685163092162803  9.2024946837718407   T   T   T
  0.8007589679338700 10.2657190580875302  6.0076100046555370   T   T   T
 14.3848278907962701  6.3977117794214093  8.7310017808736049   T   T   T
 17.5503226565705575 13.5432367196651775 12.4890513263737475   T   T   T
 13.5006466317533427 -1.2654268406441438 15.1278409072478741   T   T   T
  9.0326213891702807 12.0528588854042660 -3.0082555078756799   T   T   T
 29.9271340843440221  9.5886504582581864  0.0651711981304763   T   T   T
 -0.3387927274088620 13.9136343829202609  7.1652823189293899   T   T   T
 14.9584691471587785  2.8525263253341819  8.8634240589061619   T   T   T
 18.2407232266722268  3.1823224822523724 15.1593707018140194   T   T   T
  4.6854943366827619  2.6756482380291224 12.2824477464172528   T   T   T
  9.2176303435311322 17.3996107911180324  0.7437437695709068   T   T   T
 26.8903353984914979  6.8799259441157972  7.6055163985289989   T   T   T
  2.7145644051234035 13.2905542804940033  8.8627405268178734   T   T   T
 14.2853422716760665 -0.8353482142317800  7.9847311055059960   T   T   T
 16.0722763185283100 10.2878913793023550 12.7836298421638084   T   T   T
  8.1262279509522504  3.7227667649647382 13.0793719378287836   T   T   T
 12.1550166481524666 21.7553411950336653 -2.2836698649451366   T   T   T
 25.0099535495206737  6.4462057042361511 -0.3510252540284750   T   T   T
 18.2804995860155444 14.1824409240520133  8.4862799806848734   T   T   T
  5.9936532374869280  5.5149311061912343 11.4084811021595005   T   T   T
 12.2012567334405464  7.6183429057352008 24.1219254037751050   T   T   T
 27.0495494138856714 15.0992421829198662 12.5816792081594162   T   T   T
 -4.7091879917674770 10.8553393491802304  0.2272128911071739   T   T   T
 17.7012230978732461  8.5917165962395394  2.9029987104440673   T   T   T
  8.0809985062803928 11.0864648682507152 13.5776956441177763   T   T   T
 10.4388117260866622 -0.8369408308500697 13.3551737471362788   T   T   T
 23.3976450947994330  8.3525431741637846 15.3627980644657995   T   T   T
  3.8204863181754392 -4.4288690037560263  2.4799185682787566   T   T   T
 14.6520306400980864  9.5671447081326768  3.3213969177802065   T   T   T
 22.0393893549019069  1.3669059779205051  8.9920489241177322   T   T   T
 10.1381708939687236  8.3986008588820766  7.2561135860095103   T   T   T
 11.4624697767253796  2.5403448410601710 13.4545881729843408   T   T   T
  3.7941603387789558 13.4247422191575616 13.0405075377407726   T   T   T
  4.8903173799293045  2.7665915194653903  2.6132872610278524   T   T   T
 22.6247544825762432  9.3992725368631582  2.7030091896935899   T   T   T
 20.9813949276628300 -1.6942558182296619  7.8673173112347872   T   T   T
  6.8427649871829992  9.5488617317411837  6.2647603477083074   T   T   T
 11.5801530997148365  1.1634127842111053 15.9825210873911541   T   T   T
 -1.3999431607267052  9.7941304164683665 12.6621846165158338   T   T   T
  5.7050263887685198 -0.9676256805677869  2.7846865303009607   T   T   T
 15.7602853993147196  6.6412901502762960  3.6862214223602949   T   T   T
 19.6137020911786522 12.1091262221839386 10.8046887882425828   T   T   T
  8.1912916827660531  5.5673988941440937  8.9510307194800536   T   T   T
 10.8979385745426089 14.5661159850159443 26.1220130605934067   T   T   T
  1.1224968680716347  6.9606432798891911 15.7594676496531303   T   T   T
  6.8541882633845210 10.1695110668704665  2.4837714854707897   T   T   T
 13.1214370837374972  6.1481333530865783  6.1369020288805416   T   T   T
 23.3843645608070787  2.4396598917337471 13.1098107769270324   T   T   T
  7.6718424199986375  9.6848549204449164  9.1941609552644774   T   T   T
 18.1688819536510238 -1.9300510051731699 15.1468913248654289   T   T   T
 26.8212251235065970  9.5082168526399364 13.8395417005645065   T   T   T
  2.7223734016726566 -6.5414920681596298 -0.4981170458808503   T   T   T
 25.7711665427829892 13.4811664257036945 -3.3330511148428399   T   T   T
  5.8203387572015393 -2.4197901838258256 31.7431724554567296   T   T   T
 16.6980161889541243  6.8682080542436292 28.1861958071737853   T   T   T
 24.7278619317551858 -2.2239531719007766 23.4872040476235817   T   T   T
  8.9710885821658959  7.8323375114795928 24.0269030481184096   T   T   T
 12.9524495185620037 -1.2802424958013503 34.8542161583346584   T   T   T
  4.0144694207785880  6.8639969356420565 34.2347305383044116   T   T   T
  4.9193957202807059 12.4476104499975868 28.4490760792064066   T   T   T
 17.2422157328776571  8.5577065661202241 30.8972108252514239   T   T   T
 22.9778917884626139 11.6683468001220767 25.6223303044007586   T   T   T
  9.5882404183554417  9.6441831806235392 20.8752951396381512   T   T   T
 14.1759749633284393 13.3224142614057399 37.7753703847616649   T   T   T
  1.4689277646828673  0.9014139970026956 27.9132414119165269   T   T   T
 11.0934380689048702 15.9684839335653592 22.6925928100889855   T   T   T
 17.6709980089399963  1.3159835151111154 30.3053714786114057   T   T   T
 21.5833891666458833 15.1574562079244011 24.4420064473303711   T   T   T
 11.8187367297136152  4.5638427342287562 22.5249518728227756   T   T   T
 19.9663839720487104  9.0349400425849531 46.4864209486010935   T   T   T
  3.2733850788027770  4.3658664592558107 36.8475952854817734   T   T   T
  7.7643419243149632  0.0436246417921991 28.3686137076881373   T   T   T
 19.4858671014563143  7.6610534531921370 28.0716800199929146   T   T   T
 24.2969125854297303 15.1643029324128129 22.6297174691643299   T   T   T
  8.3463249054099684  4.7730173290854427 23.4830504919911576   T   T   T
 10.0656344302220191 13.0670594472433734 37.3572231224239459   T   T   T
  3.5067788926175059 12.8104670935344878 37.7737829992485032   T   T   T
  6.6526239900272115 -4.5771095233593098 29.4028544549051958   T   T   T
 21.4072789189692720  5.5401673416378046 29.0573213046286476   T   T   T
 26.5411324237186150 -1.4492294789365303 20.0890005919742229   T   T   T
 10.1910746769153828  5.3287081989444109 26.0139219199161786   T   T   T
 14.1411498146240504  4.3138762874450869 34.3537749036254922   T   T   T
  6.3746826311102192  4.0459591050890396 28.5652242243984809   T   T   T
  7.2307825669403183 14.4317461898344135 31.9936130587667762   T   T   T
 19.7979120732298561  5.0485937952744191 31.5292129184092502   T   T   T
 24.5556986297731044 14.3802485082124996 25.3631464267288216   T   T   T
 14.2203872723261906  8.0624841357489245 21.4215737314714936   T   T   T
 14.5684801662379453 11.4954315335765962 33.9424662604630285   T   T   T
 -7.3610965591922435  7.4996786908181345 34.2287293100384531   T   T   T
  8.3456590967271076  2.4229278809485728 20.4594685121400737   T   T   T
 18.5763575625988473 10.6991971913211401 25.9912686537242799   T   T   T
 17.6324074008454090  4.0031075714936488 33.4780444276367675   T   T   T
  0.5680646032417385  7.6598964945030499 34.3159044571681306   T   T   T
 12.0857449164915423  3.5640871055718795 28.1840192672269438   T   T   T
 28.1222016490527480  8.7965145896626105 29.9665666581309083   T   T   T
  6.5292408602839460  2.4234797316468537 24.4400209317373545   T   T   T
 14.5726499407507770  5.6524155632399502 18.1908394312299784   T   T   T
 18.9706615360579036  4.2817861321773423 27.8893027750025304   T   T   T
  8.1511765741469304  8.0340550346355464 34.7354955700614525   T   T   T
 14.1123106346896883  1.2266117223454014 28.6343170021900342   T   T   T
 25.7868095525984522 11.7572126871376739 28.2950803294302347   T   T   T
  1.8222812090728970  6.2738058568581332 20.2894409629589703   T   T   T
 18.2947283625078825  9.0714396067065977 22.8872031155653595   T   T   T
 22.4052327172802208  2.2508836204938842 37.2983562696971944   T   T   T
  4.6301754901413421  6.4819322295753787 28.4057182542795417   T   T   T
 11.7830416630118293  3.7595020193845521 31.7157665761656666   T   T   T
  1.4336136145122291  8.0973271277683203 27.9742866530355805   T   T   T
  2.4209828280403061  2.0989900690568351 23.3311673049778747   T   T   T
 15.6904753532609362 12.1207813964597086 25.2271351070059140   T   T   T
 21.6509240015462545  2.6568511949245446 40.7172686141730438   T   T   T
 14.9080102327393789  8.0409073644555775 35.2328660818939454   T   T   T
 12.9898183427172604 -1.4858403245200449 24.7209295578900807   T   T   T
 -0.3147404070914038  7.2814647628223428 30.0959514264880319   T   T   T
  4.4924521803254658  1.2798146746895369 25.6903215621269645   T   T   T
 15.0076945898165750 10.5350589365693743 22.5767321044747611   T   T   T
 21.6935086671509048  4.5739372980325035 33.9787857900542818   T   T   T
 13.6104627068180797  7.9024743916101734 37.6608624791522004   T   T   T
 14.9326425042254076  4.1017999320669762 29.3065424155191252   T   T   T
 -1.2552718666875688  9.9277089917058241 31.9669445351405663   T   T   T
  4.3952280178637606  4.9750676441866277 22.4127659741467937   T   T   T
 17.6702029664435152 12.0358799469097377 22.6986572259419894   T   T   T
 22.3297880401965578  4.6028991371465704 36.5011141482756969   T   T   T
  9.0631891618148082 -1.2767180932946431 45.4075552237608662   T   T   T
 10.6957706262134149  1.2515532058863175 29.6646821234987321   T   T   T
 23.3188488005399286  8.9525539126359597 28.7909661607747331   T   T   T
  6.3933983141123383  4.4500023025368423 31.4020070536480453   T   T   T
 16.6504185897510091 -1.4716403117551040 29.0513379888088075   T   T   T
 21.8391745624224498  4.0322352381392630 24.2907334927860319   T   T   T
 17.5839361062610884  1.1297055975087587 17.2713945266085211   T   T   T
 15.0899659074473007  5.5637750759343998 38.2778818945727082   T   T   T
 -2.7271559476725113 -1.2296899296998995 37.2859613495789475   T   T   T
  7.6655465899807425  6.6443927699274248 27.6612356543328950   T   T   T
 19.1833096610148885 24.8511132071353948 34.1802903032911587   T   T   T
 24.1435131041646684  7.9254570754195806 22.2010801938249287   T   T   T
  8.5354559418024554 14.6861958625640732 23.6133099657943610   T   T   T
  6.2845324945212155 -4.8667505555937192 34.0098256568743196   T   T   T
 -0.9720913374886276 15.1426634531752562 30.2151051193630344   T   T   T
 19.7562484895658024 11.5501749672122216 28.5664719638021154   T   T   T
 20.8669822565716210  7.7908860953099381 23.5716656166829353   T   T   T
 12.2277526964396408 13.2994676269929641 19.3972039045395555   T   T   T
 18.6570343445607563  3.1506794093601980 35.9276219083049355   T   T   T
  3.0809998966587053 11.2313744167144449 34.5197780600259421   T   T   T
  5.7989263768883479  7.4691493628414394 31.7232956221914080   T   T   T
 20.2120546031331614 14.3854267117585728 31.5922454694947596   T   T   T
 21.1187017508746884 12.0510186652314282 23.1004295100984471   T   T   T
 11.1096610695263625 11.3703634171549020 22.8544480561134442   T   T   T
 19.5265920127586021 15.7344785937204641 34.2465527504735050   T   T   T
  3.8229873326903117 14.6473132801306498 34.1989033847157344   T   T   T
  8.6375612960943897  6.2893393040159085 30.3561386284200836   T   T   T
 21.3323609198733486  0.0195173824184915 27.8485141792230095   T   T   T
 23.1052742671133799  7.0367369732265512 25.7016012050739100   T   T   T
  3.4071404261201614  3.7601138314866471 25.6970268288036294   T   T   T
 23.0801881307921306 10.8522624993230075 36.3823412308697129   T   T   T
  2.3635774030342631  1.0486436032185467 36.1454574591926914   T   T   T
  1.5304162650436264 10.1505832557792672 31.8507040946044562   T   T   T
 18.4116998635573808 12.1456268939248773 31.6665342856836105   T   T   T
 24.1367331140578507  5.1805008052552664 21.6952203298319191   T   T   T
  9.8377598771359764 11.7687312227343241 25.9061625152574493   T   T   T
 17.5740268367640624  9.0845709253918514 37.0794999578618771   T   T   T
  1.8003558306529284 16.8817787655360618 31.6409805363598657   T   T   T
 27.2120753164255156  4.1194907753615118 28.6821402194801145   T   T   T
 13.1834053659873796  8.0056691466156131 30.8333269885705157   T   T   T
 15.2805786838026467  2.6997323745645980 21.7575025822993204   T   T   T
  1.8499663530894737 11.0848442577483688 23.2788019880244086   T   T   T
  6.3069256542207706  2.4618686809658530 34.3352338723674819   T   T   T
 22.1205155687795987 12.7567295076679841 40.3789989646607665   T   T   T
 25.5544983936413423  6.4395702936192381 24.0693880244371243   T   T   T
 14.4930364124581921  9.3533171368341961 28.4379000404647542   T   T   T
 16.5783922030406110  0.5399052341185131 23.5274433369371820   T   T   T
  4.4504953995957903 12.6675349008565767 23.7713349586769169   T   T   T
  2.6702242126643538  3.9405986368549670 33.9638782174864389   T   T   T
 16.9318356461818311 11.7069364507824218 36.2634308598051405   T   T   T
  8.4102300539999266 -2.4940081764111635 28.5212823320307187   T   T   T
 12.0717134135854440 11.8069194770181127 28.6025676094164005   T   T   T
 15.8181117276237408  8.1343160778994630 24.5279286115691697   T   T   T
  3.9864127533393798  7.9727389857853925 24.0791772694552009   T   T   T
 14.1202953136545286  2.1015691839451023 32.1052606056888123   T   T   T
 24.3047869019450573  3.3699749598597082 31.4016546702762653   T   T   T
  4.9521220137608131  0.7600545523033606 29.8234336072139570   T   T   T
 14.7809573825547513 11.0711727072110833 30.2629798745488543   T   T   T
 18.1487091041155750  3.9604587187030229 22.2556926314997661   T   T   T
  4.0645876690838332 10.3705098786340386 21.3231988372286594   T   T   T
  9.3134027825264898  6.4687100896930394 40.7346206710621317   T   T   T
 21.5529140809041984  7.7511780971421809 34.5046190349896875   T   T   T
 -1.6949049648075138  3.3800920778084591 28.1415526568546603   T   T   T
 11.0673766928244195  8.6573129865223031 28.9203770003863454   T   T   T
 18.8917932852649564  2.3535087659305942 24.3097378651162010   T   T   T
  5.1823635031960622 10.2787371731229094 25.8539287622577234   T   T   T
  0.9924096880913379  7.8280023500117375 49.0016793428286448   T   T   T
 17.0394781357162586 14.3947360633235526 33.9982295251723272   T   T   T
 15.0267752363191196  4.4800128095840321 24.4364626294936222   T   T   T
 11.8848916289258693 11.5090486082043952 31.6858592412514213   T   T   T
 16.2442760230561660  1.6726004079391292 26.3396519631190671   T   T   T
  6.8216465663923307 10.7870589226832045 23.9517775632330192   T   T   T
  9.1487794574288834  0.9862928754418548 34.9683571680029104   T   T   T
 30.1888761005379216  7.2556966695837994 40.3911602190121215   T   T   T
 -0.9513906516982705  0.0322117348891956  1.4373645962696699   T   T   T
  9.8907709924577034  6.7900833041866449  0.5567738345852475   T   T   T
 16.1062618771339423  0.9625763855702945  6.0258020833635362   T   T   T
  3.6088557125271912  8.1218020812105571  5.9157157779043921   T   T   T
  7.8681453706823312  0.7265942319109949 11.7058347565460235   T   T   T
 21.0730678740367914  7.7217759604016258 11.8312752911736432   T   T   T
 22.7807862443031759 11.3475701509396600  5.9129799086368386   T   T   T
  9.9640035806985718  4.1988930385233667  5.9829331305195028   T   T   T
 14.1066325560582904 11.5971257762734474 11.4093685497082209   T   T   T
  1.8038147614154973  4.4592111178923748 12.2651569976161667   T   T   T
  7.7635028648852771  7.2412975245061544  0.7722793252349694   T   T   T
 18.2665155032750164  5.8458275098280907 -0.0734030801700612   T   T   T
  3.7396884896040410  1.0038191184238285  5.8842142259195658   T   T   T
 16.2446662567709375  8.2012275373092223  6.2396923366871890   T   T   T
 20.8447942175023080  0.3083434764291471 11.5039802872960859   T   T   T
  7.6561010361367758  8.1450850593898707 12.0787550654365923   T   T   T
 12.1795373575160557  0.2583264710669818  1.2321363134913410   T   T   T
 -4.9289944470949969  8.1209732809079362  2.2536660819639489   T   T   T
 22.6376985562491342  4.5374985389929696  5.9103928737381262   T   T   T
  9.7143519861288432 11.3135936431582707  5.7129495456834603   T   T   T
 14.2317314723293560  3.8937222241844034 11.9651045897275399   T   T   T
  1.4930978831093016 11.7348584917141103 11.9641113761448690   T   T   T
  1.3585077284263170  2.8160903517873361  0.8334839529826084   T   T   T
 13.6214758402066103 16.2307134740796357  2.0711947896243279   T   T   T
  4.2650585542899213  3.4359202641887632 18.7454935434248142   T   T   T
 18.4223533877029624 12.3261972953601955 18.3656336036744392   T   T   T
 21.3486247993932423  2.7442883922993531 31.0322277855016040   T   T   T
  8.6308964953178666  9.8588866337462910 31.1401402646719383   T   T   T
 12.6908828855550659  2.7920591011109170 25.4946783855890651   T   T   T
 25.5064212054835764  9.8092462128579463 25.2683373683585124   T   T   T
  2.2161668550412856  6.1071610195568580 31.2697529165079864   T   T   T
 14.8336687387956676 13.6370834384293218 31.5491779548563613   T   T   T
 18.9723618323095806  6.2824516541470334 25.1072205068382210   T   T   T
  6.8499447992825013 13.5169961584579639 25.4979155008433942   T   T   T
 12.3540557540833653 10.0079811741288296 19.9304020922600067   T   T   T
 24.5959247970257238 14.5842543250134220 17.8286062007993031   T   T   T
  8.4536359231758293  2.5893440503409741 31.3568678799317553   T   T   T
 21.0148069100279997  9.7714155611669078 31.1665379805857405   T   T   T
 25.5101589018928365  3.0399657296481477 25.2439376773071515   T   T   T
 12.6731277391849861  9.8121879285820732 25.8356787668232712   T   T   T
 17.1805124266929319  4.4115526666732601 18.9387225136968844   T   T   T
  6.7759705368419638 11.4036633578611983 18.6889005344081127   T   T   T
  2.3924544301365929 -1.0951237948477786 31.1062930687971360   T   T   T
 14.7369291314004283  6.0021372374264956 31.4218988573550355   T   T   T
 19.0998571478030250 13.6485643055023651 25.6212429675449194   T   T   T
  6.2662429965518305  6.3365695073337651 25.1732012156860918   T   T   T
 11.9800308014024495 17.4580957390326894 19.6008936354833772   T   T   T
 23.5907280211594284  6.3637671639653037 19.0374182295349925   T   T   T
  4.0946479215625233  0.6689711722609566  7.9578132408143487   T   T   T
 16.2166942732464570  8.0932392521363212  8.2318396864423118   T   T   T
 20.8111989794293706  0.0952772376809292 13.5472939075225920   T   T   T
  7.7311161678750615  8.3647855458721487 14.1480544752460382   T   T   T
 10.1221982672627533  0.6486835575692854  1.3531367527130167   T   T   T
 -5.3115042791759031  7.2479482432137621  0.3605133254840856   T   T   T
 21.7401979242127830  2.0349334302928095 11.1134884392955016   T   T   T
  8.8356896124272435  9.8298134050723682 11.3140184672546518   T   T   T
 14.0441940092518180 -1.0602715101454021 17.4311590234127465   T   T   T
  3.5492097127856828  7.8327566499972594 18.6564599399349440   T   T   T
  4.5727895162320937  2.7292220967776051  5.2741779438242924   T   T   T
 16.9899881201533773 10.0036803092980975  5.5015849778650709   T   T   T
 21.9600632127691711  6.0198491775887675 11.4881469791084605   T   T   T
  9.2242610248054397 13.8668599297249671 11.1902853164313356   T   T   T
 13.2520209413455152  6.8148776007314282 16.8472309679127648   T   T   T
  3.7240379867979221 12.4450009120244474 19.8238910616968518   T   T   T
  4.4941592228258838  6.3238793763200647  5.2558663641877592   T   T   T
 16.9774922057854276 13.6453064857063886  5.4453238514957780   T   T   T
  5.9281793357965222  0.0352336673604965 11.4655255291794642   T   T   T
 19.1654891127729954  7.8714444881156567 10.9744998086161392   T   T   T
 24.7597471220268304  2.0406106020464927 17.1433697281688460   T   T   T
 14.3333191316349495 10.2806073205600832 20.2462738348125413   T   T   T
 14.1230921341734419  0.7834290681110544  5.4309280232200328   T   T   T
  1.6265451403468192  8.0339556002243349  5.5465438538903866   T   T   T
  1.5965226480636365  4.4294379614745045  7.9951765313645211   T   T   T
 14.0128280101797564 11.5615800510237143  7.5461369784313694   T   T   T
 18.7983001957231508  4.3286071086242845 13.1951301190901980   T   T   T
  5.9313564995415309 12.0377804529317451 13.5494002377534031   T   T   T
 10.4225803341076624  5.0262156083094727  1.6579774584133884   T   T   T
 22.8531851735541309 11.4897538522630640  1.3932888259670588   T   T   T
 22.6624302840050227  4.3029056753375068  8.0947597650659535   T   T   T
  9.8909574923214372 10.9834829503916893  7.7092703129851410   T   T   T
 14.0496250859198710  3.9511904650510465 13.9951220236468270   T   T   T
  1.7768224803660666 11.9326753000177028 14.0185189463848374   T   T   T
  2.6609955521844975  1.3817554457307295  1.5131935759666761   T   T   T
 15.3464530294225892 15.0994422853044235  1.7306480570171945   T   T   T
  2.4979330064428051 13.2173414729143310 10.9614963516811290   T   T   T
 15.3791342973943017  5.6122937957973624 11.6131801915879684   T   T   T
 21.5453954926871667 10.3462575817203337 18.1773492780584398   T   T   T
  7.9469667731974276  7.4493873839764477 18.2910939752317070   T   T   T
 10.7052376676077010 12.8851106351377673  5.0695662852890200   T   T   T
 23.6071630088120656  6.1182540004949537  5.1743109757277974   T   T   T
  2.7316203220687205  2.7938027892967705 11.3936500638411413   T   T   T
 15.0542962220734893  9.7978007826881459 10.7991088730146156   T   T   T
 19.9501181986601992  2.2123296964647663 16.4243014548359909   T   T   T
 10.4735369093664410 13.9930661978599460 17.5998850087680658   T   T   T
 10.9023640829010517  2.5496822758416493  5.0984227570912166   T   T   T
 23.2868617085689493  9.5934404467893586  5.0680777604873759   T   T   T
 -0.2227610422716585  4.4009428393390859 11.6394374010012189   T   T   T
 12.0932401876413351 11.6520534934316338 10.8758439107441163   T   T   T
 16.5700409292748780  6.2095795504703046 19.4264313825848127   T   T   T
  7.3552528390900154 10.6944767762308146 17.0134465760250251   T   T   T
  7.8823887215404991  4.1701829941519186  5.6109369840700518   T   T   T
 20.7971838804042868 11.7866204426262122  5.6313773604669013   T   T   T
 -0.3297792728815885  0.5361384978488173 13.5487758797539719   T   T   T
 12.0507640507462224  7.7193395548565658 13.2983294745446372   T   T   T
 13.2725963677469938  1.9805923919673027  0.0785489718683592   T   T   T
  3.4890805527252016  8.1876700751261353  1.4975180202320029   T   T   T
  7.9333748465971974  0.4623864275454149  7.3247770576535771   T   T   T
 20.6979776094239547  8.0566001586488802  7.2338904877000800   T   T   T
 24.7794688369529155  1.8165365112804397  0.3416843376042900   T   T   T
 11.0167192433673122  8.2920266124657793  1.0832211993177590   T   T   T
 16.3563091770142570  1.0720457373239813  8.1301136103372773   T   T   T
  3.6440598596030696  8.2619390781385675  8.0165251336309229   T   T   T
  8.1915134011784296  1.2009351413334184 13.7215523704563900   T   T   T
 20.7578531765736649  8.0689546357994146 13.7398026320127364   T   T   T
 22.0442655285931970  9.3140276262730488 10.7313832609746775   T   T   T
  7.8667780819504864  2.4138974473734498 10.6017856338510246   T   T   T
 13.6739251002582183  8.8230077286036810 17.4016118704616041   T   T   T
  2.2618043769798830 -3.6549956058231450 19.8867010042212193   T   T   T
  4.6713883663115219  9.6325536203412874  5.1410225004037304   T   T   T
 17.3076555816577446  2.4162598349459126  5.1693513055830733   T   T   T