Li P  S  Cl
 1.0000000000000000
    20.5609999999999999    0.0000000000000000    0.0000000000000013
     0.0000000000000033   20.5609999999999999    0.0000000000000013
     0.0000000000000000    0.0000000000000000   20.5609999999999999
 Li  P   S   Cl 
 191  32 160  32
Selective dynamics
Cartesian
 -0.6700866800155674  0.8109653913263687 -1.7989407221415912   T   T   T
  2.0302814555908726  7.0867787159055489  9.8564655049568426   T   T   T
 10.3010235802272252  8.2161688769675880  2.2218993993492373   T   T   T
  5.5780857864631344  3.6346852452351892  7.8961669651241380   T   T   T
  2.3018364565039575  5.7898744117563119  6.6452663436210120   T   T   T
  5.1644258516824433  1.8684273538472975  3.0232422578501161   T   T   T
  8.1317563019302082  4.9402523111966437  7.2411763948155414   T   T   T
  7.3629173225998814 10.1396986751622062  3.2116251207381872   T   T   T
  2.7004398636935134  2.6599867567566928 10.6854190954736179   T   T   T
  7.6847330586096305  5.7937770040892298  1.0565574390040022   T   T   T
  0.8265780836246645  3.1542477038993901  4.2112157458301551   T   T   T
  0.1928460834678545  8.7109449628187949  8.4290501241625861   T   T   T
  7.9902797649102082  9.0489267615865590  0.5455966584611471   T   T   T
  6.1992885670891900  0.7756118915989657  7.4821834269619609   T   T   T
  2.4195014634260228  2.1112929085555185  0.4426514914734385   T   T   T
  4.8623900369256923  6.6619439726029519  8.3526006001659781   T   T   T
  7.6906278212731740  2.8598264298209553  5.3818604828582126   T   T   T
  5.5589290875482664  7.4472521718577562  2.0230463524593780   T   T   T
  3.6325300930734641  8.4934211488206852  5.5213562461736556   T   T   T
  3.2968767804895993  1.0671127977567172  5.1057001748403756   T   T   T
  3.1800431068974260  4.6696975404666041  2.3158946979969866   T   T   T
  3.0007076320330968 10.0801307142396741  8.0232312557960714   T   T   T
  7.7502718482938615  2.4305658377811796 10.2111522316481267   T   T   T
  7.8560441372758865  7.3904030652401707  5.1036529606307290   T   T   T
  1.9797113606240848  0.1114256063882870 12.3129669536614053   T   T   T
  1.7006678763476226  4.8570880394762534 17.3718040040257442   T   T   T
  5.0919576912954856  7.9505247330471587 13.2971710790737436   T   T   T
  7.5862619129564806  5.2934542234628710 18.3264538668193531   T   T   T
  2.0844671311681715  7.1253031784323690 15.3273671501958155   T   T   T
  0.1595565204090497  2.2610452373787928 12.4139831614840830   T   T   T
 10.0700041733541781  3.5759209625798576 17.4788318969200311   T   T   T
  7.4492035959354972 10.2848832974824163 13.4256028823361149   T   T   T
  8.3322441961560525  2.7453997206301333 15.5307358183941666   T   T   T
  7.0578797018301032  8.4403628195093159 15.4272423274096173   T   T   T
  1.3641488124666667  4.6202321292470430 13.7333247447255999   T   T   T
  1.4817572461415542  9.6920073756966634 18.4011442667157148   T   T   T
 10.2846659622217569  8.0921568375860797 13.3251305825813127   T   T   T
  5.7912247933217076  3.2339907914457533 18.9313540856253084   T   T   T
  4.5768864040681851  1.1678328399714737 13.6103518034660436   T   T   T
 -0.4621338508746182  7.7836260936572685 18.2518938968619899   T   T   T
  8.2535669052665135  1.8708144791303056 20.2832022099927300   T   T   T
  8.2490704065884035  5.8813199350389009 14.0833098881319287   T   T   T
  2.0121320138855010  8.0381631043540427 20.4316282246896073   T   T   T
  5.1613079200578342  3.9526677905837695 11.8878035125391435   T   T   T
  2.7829242082608627  2.2161392832951115 15.1129238619152755   T   T   T
  4.3393974422479999  7.7239242097965493 17.9501023152848340   T   T   T
  7.5635427856800090  0.6714344847205447 17.5058587849272911   T   T   T
  7.6119118981997813  8.0365949418592848 10.6228919642592370   T   T   T
  2.1568575803491732 10.7952954460905328  1.0726553304981827   T   T   T
  4.0115268848633692 18.6066373548370265  5.8673301023430549   T   T   T
  7.4097901537179425 20.4381327709775462  2.6476461656945869   T   T   T
  0.5594713159479437 12.8855956348699223  3.8113341622159900   T   T   T
  0.3822239295167227 17.8478253578221882  7.0683281122067614   T   T   T
  3.8035267260506136 13.3880905679080620  0.2240417931163462   T   T   T
  9.0370211146841743 14.6484718383634327  7.7275198141263175   T   T   T
  8.0575997569957156 16.0286066232263735  2.7363634796696994   T   T   T
  6.6948808319525233 13.2193685482421603  9.8788241896465916   T   T   T
 10.0012250902388669 17.5840424673444815  3.0134558629171662   T   T   T
  4.8100048928072798 12.6212928738704733  3.3809015766609307   T   T   T
  2.1685252311964009 19.4623196908291760  9.2148762471749937   T   T   T
  5.3282259418443942 17.7095501466061123  1.7960817353536909   T   T   T
  5.7812094521231661 12.6314057767135637  6.1886076509899928   T   T   T
  2.7666306455176288 15.3016797570148118  2.4871397664498556   T   T   T
 -2.9044196352521880 20.3447991481120383  6.8922713711668608   T   T   T
 10.0438754451670196 11.9488455089769126  8.2931498052456387   T   T   T
  8.3009479392124152 18.8983063040798314  0.4063252418412557   T   T   T
  2.1679559454503345 15.6599297186966169  6.1787010781133507   T   T   T
  2.6533843166814415 10.9608423465385751  4.4296236945607541   T   T   T
  8.3329171918730580 13.1845877010625596  5.3598905443255722   T   T   T
  5.1100250069077715 17.1312582653432131  8.6758758984793882   T   T   T
  7.4450115900643876 10.4093144549471042  7.8115391221688029   T   T   T
  6.9863272626551955 18.1649950833375229  4.5445537408110672   T   T   T
  0.0379242353177814 13.3705661114733800 13.7124135192609309   T   T   T
  0.4077924532985331 18.5034353199492188 19.7896974188845718   T   T   T
  8.1881761696507471 19.1627846862436968 10.6834013852516225   T   T   T
  7.1776067664354297 12.2502850217478230 15.8591000168263871   T   T   T
  0.7141067814349391 17.5526806207685269 16.4409727893740047   T   T   T
  2.1811577339312267 15.9359395983396919  9.3383731855530705   T   T   T
  8.9814874166206735 12.5257821513404135 19.8461465981548351   T   T   T
  5.2740297267538461 17.7282424943503969 11.4245451906492352   T   T   T
 10.3842246206274318 13.4542043829620930 17.0476203796727397   T   T   T
  7.0711652357595227 15.5880286804860866 12.6522709373469731   T   T   T
  2.6892248118359383 10.5429739493915431 13.4187997105380177   T   T   T
  2.4423799226206770 20.2831936923408520 18.5832098902415268   T   T   T
  7.1888117467491366 18.2950712235521991 15.0714930295192637   T   T   T
  6.9617110583299162 14.8079125074972051 19.3073696067534932   T   T   T
  2.2395286356685897 13.1204330006408796 15.9096198443040535   T   T   T
  3.5613057685444778 18.3338719758704229 16.1051843796609226   T   T   T
  7.3009607566102366 10.7561618119453613 18.2853384348020676   T   T   T
  9.7214596872011985 17.7089070665730191 12.4848405992727489   T   T   T
  4.6526309014129206 17.8432595858803467 19.1666620603920386   T   T   T
  4.9488506499652987 12.7178874521712917 12.7553495397377503   T   T   T
  1.9534287354344122 11.4434808535385510 10.7705448478974937   T   T   T
  2.8755330734805056 15.5708221738389607 18.2798656496026979   T   T   T
  7.9132453156582923 14.8273563689547494 16.2960919359327434   T   T   T
  7.0653657277905983 20.0630555182515380 13.1235327975400651   T   T   T
 12.9270004671705223  2.5208959056261424  0.0552255540374886   T   T   T
 12.9211228063494961  9.0928508274973314  9.5605709501580733   T   T   T
 18.6701411505178001  7.2339142812375918  4.8406648927724563   T   T   T
 12.7920530055938837 -0.2381577139353214  7.4200382717300553   T   T   T
 10.6193749889076017  8.3872441180072581  8.2238991941512420   T   T   T
 11.1850212159061879  4.1446684216687082  2.7492612440635860   T   T   T
 15.9724767723492551  2.1013991032518424  6.0267324556410182   T   T   T
 19.9390879329192359  5.6648355288198458  2.8086520374793111   T   T   T
 19.4843448938366066  2.4001622121076354  9.0552408428716742   T   T   T
 19.8825812023318740  9.5037544789603601  2.2333747005753564   T   T   T
 11.6559574055517920  0.3965189971732254  2.4659467531311008   T   T   T
 11.7637875545347139  5.0565178531818749  7.3902251770784657   T   T   T
 17.5839999696611997  7.2161039592852347  0.4904192536935076   T   T   T
 16.7294460272827905  2.0161257052253658  8.9320707765465279   T   T   T
 12.8198603028163021  2.7893321910215696  4.7969333065247994   T   T   T
 15.1782881173914781  6.9930597062301301  8.3132684860617676   T   T   T
 18.7884069749368692  2.8366659711741282  5.0261298766531963   T   T   T
 13.9894321281754301  9.8217963465075826  6.7115992122720023   T   T   T
 14.4130230658169474  4.4790410655460846  1.8464392542911714   T   T   T
 15.2219784929259898  1.1715783151223123  2.9303257325686221   T   T   T
 12.8856805887806072  6.9987666517462248  5.2623757000196392   T   T   T
 17.9527683428508844  4.7185676619859738  7.8613903795685260   T   T   T
 16.3280465376636208  8.6351041666926776  3.4123110445290883   T   T   T
  9.9320077672236184  3.2956416593041720 13.2333427088626987   T   T   T
 12.9547896890823946 11.3960638113904640 14.1551117795687169   T   T   T
 20.2408534009791019  8.0734123441755763 11.7986145253939778   T   T   T
 15.6047821072494148  2.0688177625753754 17.6994781998338659   T   T   T
 15.1913155899730867  7.7136955634601572 18.2757741963981957   T   T   T
 12.0391391170550204  0.4175760792981728 12.1646841391205651   T   T   T
 17.4645065084849129  0.4863254204314789 16.4907550575407953   T   T   T
 15.7420024781997867  7.5560294087359052 12.0289097464256134   T   T   T
 17.5997873375796914  2.9536192332962514 21.1023120276332534   T   T   T
 18.5028568600863217  6.7648488655952619 14.7315730091564348   T   T   T
 13.7707924265023873  3.0347864391547481 10.5090391678639090   T   T   T
 16.3230985049605124  8.5503725437320739 14.8516440614138823   T   T   T
 17.5109448921499435  4.8845650398174403 12.2406329118575297   T   T   T
 12.9436758891759691  5.8288146837565691 17.2512597444799596   T   T   T
 15.1180719283809513  1.5033318324636897 13.3429856166799023   T   T   T
 13.1991385938520462  7.0987618410036673 20.2589607192480479   T   T   T
 17.6790993052148089  4.5862090297705027 18.4009427811169637   T   T   T
 17.9834563950045556 10.1121188438887124 12.7089067209216093   T   T   T
 11.1605584822847206  8.1448719672880330 19.3784233300791904   T   T   T
 12.3290474640512624  5.0249166713603506 13.2563350626572749   T   T   T
 12.2101013811227705  3.0752400453533291 15.2576714363970289   T   T   T
 16.6782367406933538  5.3591104394890134 23.4877359427281007   T   T   T
 19.1312670858682132  2.7003779284606488 16.0208491315851056   T   T   T
 13.6921301665806272 10.2707971431235805 17.2511031562769404   T   T   T
 13.0261245980262590 10.2781182840300218  2.8299720066022789   T   T   T
  9.7512639328231234 22.4182522274145555  8.4706952215009554   T   T   T
 18.9627463429426264 15.4628696999085982  2.3236937701226674   T   T   T
 15.6978230639708531 12.2860390137979465  6.9474092047291096   T   T   T
 15.0127694103181319 18.0991639553213233  7.5754905671846959   T   T   T
 13.1304564967898596 12.9225966939802515  0.2967583930490085   T   T   T
 18.6889357436551400 13.0735903660499115  5.7123397929016724   T   T   T
 19.6337999398581253 18.7206286692565556  3.8947086291813191   T   T   T
 19.7735554871342956 14.3436314018784614  7.7597256517994397   T   T   T
 16.0953042176384713 17.3045707219707197  0.5409293342631912   T   T   T
 12.3138496029817688 15.1741053035490800  2.7771115184192561   T   T   T
 10.3066450739399524 18.4463613417288173  7.9301887212478608   T   T   T
 18.1159629110636651 19.1265761643550292  0.8499989356533870   T   T   T
 18.2729980531544705 10.3279876904470207  6.9567514047225245   T   T   T
 12.4922783923127891 13.5629980061129096  5.0859014836254639   T   T   T
 12.5876226295990268 18.3280007492414967 10.0979487264023113   T   T   T
 16.7841154708189713 15.0013523706937733  7.9213193897196001   T   T   T
 16.1031196663837726 19.2333772817142119  3.0305970564371476   T   T   T
 13.0865109997602485 17.5286099758266332  5.3680798911962420   T   T   T
 15.2986507421090288 13.0147737425748851  2.7535062660073972   T   T   T
 10.6757311468270633 12.5621808045756680  2.4715903928560841   T   T   T
 13.1637565440711271 15.7423261431831296  8.1291903061245758   T   T   T
 18.8604263595201402 11.7603777950195223 10.0947835711560518   T   T   T
 21.9535657625466918 21.3650730978303827  2.7087699270668155   T   T   T
 13.7592703493901851 15.2257116810057394 11.7581078765303051   T   T   T
 12.8052885967300689 18.7060629305625383 15.8871985857923317   T   T   T
 18.9177657676308328 20.1842701747751008 12.6061371032485248   T   T   T
 20.0755372683177491 13.0339337282888632 18.7206177071358546   T   T   T
 11.9471918303617901 18.6061157142355569 20.1217846832163758   T   T   T
 12.5467049680792293 15.2168690755117133 14.3137309964172950   T   T   T
 17.5202089916071309 15.2588490809590578 18.9161921097242178   T   T   T
 23.3236373173855149 14.7394432305358034 12.1350354324468181   T   T   T
 17.9118202819551833 10.5326951615047886 18.1869700117550650   T   T   T
 15.6677127944904253 17.6062533810738060 12.2571150151426345   T   T   T
 10.3543888658201038 13.3713038165043372 13.1885038291316370   T   T   T
 11.8139856164516246 20.4309172415511995 18.4169145808848889   T   T   T
 17.4058186812885864 18.3344387703133620 15.0066438661966259   T   T   T
 17.0089729142889965 12.8315107848678505 20.0524691095397465   T   T   T
 17.6188042561664986  7.1808504581563408 10.5182737229335803   T   T   T
 11.1257751950497319 16.2921971567287969 17.5558856731452515   T   T   T
 18.6614329373710888 14.7463211520342004 16.2830341595195556   T   T   T
 18.5733628057406293 15.9965434585113790 13.3980582067146567   T   T   T
 15.0955311090003068 18.8252314218884109 17.5331480970517113   T   T   T
 12.8142281224449501 12.1599918479281381 10.6275665007440505   T   T   T
 15.2169913164857071 12.9598319666218469 13.5321910315023448   T   T   T
 13.7859890118749355 16.2417042589507048 18.4509273802664175   T   T   T
 15.6406964804708206 12.7285579212641728 17.0049463266853245   T   T   T
 18.0420958095342314 17.0501630855916488 10.8487751066338234   T   T   T
  0.4801903082171550  0.0081827244626882  5.2288230368245117   T   T   T
  5.0896597154658760  0.4040805211155660  0.1181397735935296   T   T   T
  0.0951622641081817  4.9053452734551124  0.2012770809506961   T   T   T
  5.3011531859011942  5.1440832300934130  4.8199666632804901   T   T   T
 -0.0357809176779455  0.0680568858422142 15.6244972765047745   T   T   T
  5.1291500139664379  0.1672410424482062 10.1818724376079928   T   T   T
 -0.0262089559643264  4.8728375930428260 10.3520996566824852   T   T   T
  5.1131632776538893  5.0197767126202795 15.3732545640081373   T   T   T
  0.0846446486642025  9.9813235839797159  5.2369494362145970   T   T   T
  4.9826848763301363 10.3309902640107172  0.1943192873650887   T   T   T
  0.0943944305056510 15.4308945529678443 -0.1608532618938353   T   T   T
  5.2747430045922838 15.3468077717479812  5.3713005807364658   T   T   T
 -0.1269508190202986 10.1242502024354142 15.3884753360493978   T   T   T
  4.9409517637274831 10.2752703569746444 10.3911113307297125   T   T   T
 -0.2200964234760817 15.1729850357506599 10.4724388009335900   T   T   T
  4.8881043083577316 15.2689711482278945 15.7233597661257516   T   T   T
 10.0520428546660536 -0.1742041903399741  5.4484735903424628   T   T   T
 15.2069542460454521 -0.0966402331651242 -0.1062820369151716   T   T   T
 10.3985549311319918  5.1021762060592994 -0.0485060244454968   T   T   T
 15.3590191428648701  4.9072873377499588  5.2378329257918814   T   T   T
  9.8983100780280839 -0.0082528973671249 15.1773079299323896   T   T   T
 15.3990896982195071 -0.1559294346044525 10.0977301608625361   T   T   T
 10.1459713743810962  5.2519015626366006 10.4809003507374054   T   T   T
 15.3021331698944572  5.0858055240639128 15.2955106485187624   T   T   T
 10.3812618434275787 10.3663522962782331  5.2069615004447574   T   T   T
 15.6054538185491207 10.2083787590401567 -0.0483365710583665   T   T   T
 10.1634161892410173 15.7025712763300920 -0.2624794439056587   T   T   T
 15.6796999728741380 15.5347393507689322  4.9994989075873724   T   T   T
 10.3797581658316140 10.6419801346747747 15.8205945701147748   T   T   T
 15.7141834391926043 10.2280488745808036 10.2102896243693753   T   T   T
 10.2127637815025913 15.3692765330677901 10.3072553823655024   T   T   T
 15.4123570633714539 15.7564374635835005 15.3211820321544998   T   T   T
  1.3693687135051846  1.0407260536536624  6.6306755801437012   T   T   T
  1.3037924387454942  9.0561217095357058  3.7488234266606555   T   T   T
  9.1182849724116899  9.3402969084393170  6.5616786623009853   T   T   T
  9.1783125251937765  1.3371024276037129  4.1441080741912071   T   T   T
  6.4285551592570673  1.6892178561970506  1.0281347694461109   T   T   T
  3.9756662645484058  1.1649112195799145  8.8183705537342387   T   T   T
  5.8564584195419505  8.9553526644880996  9.0627680273917655   T   T   T
  3.8098239368466218  9.0457073975250513  1.3235687169262960   T   T   T
  1.2077003590007651  6.1444559877464817  1.2589041615881700   T   T   T
  9.5224185086484496  3.7500470886827935  1.1510741900653541   T   T   T
  8.8887779348200535  6.2806949774041012  9.1583090392447932   T   T   T
  1.1578318421956102  3.8136903795736607  9.1690289713400173   T   T   T
  6.3549418510418052  6.2954006148352430  6.3415975216297449   T   T   T
  6.6990338086738941  4.0846411134967076  3.7225074355932879   T   T   T
  3.9537654907494244  4.0134734226481381  5.9220382227507420   T   T   T
  4.1627956621615807  6.5804752365136023  3.7813192206709800   T   T   T
  2.9364323887226735  2.5492488292841431  2.8058683909210282   T   T   T
  2.7905256565140690  7.8113521717077852  7.6733274077394746   T   T   T
  7.7754046630270661  7.9002164290940859  2.5838045144027433   T   T   T
  7.5160191975337005  2.5172254992425831  7.8154949025883260   T   T   T
  1.0658539401844673  1.3114177468533503 16.7231457502219705   T   T   T
  1.2696975566682929  9.0633529685614871 14.3978342488364692   T   T   T
  9.2118323788260668  9.7336862536604158 17.0900625504548316   T   T   T
  8.6882447986986158  1.1394607614071692 13.8856123865160495   T   T   T
  6.2504140484573059  1.2937553883630366 11.5054842318152613   T   T   T
  4.1093078228941629  1.5539294571636826 19.2102899746713902   T   T   T
  6.1758874089415006  8.8442798744412769 19.4597183409269938   T   T   T
  3.8224509641563369  9.2318802983786341 11.5932100177404251   T   T   T
  1.1162539883859053  5.8948120551732091 11.6313361669871274   T   T   T
  8.7303509931013838  4.1849011300324817 11.5052830984911747   T   T   T
  9.1946868874244281  6.6665505870299784 19.6343095330613657   T   T   T
  1.4487954578866564  3.6652435255594931 19.8032337476005722   T   T   T
  6.0008427818077594  6.4163635437920785 16.7051599945706677   T   T   T
  6.3986414660077955  4.0145681477244484 14.1337286420414809   T   T   T
  4.0447662772846718  3.5686234126127658 16.4258820864377704   T   T   T
  3.8247598027798810  5.9864165260544464 14.0905094620263576   T   T   T
  2.6694782734527029  2.5003794589400314 12.8962365532453642   T   T   T
  2.1588541649204984  7.6302621863937592 17.7113906792307887   T   T   T
  7.6839569083056469  7.7413813231080102 13.0966043337925289   T   T   T
  7.8150084669551978  3.0483779258386292 18.0350012669382380   T   T   T
  1.0883618616516846 11.5028953945580383  6.0464088505917220   T   T   T
  1.5400965475071826 19.3555961127293941  4.0208622277828239   T   T   T
  8.7223555955294838 19.2802497378872388  6.6666391406671401   T   T   T
  9.1964899993159630 11.4036568809467660  3.7965985431996057   T   T   T
  6.2986995358727658 11.3570830799510336  1.3038051814530827   T   T   T
  3.9071786856433524 11.6595198367480837  9.2596883814924009   T   T   T
  6.2945543202787544 19.5078401054801134  9.2294096938681509   T   T   T
  3.8560191469212710 20.0872927950971487  1.2860275507583561   T   T   T
  0.8104857202052209 16.3877902431000066  1.3815546800420240   T   T   T
  9.3118640459645867 14.3802464633817983  0.9942672389253951   T   T   T
  9.2022157179643074 16.7412715947581603  9.0229571214175373   T   T   T
  0.7888335047496440 13.8345515068359468  9.2518329040660952   T   T   T
  6.3908727534201653 16.6539241289662385  6.6489390650577684   T   T   T
  6.4752067916776852 14.2091900060465264  4.2894306858734295   T   T   T
  4.0227226377138630 14.2875255347884274  6.4392970957735969   T   T   T
  4.2639857605783673 16.4861453296033673  4.0684570126859008   T   T   T
  2.6337404402845364 12.6594924146342400  2.4641347057310661   T   T   T
  2.5636735983975711 17.7101850516045829  7.6777468487075176   T   T   T
  7.7562920984599115 18.1656569483347354  2.4154691146970486   T   T   T
  7.9304722388944535 12.5258536893329033  7.5602766704364557   T   T   T
  0.6599178637925445 11.3365348270431010 16.8622812719813737   T   T   T
  1.2456215367344905 19.4211630495774656 14.5649076953870651   T   T   T
  8.8656916905191281 19.3501376447339837 16.4871303929458399   T   T   T
  9.1826802721677794 11.8712314585434573 14.5460747106186208   T   T   T
  6.4860040691800203 11.2173937759384970 11.2429480173349585   T   T   T
  3.9267609760252729 11.4451035253746483 19.4435603317262391   T   T   T
  6.2434216842467380 19.6009930501307750 19.6357957164456494   T   T   T
  3.8365909068320190 19.6315275216335934 11.2839610001491089   T   T   T
  1.0679638427826192 16.4582061856327400 11.5963068528125035   T   T   T
  8.8544770089401581 14.1585391333207244 11.4489105642567690   T   T   T
  9.2323200314198584 16.9865838109118528 19.1838272218692190   T   T   T
  1.4454976573863361 14.0912945347403120 19.3514236970047158   T   T   T
  6.1551638160023776 16.4591456964077452 16.6777200871866995   T   T   T
  6.2783559811616012 14.1782791030404454 14.3692668164310895   T   T   T
  4.2970886571772446 13.8983701837237685 17.0129791618982722   T   T   T
  3.6415286215937277 16.3613509644150241 14.4211145595468633   T   T   T
  2.5821953891194114 12.7694134774570607 12.9986706161019399   T   T   T
  2.4319270979582410 17.7967169793997542 18.1683916217140542   T   T   T
  7.5253143263087301 17.9027731575395563 12.5092632128437220   T   T   T
  7.7348136357800223 12.9499474398173735 18.0604313234544804   T   T   T
 11.1078651822117749  0.9061555607552600  6.8683622205668575   T   T   T
 11.5560926204093786  8.9677711524878134  4.2604358935077711   T   T   T
 19.8372740929502953  8.5986801342868961  6.4587901794884104   T   T   T
 19.9216764608483530  1.2345146454326161  4.0171811047994934   T   T   T
 16.5681349288422908  0.9166589357329529  0.9805912546324301   T   T   T
 14.6786046957068805  1.1146611336575385  8.6408536324626208   T   T   T
 16.8609709562497763  9.1019759843031380  8.7416144024496951   T   T   T
 14.3677424699356617  8.9071399279133754  1.1825664351403549   T   T   T
 11.7310360055046452  6.0645220548622412  1.1906903945451126   T   T   T
 19.5037723543928365  3.7330030096835527  1.5086382231907003   T   T   T
 19.5480192794994636  6.2864283853217424  9.1370679190672739   T   T   T
 11.2399395956500534  3.8720550729477363  9.4488336691997095   T   T   T
 16.6751510095164655  5.9906327606979151  6.3038691307212753   T   T   T
 16.1531633060872863  3.3942034725446937  4.0189899343221640   T   T   T
 14.1942627718235368  3.8442955722481424  6.5374658398109560   T   T   T
 14.5033058184535903  6.3193781498856048  3.7938044434665206   T   T   T
 13.1966732919804564  2.3425420215956234  2.5141758419567317   T   T   T
 12.7703019511173821  7.5319462668323807  7.6560029551222479   T   T   T
 18.1115682726358287  7.6251612283911543  2.5967759580971976   T   T   T
 18.1424097724615869  2.3915367818290734  7.0975433604853588   T   T   T
 11.0770188039591186  1.3279072829769900 16.3832420922814492   T   T   T
 11.4993476798982890  9.2451312665055116 14.7391205082758301   T   T   T
 19.1338240185927901  8.9158610606316948 16.1820669859352542   T   T   T
 19.2851533747986998  1.0660314015140488 14.2119032338131532   T   T   T
 16.4909215185174354  1.2709417050387413 11.1406354520148909   T   T   T
 13.9977482701306180  1.0292802434295265 19.0966891973923651   T   T   T
 16.6913659568941277  8.8373284840115449 19.2431525525608222   T   T   T
 14.3433886577821461  9.1859296703849544 11.4434709902412859   T   T   T
 11.2378644763807358  6.4930390293126452 11.7279332942497660   T   T   T
 19.1504557253903371  3.6020928453971890 11.2500528216512770   T   T   T
 19.2110670325731725  5.9847629750145304 19.3431429168359799   T   T   T
 11.5297378050937205  4.0230414019916951 19.0574767218574905   T   T   T
 16.5405739047916001  6.2321749757652771 16.4278646390847918   T   T   T
 16.5215365758395265  3.8838956616503664 14.3078242328682812   T   T   T
 13.9586942388219875  3.9214454179378158 16.4440087985558847   T   T   T
 14.2468975871835823  6.3976677395111867 14.0998478757380337   T   T   T
 13.0433908586405405  2.8353690916413923 13.1055138414707617   T   T   T
 13.1262819053636228  8.0036091199547226 18.2703249698771444   T   T   T
 17.8709736764130334  7.8291645519288444 12.7509026885603447   T   T   T
 17.9336258130431858  2.3234203759103775 17.9899820135724013   T   T   T
 11.4058344082119341 11.7804690419297380  6.3012031703360369   T   T   T
 11.2117200313601266 19.1089588329036815  4.2677163007198535   T   T   T
 19.6730489866229483 19.4568811888739219  6.3689158450857235   T   T   T
 19.2287786157003602 11.0866213228684209  4.1943214080410627   T   T   T
 16.9140977082415844 11.3037585798113298  1.3211609374201678   T   T   T
 14.4634809175756658 11.2505095535429760  8.9969382881478754   T   T   T
 16.7352588231712645 19.3186921670621743  8.9598176452400242   T   T   T
 13.9846376606961940 19.4548866982318316  1.2263296974451905   T   T   T
 11.0919174525779045 16.9189891420245431  1.1485882134629479   T   T   T
 19.0528871792936876 14.3401227104586848  0.4087178992778106   T   T   T
 19.2405500450184839 16.3201505129069346  9.0895935594788462   T   T   T
 11.5196996178085200 14.3320832600815304  9.1215440518691686   T   T   T
 16.5073330844250528 16.9082082140582131  6.3268524520303941   T   T   T
 17.1289162980385150 14.1581177058416579  4.1291531065566671   T   T   T
 14.3159402284144353 14.4328363079723694  6.2528210047528177   T   T   T
 14.4630744826174933 16.4389440204571500  3.5700447386264216   T   T   T
 12.9761080076170003 12.9414949250858164  2.5564198740242494   T   T   T
 12.6614338234243711 18.0064698780307921  7.6793546632472829   T   T   T
 17.6587446570921962 17.8337015561723859  2.4161940064424234   T   T   T
 17.9974372758893004 12.7001736478382501  7.7832379897360902   T   T   T
 11.8812257227222329 11.9633929912227366 16.6372630666823476   T   T   T
 11.1093275858028342 19.4343085522122507 13.9932540166955004   T   T   T
 19.3563055882230728 19.5890770193546757 16.8965204868056702   T   T   T
 19.3111303258965812 11.5795114611359260 14.4704406662157972   T   T   T
 16.7192771159922913 11.3787007207488440 11.4590413582909498   T   T   T
 14.5705419539227687 11.6850409552224583 19.3818093883247293   T   T   T
 16.3331408625321508 19.1240922069446881 19.2731642472098379   T   T   T
 13.9295598341912648 19.4131301575133435 11.5031647647669057   T   T   T
 11.4053124199283342 16.3477618562437428 11.6709430270971666   T   T   T
 19.0969563661088948 14.0155954751588219 11.6164641847882937   T   T   T
 19.6684411774420234 16.6918397907699685 19.0579191753490420   T   T   T
 11.5852615810380772 14.5663211167498030 19.1528969444926140   T   T   T
 16.5768677197212568 17.0640571542721702 16.7291800166051203   T   T   T
 16.7004054046805237 14.4346550276203534 14.4638494825816011   T   T   T
 14.0619947947827182 14.8585133620221672 16.5390301120467704   T   T   T
 14.1109658766058033 16.9460902199501504 14.1528331211113745   T   T   T
 12.8349814992022413 13.4279490562747252 12.8464476600211501   T   T   T
 12.7085867170574254 18.3501425951633266 18.1047424372833241   T   T   T
 17.7745683830821868 18.0938956716862549 12.7639803780408752   T   T   T
 17.8733985066949259 13.1319472368581778 17.7334275668407741   T   T   T
  0.6336714088046737 -0.0673532230712283  0.1132802685223183   T   T   T
  5.6656030421684473  5.3007504104283081 -0.2647007757028913   T   T   T
  5.7580372446176247 -0.1838120880970699  4.8970019225322021   T   T   T
 -0.0987961553322358  5.0382169814647400  5.0473806482860084   T   T   T
  0.2344933512654908  0.3106515904939749 10.8562245773931849   T   T   T
  5.1114075432157211  4.9672532120311947  9.7042871248345044   T   T   T
  5.5384903389215747 -0.4665669851808533 14.8832599064698385   T   T   T
 -0.0901772641790390  4.5563990619948083 15.3160454908808301   T   T   T
  0.3104899738026599  9.7084045312725280 -0.0304811484159966   T   T   T
  4.6218803062469256 15.6112207387435138  0.2558331444163439   T   T   T
  4.9059286761693732 10.5745304067296786  4.8994292435280435   T   T   T
 -0.1421209367428756 14.7130831088518228  5.3636182370367065   T   T   T
  0.3571171628446903  9.5292787750939816 10.4767411984089858   T   T   T
  5.4424761119096470 15.6482476434846696 10.7150388573473965   T   T   T
  5.7162482086725630 10.4626367852083177 15.2009299266984002   T   T   T
  0.0332807731755531 15.2379324481144778 15.3693481904224534   T   T   T
 10.2572110982834470 -0.3624180234320876  0.0893979200068086   T   T   T
 16.0818167296868779  4.6957157284466780  0.1899940846401311   T   T   T
 15.6635607668360350  0.2508605235904490  4.8411905302047673   T   T   T
 10.5264918180265177  4.8500635020516620  5.2296165075102232   T   T   T
 10.0679302097047074  0.1475390035771001 10.4413243705034162   T   T   T
 16.0277526061384066  5.5972560466438912 10.4653683688282051   T   T   T
 15.3367373919619681 -0.0568438122320038 15.2046048673717955   T   T   T