Li P  S  Cl
 1.0000000000000000
    20.5609999999999999    0.0000000000000000    0.0000000000000013
     0.0000000000000033   20.5609999999999999    0.0000000000000013
     0.0000000000000000    0.0000000000000000   20.5609999999999999
 Li  P   S   Cl 
 190  32 160  32
Selective dynamics
Cartesian
  2.7442230321515599  1.7142280450944514  4.7365635487984097   T   T   T
  2.5972904099048515  5.2502302801845566  7.8070298751125531   T   T   T
  3.1582369871402465  3.7696413987034214  0.7601940800356859   T   T   T
  9.8809826574242283 -2.3106087254733154 12.7576198131045455   T   T   T
  2.7448311391192597  7.0601117557180935 10.4246458876954922   T   T   T
  5.0999126574643201  2.1219682206707606  3.1464458700162496   T   T   T
  9.6136003011621085  3.5018665489906557  8.0588733092435660   T   T   T
  8.2664933495197825  5.5995752803795540  3.0285403391284396   T   T   T
  7.5316083423352937  2.5970683029497668  5.4138020843241721   T   T   T
 10.1403092401502093  8.2297217797971758  2.1780378321902738   T   T   T
 -4.2134734815852957  2.3114191624795093  5.5920211213553959   T   T   T
  2.8686903410944637  8.6730793112046225  6.0411785191065377   T   T   T
  8.9477614636164819  7.0753534510719609  5.1639452029559632   T   T   T
 13.0199404099720741  1.4716307983748229  4.7368817556466460   T   T   T
  2.0068222580476167  0.5688520973997223  1.7666276159935712   T   T   T
  2.2920159920270056  9.6993206135091388  9.6287968610794064   T   T   T
  5.2418775988572834  2.1374117857889314  7.7921066567218835   T   T   T
  6.6937960076863385  9.9061069987835282  3.6884142238804509   T   T   T
  0.2618335160839022  7.6931338638079101  7.9708349187723142   T   T   T
  7.3038288950861290  7.0693756280294986  0.7452540694079071   T   T   T
  1.9543665731501150  4.9579908664067753  3.5849143811865858   T   T   T
  5.0672916280059672  7.3321771592767284  8.4955759402950353   T   T   T
  6.4923130929447046  4.4276610879243048  8.2037358212520299   T   T   T
 10.6671426481722786  8.0360169568468862 -2.1047843962091490   T   T   T
  3.6300280109903436  1.6060304070780937 15.7467617046585211   T   T   T
  2.4807043869237910 10.1180334141545689 18.3282642645053926   T   T   T
  8.9746052033928478  8.1734267027505307 10.4176699168652114   T   T   T
  7.1825687956620996  2.6588643094937439 20.2509396359538982   T   T   T
  2.4034795724469591  7.7892626964716412 15.5994989525338585   T   T   T
  1.7781694309137932  4.2879432616528446 14.0744413489137425   T   T   T
  9.8260993662083198  1.2368537131850950 18.4790397648327058   T   T   T
  7.2970528666139529  5.6420105163004379 11.8000385303640591   T   T   T
  9.6481243145468376  4.3163312009293708 17.5072065418115983   T   T   T
 10.0421714910748818  6.2194965428614015 13.6234836788600759   T   T   T
  4.8031732234188969  2.5300553776328294 12.7454752327692002   T   T   T
  0.9374540349135234  7.8804717419380541 18.8504781169546760   T   T   T
  8.2496156082575247  0.4115138082977934  8.2668292038581779   T   T   T
  7.5524014475142858  2.6518507572668932 15.5258543754417584   T   T   T
  2.4428858079309941  0.6418427478777126 11.5821155682655021   T   T   T
  4.3498029313015456  7.8008353428829684 19.9598440445082232   T   T   T
  6.6593224587426461 -0.0369256495611146 17.6256227033248223   T   T   T
  5.7897922964533297  8.2524803112028664 12.5337322140476779   T   T   T
  5.4579590397136704  8.5448918286958335 17.4048930472461052   T   T   T
  2.9094971873495483  3.4960785481206464 10.1094514566702696   T   T   T
  0.0449980248600768  2.2208938288243192 12.7572562665983220   T   T   T
  3.2814143410625891  5.4115674530761710 18.3642279659025434   T   T   T
  7.3294562364614224  4.7958739743415313 18.0390294087058649   T   T   T
  8.2276898708512789  7.5146204852973186 15.0837291131169771   T   T   T
  3.1749181823504871 12.8181261230121031  5.1205303676153795   T   T   T
  1.6222664914239304 18.5071506292022399  9.6273083162915061   T   T   T
 10.1464769354110018 18.5669857460285606  1.9817082954396747   T   T   T
  7.5342439199010158 12.4601843823886522  5.4544932702138649   T   T   T
  3.1206435137857631 15.9175484719932587  7.9584788304211642   T   T   T
  2.2834479191680557 15.0547902184838289  2.8714376089724878   T   T   T
  5.4182564292570845 14.0276239991661740  8.6108321120063138   T   T   T
  6.7922917997483516 19.7312731446516096  3.5600220152866755   T   T   T
  7.7121457411244583 12.6049624968199208 10.2071107006545070   T   T   T
  8.1883414279390472 15.4722458847241651  2.7207391562144707   T   T   T
  5.1662341680302335 13.0923829408951029  2.0765809054546747   T   T   T
  2.5923821516896450 20.3262686668252890  7.5302145190134500   T   T   T
  8.6137516572627533 17.1589847969726890  4.9861633108143923   T   T   T
  9.4078126712596095 11.2264989599481648  8.0315853839528426   T   T   T
  2.9659007163767455 13.1267976816719720  0.2428391095999746   T   T   T
  4.8101857885582966 18.3418669915707397  7.1100125229249365   T   T   T
  8.4218068773048778 15.2006391215633698  7.8018319257352422   T   T   T
  7.9807821386645710 19.7438984924955108  0.8327992899023489   T   T   T
  0.0430388726899805 17.3007403557446402  6.5169074126070949   T   T   T
  0.3426718742249293 12.6544005149571603  2.6616434459434930   T   T   T
  2.5758279853993415 10.7287525005731492  2.4414165999430990   T   T   T
  2.5467435967873122 17.7909939707803595  5.2237427395697527   T   T   T
  6.0158956858719570 11.1579971964410198  7.7350209150732425   T   T   T
  5.3802016446268137 16.9611891668220771  1.7805611862442621   T   T   T
  0.0936549012077570 12.8334323104756685 11.2208128585203823   T   T   T
  0.1403915035783101 18.5046603785058288 18.1874436710092837   T   T   T
  7.5977288757436821 15.8163864157108680 13.6046332720945191   T   T   T
  6.3993725787291424 12.8849647008756403 19.9902548300094551   T   T   T
  2.8164351107461849 17.7509320056484761 20.1643496850352335   T   T   T
  4.5064629813578989 12.9411056977584913 12.5820550883660474   T   T   T
  5.5376966510475842 12.3022719397189455 16.7955055335497008   T   T   T
  7.1587487965236720 17.6169860379052601 10.6223458395112704   T   T   T
  9.5218507571630120 13.1604367921159167 17.1975026992905740   T   T   T
  5.1503295766563086 17.6267104761985998 12.9887470666673739   T   T   T
  2.5815493513450596 15.0466180521151962 12.6812459846384762   T   T   T
  2.3397540995681552 20.4192948602554871 18.5372014900382425   T   T   T
  7.2131435539289406 20.5454079725428578 13.1435097928373974   T   T   T
  7.4131813661364543 15.2111945159547446 18.0307179287480324   T   T   T
  1.7056132330943283 10.6294773843517962 12.0533514444095413   T   T   T
  4.8425327668228064 18.6801071331946957 17.7148827330246306   T   T   T
  7.6081031563271431 11.3814310430876393 16.4190350774739926   T   T   T
  2.1539997977097731 15.8203935671234710 18.1230466496272342   T   T   T
  2.8777920682652156 13.6528380476953597 10.2556526581732950   T   T   T
  1.0552028900112533 13.0015072524098052 15.0048750912521420   T   T   T
  2.5748648160882839 18.6519466335841493 15.6605166126167941   T   T   T
  8.4530773107276218 10.7418629379141475 19.5920324642560288   T   T   T
  7.0976411917308324 18.5398737586106890 15.4503201250305313   T   T   T
 10.4288521103050229  2.5828437578213648  3.1246134397280723   T   T   T
 13.3600628392347058  5.1711394414595819  8.0424020339962983   T   T   T
 18.5308232049427488  9.0482838565086681  0.4261076776785531   T   T   T
 20.9722367455335927  2.7524061393955401  3.6034790958119407   T   T   T
 12.3973596560057899  9.8933822542677223  8.5091763399671851   T   T   T
 12.4585369183072938  2.0867555751156006  0.3991724693695931   T   T   T
 18.7755052728462246  1.9848599833267306  9.7272944876745786   T   T   T
 20.7444564295297198  7.9494842925556775  2.4368596682604422   T   T   T
 17.5077550917891855  0.1295709923355745  7.0800348680118947   T   T   T
 18.3053577454485534  5.8335209737823481  3.6356923061508248   T   T   T
 12.6035411117788723  0.0686514109531166  2.1639314345839176   T   T   T
 13.8712150859569565  8.6385052508691782  5.9139517310579075   T   T   T
 17.8558943288978540  5.8229373419965116  0.7745237706206027   T   T   T
 19.5793211900908091  3.0434347309804810  6.1932165271843163   T   T   T
 12.4371242367121155  4.6726154432480795  4.4787550732046855   T   T   T
 13.8050347590099047  7.3268319573042113  9.7804782837461346   T   T   T
 15.5926411341334035  2.9291997553053521  8.8421529845749927   T   T   T
 17.9742532362011858  9.5126881789956919  3.9725933604194004   T   T   T
  5.5211058938645898  6.9785387895142739  2.7395448485217684   T   T   T
 15.0587899627611836  3.0855778869799657  2.2527544329725715   T   T   T
 10.4703543794558467  7.2361078100022702  8.2510227240987835   T   T   T
 17.5320510245554857  5.0433898080238828  7.8433154270298653   T   T   T
 15.8427218930890206  7.6191357966112658  2.0068471803055159   T   T   T
 13.3607515532192860  0.0631911138441350 12.8136128272383569   T   T   T
 13.4028726879575490  5.5836779303063624 19.9673853233737901   T   T   T
 20.7846426506089514  7.2145061399747252 12.9427117848085409   T   T   T
 18.5449083084321842  2.4564069115444838 20.6228685111335750   T   T   T
 12.5042553998329566  9.7343214343421050 19.1146746868655697   T   T   T
 14.9126294675178244  2.3834559177441781 11.6409735397883498   T   T   T
 18.5523650166404792  5.0232420504059512 18.2459254983803305   T   T   T
 17.7054375864536055  5.2331420595553446 12.8680572847384322   T   T   T
 18.7546981317010548  0.1637399931406474 18.6422064434987931   T   T   T
 17.8859191868341796  9.7321438530424871 14.2276632030044272   T   T   T
 11.2196184832049166  1.8528514745300220 11.0483535157550286   T   T   T
 13.7155002560270969  8.1147300925932555 16.1868022619901453   T   T   T
 15.8135815025148148  7.9891317867636573 13.1750083061536909   T   T   T
 20.3003775588020190  3.2570351358405163 16.8717170272855057   T   T   T
 11.0901711089442863  2.1294762789382666 14.3799525878863346   T   T   T
 12.7339258816662149  5.8455465439446943 16.7146041186939840   T   T   T
 16.1284022945340269  2.7596995325622729 18.9549504876385129   T   T   T
 18.5817605318344690  9.0314904707017085 11.2350236159808894   T   T   T
  9.7630409528976667  9.5180592954827574 13.0423956013470530   T   T   T
 14.1657521206364159  2.2626016441899153 14.5475947122806311   T   T   T
 13.2070508350252140  4.9834219782066240 12.1876374519527708   T   T   T
 15.3636088426779569  7.1159486884888006 18.4426567259021112   T   T   T
 17.6013025674312189  2.9015887013409545 15.9208084603507221   T   T   T
 19.1278875330641256  6.9587787924937965 15.3351459376870309   T   T   T
 12.8562158476179800 15.4560135354223416  1.9751073157678671   T   T   T
 12.0622484032873878 17.1273286336252184  5.3101834490873960   T   T   T
 15.7107002185157025 17.5079401304189552  1.6594597415147194   T   T   T
 17.6846372670885117 12.3745610755103588  5.3666620115802957   T   T   T
 12.6464071776675127 17.9137345620468338 10.2112119188073969   T   T   T
 13.2857098422974271 12.3535613310273806  4.9865802245153104   T   T   T
 17.4727821682509230 15.1712274302382450  7.5482083963806561   T   T   T
 18.0588223017803742 20.3299104563760231  2.2125814619230750   T   T   T
 19.8788676413532741 12.4710519875341852  7.9725219844482407   T   T   T
 17.6145304257283684 18.2934303696207685  4.4168438361713003   T   T   T
 12.3968139729732183 12.4746905844715510  0.0555703338503422   T   T   T
 10.2286814808533979 18.0254082084960494  7.7156403707957706   T   T   T
 18.0801081149711038 15.7685748528490493  2.5374263828948149   T   T   T
 15.2022166848175591 13.3229937014993567  8.2311358548910807   T   T   T
 15.4490994799664136 13.5010263851984025  2.0345443400332894   T   T   T
 11.9605633576573887 20.4897527799915089  8.2610027237005763   T   T   T
 17.0952294981418049 13.4133559080538216 10.2018093913648276   T   T   T
 18.9519251610416006 18.3310911378293468  0.1632465470678439   T   T   T
 11.7071858000511053 15.8295318268447875  7.4834047348689028   T   T   T
 12.8042764387859354 10.8302471389267918  2.3661170703135963   T   T   T
 10.3845983107414028 12.5401558231292540  2.0250437073873191   T   T   T
 14.7134779299205931 18.8340321259521026  7.0819805876908593   T   T   T
 16.2003328486973786 10.9074385417340789  7.8425265080424680   T   T   T
 20.4216720667569547 17.6454666554037232  3.0669066855065159   T   T   T
 12.5842083054176701 12.5777264318068767 15.4616468926369350   T   T   T
 14.8483630709948784 18.1858151081148911 17.5133218705263047   T   T   T
 16.7628475198841258 19.5775132388389927 13.7518278382314350   T   T   T
 18.2838220718762088 14.9759147123158254 17.4544709084108973   T   T   T
 13.5720475819633712 16.3902727076885277 19.2801216532188988   T   T   T
 13.0492052668891620 13.4048093316607186 10.9456496670429537   T   T   T
 16.0239253555555479 13.3280766843225891 19.3413099879608410   T   T   T
 16.4190393803959296 16.2280516608968384 12.4116669211674875   T   T   T
 18.5074559605657143 13.2047221725414037 15.2891221263082482   T   T   T
 18.3879400631014249 18.7299820704789148 10.5969701061609811   T   T   T
 13.5948805469524547 10.4109910544843220 13.4492030160196006   T   T   T
 13.2711854481952951 18.3358867054593304 15.2955808091080012   T   T   T
 20.4279950602755136 18.5953393354797605 12.6392377155761846   T   T   T
 15.3017920935412004 11.9429746308897080 16.9062647361594856   T   T   T
 12.4288791338922540 15.2299499678346866 13.7101185809798469   T   T   T
 10.4842587523639637 16.8393601939248008 16.7924675650554747   T   T   T
 19.7901787410110614 12.7708934708689092 19.0160433564642517   T   T   T
 18.3945764720014608 17.8016388979363249 15.3926506136033314   T   T   T
 11.2112926137960276 18.7159228457451405 19.2977083974841150   T   T   T
 10.4470217264802958 12.9769822889888626 13.1466362330946183   T   T   T
 15.1696636244275602 13.1910381540676322 12.8491344235295770   T   T   T
 13.4004289266329550 20.2579831651363520 17.3206331503480584   T   T   T
 18.3111082077458747 10.6109827463498689 17.9034262402714361   T   T   T
 18.8099133162651739 15.6789541438997233 13.2193986900731026   T   T   T
 -0.0647100520405502  0.0892348521555149  5.0565512852959609   T   T   T
  5.0097328953742313  0.0015689030214298 -0.0338248749460881   T   T   T
  0.1808631235644650  5.0571331969351920 -0.0557457125987703   T   T   T
  5.1331014670006923  5.3333669604670106  5.3615079350565855   T   T   T
 -0.0763078424806062  0.2634972066814616 15.4486483152622416   T   T   T
  5.1022936407295356 -0.1305617921693890 10.3304260289396890   T   T   T
 -0.1227470494040593  5.0052369587116941 10.2783708235924571   T   T   T
  5.2725900060969408  5.2204849433679019 15.0835277944104487   T   T   T
  0.0606937770200622 10.4691833333256934  5.2827051138573662   T   T   T
  5.2573125289782237 10.3551162321698609  0.4003241748171298   T   T   T
  0.0913533448403970 15.3281802528005429 -0.0323533421162835   T   T   T
  5.5360351982910636 15.5700035323899311  5.1519438724959530   T   T   T
 -0.0222385682020361 10.3923509933415552 15.2502250085613422   T   T   T
  5.1274142132925968 10.3268166308452685 10.4014818832617788   T   T   T
 -0.3526009754974570 15.5803599773063013  9.9414024775115646   T   T   T
  4.7881407193258205 15.3287878552793693 15.3900202655741030   T   T   T
 10.1795085713730860 -0.0103689249581866  5.1260744170810320   T   T   T
 15.3065746326184531 -0.0322075944539013 -0.0738044467418837   T   T   T
 10.0783163663643496  5.0416266375918095 -0.0470394862181249   T   T   T
 15.5015246440071586  5.3034161767966301  5.0083858596207547   T   T   T
 10.2649529683847387 -0.0513961422852542 15.5823000730039727   T   T   T
 15.3726586511304451 -0.2986932294440995 10.4655956070951124   T   T   T
 10.5068806543483753  5.0112734429586538 10.5794855250411803   T   T   T
 15.6851709764341010  5.1853036684009188 15.4140888565029588   T   T   T
 10.4412803054876129 10.6322928664453347  5.0657795014763538   T   T   T
 15.4767030196666191 10.2837608925413431 -0.1012687304543961   T   T   T
 10.3239646150011239 15.3891182569545357 -0.2187193990064333   T   T   T
 15.0999148372464589 15.7788880238290439  4.8721127124061603   T   T   T
 10.3920399157788328  9.8958050721898889 15.7425980417879465   T   T   T
 15.4049378889990241 10.1821760503964924 10.5200197791982788   T   T   T
 10.2398664083981679 15.5402496182479055 10.7763086389578202   T   T   T
 15.4263671169177137 15.5737835510246114 15.2357895186531724   T   T   T
  0.8402655846331425  1.4618742484598741  6.3583651299370585   T   T   T
  1.6005336084432555  9.4376493190324489  4.1174923921487601   T   T   T
  9.1261512481546898  9.5331160396117003  6.2505444809139696   T   T   T
  8.8511616751956801  1.0900102998900782  3.8978522651127556   T   T   T
  6.2796886193665022  0.9831813007421832  1.2644089488249377   T   T   T
  3.6348968813889573  0.8917372439054576  9.1937630600572575   T   T   T
  6.4665930190102792  9.1111709552911400  9.4564501497282372   T   T   T
  4.1073535764181894  9.0618271730786422  1.5887886321056079   T   T   T
  1.5192669256341746  6.2341740080320633  1.0629115443457211   T   T   T
  8.8456807898407810  3.7545789731956911  1.0138514332386119   T   T   T
  8.9236799443270911  5.8233106420448726  9.4003474101095001   T   T   T
  0.8928780590160215  3.9309106008389674  8.9331500802195762   T   T   T
  6.2160609603107817  6.3764249462925235  6.5862280290165094   T   T   T
  6.2522574560130701  4.2976643193724220  3.8731552529252675   T   T   T
  3.8737043194814946  3.8983467407576002  6.2326921608217658   T   T   T
  4.0022999933654484  6.6450543938397342  4.3981579821891676   T   T   T
  2.7763821825613304  2.7229369718221426  2.6526210329074589   T   T   T
  2.4738135849190832  7.8225771835357758  8.1148668229509493   T   T   T
  7.8667903156923877  7.6759553205072644  2.8365336057485036   T   T   T
  7.4095935007978522  2.6792668645747590  7.7025340149908592   T   T   T
  1.2339167334510786  1.3477184599829641 16.6251223957077272   T   T   T
  1.2455507467998583  9.1728211418601475 14.1573386838070245   T   T   T
  9.0636437720180592  8.8958139341234030 17.0156007841475656   T   T   T
  9.0366243847463839  1.0713192484991101 14.3494292216433497   T   T   T
  6.4023243962640244  1.2235632991035479 11.0808463601261629   T   T   T
  4.1735354020801800  1.1712270499948025 19.2915369797141949   T   T   T
  6.5300121488005241  8.9674764994928395 19.8976315452902952   T   T   T
  3.8149917237431872  9.1699551832847206 11.5866188067004110   T   T   T
  1.2582642771293486  5.5028071373917582 11.7444325689604625   T   T   T
  9.5004830567293137  4.1121117859863814 12.0929844530952781   T   T   T
  8.8276959777015840  6.2842250668614730 19.1688915466153418   T   T   T
  1.3436763732419972  3.9689720738118659 19.0701398798123023   T   T   T
  6.4279933760621990  6.4739583238172083 16.3285521616947022   T   T   T
  6.6026739085750332  4.2112624351839720 13.8143057361723685   T   T   T
  4.3864826666662982  4.0141544745804287 16.4640725678121598   T   T   T
  3.9486279842636520  6.2668665124447287 13.9943118026664646   T   T   T
  2.5486616828600406  2.3443215760408957 13.2076991652726718   T   T   T
  3.1528660044177839  7.9418514385772800 18.0142447256764697   T   T   T
  8.1709504318587509  7.7423365002528373 12.7303867189968454   T   T   T
  7.8777063312675306  2.4173457810781684 17.9474339236024036   T   T   T
  1.3083383546212544 11.6622060576784214  6.4618188797583134   T   T   T
  1.4323019018715828 19.5304318596116211  3.8119234126449451   T   T   T
  8.9069048272514948 19.3163419563583219  6.1208897935145323   T   T   T
  9.3100933339153684 11.9338812111708688  4.0747440437981508   T   T   T
  6.7548340326153147 11.2450843198049864  1.5551725080548022   T   T   T
  3.9748924137470887 11.5126153588633588  9.0787759860096138   T   T   T
  6.5033986300413078 19.4556188401055543  9.1337929834007188   T   T   T
  3.9736972837158944 19.5083797203410221  1.2290072338810045   T   T   T
  1.4780574157376900 16.5076156131900760  1.0318591500362102   T   T   T
  8.9417069766347499 14.2318223920980955  0.5695904912621526   T   T   T
  9.1575717391884890 16.9060707749138182  9.5520957798694006   T   T   T
  0.8217344538275640 14.3168168881392752  8.5816147718665494   T   T   T
  6.5809338709805489 16.8931383805647819  6.2951926064720505   T   T   T
  6.6243911770982038 14.1639815120769477  4.1449988582961650   T   T   T
  4.2808141590849589 14.4725380210563426  6.5580741080851821   T   T   T
  4.2590983245038414 16.5269373593555144  3.9193266981158468   T   T   T
  2.7278728601442683 12.9471517177043118  2.4765530425842610   T   T   T
  2.2633148711053108 18.0529731696288103  7.4059376398340309   T   T   T
  7.9437046701646228 17.8243502651303629  2.3514996031418174   T   T   T
  7.5532723643394952 12.9640582012503920  7.9348357528081319   T   T   T
  0.8472169413468008 11.3398621242874214 16.7616278878694018   T   T   T
  1.0126209625932381 19.7759828865948926 14.1413383593172082   T   T   T
  9.3055548581417380 19.4210276768768786 17.0404762098822573   T   T   T
  9.2566452562699695 11.2896928878731551 14.5199058980624045   T   T   T
  6.2037280284216294 11.6035302216249363 11.7273337435084457   T   T   T
  4.2488498644244741 11.4876607927899936 19.4576592268744832   T   T   T
  6.3441695969118381 19.1432116503618595 19.7464845236006568   T   T   T
  3.9615936845596624 19.1206527991735165 11.5567862816808091   T   T   T
  1.0152654912462149 16.4762843111278023 11.2201730924148393   T   T   T
  8.9589437574885746 14.2459282865036805 11.8314560124601087   T   T   T
  9.1621481796010045 16.4635286434832899 19.0074539403589640   T   T   T
  1.1577586699667120 13.7967633382854959 19.5229516228380504   T   T   T
  6.2247497197251311 16.5416219501618933 16.3370018236039840   T   T   T
  5.8933760505828339 14.2268690676289840 14.0528948845114030   T   T   T
  3.7006446352362969 14.0666904234345047 16.6813973457863085   T   T   T
  3.4398082545511137 16.5349532560480057 14.3243726431027660   T   T   T
  2.2536526852791647 12.8380565655669194 12.2675436236093969   T   T   T
  2.6362145413343687 18.1008979338262677 17.9702314536441250   T   T   T
  7.4547575295615403 18.1667693204564813 13.2656081174295224   T   T   T
  7.2520836326188496 12.7162395200978899 18.0463968054067152   T   T   T
 11.3859435716169326  1.2752592320673684  6.3116056195816936   T   T   T
 11.6954403364230739  9.3194524462648225  4.0030607899325279   T   T   T
 19.6288919642342705  9.1562595552722144  6.3849909815223258   T   T   T
 19.5093195676783751  1.1770924765663702  3.6054962001899704   T   T   T
 16.4319829052614637  1.2398340746930765  1.0269890984770276   T   T   T
 14.1040103913061596  1.1302973832658252  9.7126882533485208   T   T   T
 16.7855181880870816  9.1517968041713349  9.4432489720809318   T   T   T
 14.3616445425698060  9.1429867939546448  1.1937273397022592   T   T   T
 11.2526822482206779  6.2787322681042310  1.1510941740635263   T   T   T
 19.6988926099318036  3.9316002070911953  1.1606059923406364   T   T   T
 19.1143407915825776  6.3782931419474158  9.1875619586465653   T   T   T
 11.6522615804638701  3.8303562731483525  9.3791049292257362   T   T   T
 16.6954548799366052  6.4451375828730493  6.0815658986113794   T   T   T
 16.5411745472789491  3.7616750255761850  3.9862657693853052   T   T   T
 14.4578754274890464  3.8296062929669450  6.2104774205570399   T   T   T
 14.2663696715781754  6.3158097471125867  3.7901207793230975   T   T   T
 12.6011563023184419  2.4990909805333845  2.6536230171742301   T   T   T
 12.8533965052806654  7.8453695300281048  7.8032098855775152   T   T   T
 18.3142566983066857  7.8064047814144351  2.2491444572176831   T   T   T
 17.7346211279558759  2.6361537990412049  7.7910219363367137   T   T   T
 11.6573911956293443  1.2580863504904796 16.4881854646414041   T   T   T
 11.5465666103750006  8.7500103404002996 14.5918186611142300   T   T   T
 19.1147323877044428  9.1468888248185696 16.1992099777020186   T   T   T
 19.2331849221489364  1.7036204720215793 14.5631128037760860   T   T   T
 16.6750290704798587  0.7230996519024445 11.6396781216538141   T   T   T
 13.9916040200199010  1.2390289869180413 19.3063733606202135   T   T   T
 16.6612714789219112  9.1393316874663562 19.3384682902688709   T   T   T
 14.0497452019650648  9.0266537545992058 11.7310598567576907   T   T   T
 11.7197343366233593  6.3658684172993700 11.4691161697565676   T   T   T
 19.2931395441051805  3.9121277800483809 11.4955244317842933   T   T   T
 19.5937041996496717  6.4748613225598408 19.5601416752582224   T   T   T
 11.5037983244165858  3.9831029271973444 19.3152971534218025   T   T   T
 17.0671338097673484  6.4084903297646463 16.5502437408604735   T   T   T
 16.4066631050142178  3.7668868589869047 14.0957913292600523   T   T   T
 14.5430720471015782  4.1376416086463284 16.7791357476163299   T   T   T
 14.1365415924197304  6.2506753234339492 14.4378201389148622   T   T   T
 12.8012763718457894  2.3561101601155658 12.6249360357679201   T   T   T
 13.0014890627947413  7.7687296601573372 18.3696320348155595   T   T   T
 18.1741515707329881  7.6342050188651163 13.1616596573518336   T   T   T
 18.5771765994411098  2.5795606938656808 18.1266190540105327   T   T   T
 11.5015236585006022 11.6935433094637542  6.4195088198633714   T   T   T
 11.4422109858288277 19.2821187789544055  3.9298056380595718   T   T   T
 19.3283617225724029 19.4720291585397369  6.0385464058379972   T   T   T
 19.1328289970494794 11.3836574366070913  3.9774133561889800   T   T   T
 16.7867887912047351 11.5757013983666024  0.9138887232869476   T   T   T
 14.1729629768630438 11.4966558546736302  9.3664789032506590   T   T   T
 16.4885096598586784 19.2370877575927643  9.1317070150396518   T   T   T
 14.0767313063268702 19.1519741734025608  1.0004562137397470   T   T   T
 11.3430572606349447 16.9038842532250122  0.6184366902803955   T   T   T
 19.5769835938715175 14.3760029176002035  1.4051425026738324   T   T   T
 18.9074608073580990 16.7088979068975654  8.8291976014962916   T   T   T
 11.3793208562856467 14.3558235563224326  9.3428324859801339   T   T   T
 16.4085012185268511 17.0845716742307907  5.9841751071815237   T   T   T
 16.3432295846139368 14.4922632204830499  3.8637620440077938   T   T   T
 14.1398449652157971 14.5460803297128685  6.3640782719931019   T   T   T
 13.8566355577653795 16.8161243543332368  3.5879125751603498   T   T   T
 12.8819928117164455 12.9799967985802827  2.5868004476770476   T   T   T
 12.5350615314620839 18.1464374508388921  7.5757275915982190   T   T   T
 18.1807440781144507 18.0531439482742080  2.2701852230784447   T   T   T
 17.4865486461863142 12.8205604564391109  7.7636455534142295   T   T   T
 11.4115152549408130 11.3322552651342008 16.9780137984768515   T   T   T
 11.1980846863472081 19.2245275438788816 14.2299217753718246   T   T   T
 19.1388807212412928 19.7287331327043951 16.4053233982624107   T   T   T
 19.6664203339539370 11.8478539295889327 13.8811795014277113   T   T   T
 16.4825263128119062 11.4086448350556129 11.9550140182518216   T   T   T
 14.1778361534377364 11.6253133336127341 19.3018764508363603   T   T   T
 16.6144868348115153 19.5362922444448088 19.2385279164705523   T   T   T
 14.2998340316436021 18.8560755281051229 11.4477950366490404   T   T   T
 11.5342370941390779 16.7967956842647226 11.8810493194487226   T   T   T
 19.0382436589395923 14.3255703053196992 11.1222347573770755   T   T   T
 19.6698326179270992 16.4021382808065326 19.1757766307185591   T   T   T
 11.5032021090230074 14.1421433706215769 19.3277508226885502   T   T   T
 16.4820953244152903 17.0553147123326774 16.3462124592190321   T   T   T
 16.5826751480611918 14.4891872005961577 13.9076245051290464   T   T   T
 14.3650719006696317 14.4531489489720517 16.6673729912028321   T   T   T
 14.3129004382462224 16.7985193209594357 13.8863357837520436   T   T   T
 12.8691601852376678 12.9812865185700446 13.1639749895109226   T   T   T
 12.5971125232244177 18.1083611038590213 17.5225294357616477   T   T   T
 18.1965279305630006 17.9559030144388743 12.9184933549137462   T   T   T
 17.7746641146897701 12.7373955242125660 17.6642955235607175   T   T   T
  0.0064191211420207 -0.5722271505321592 -0.3905817183813017   T   T   T
  4.5172146754002194  5.4900179735801622 -0.2583111351304986   T   T   T
  5.1424463664563476  0.4922512870152602  5.1430392661571984   T   T   T
  0.0270638652155237  4.8015168476769112  4.6836630902726633   T   T   T
 -0.0516656408762117 -0.3832140570874390 10.1290158637788323   T   T   T
  4.5662059909150861  5.3072046012352807  9.7758924886522642   T   T   T
  5.2985824168315112 -0.6025972171144109 15.8819827023062423   T   T   T
  0.4810198885280734  5.2782134491034265 15.6769559114057930   T   T   T
  0.3563440142775557 10.0558170633971020 -0.5090022798725625   T   T   T
  5.0082776361618500 14.6206938241671160  0.3341408084565078   T   T   T
  5.2843863301688252 11.1851123189518464  5.3551073296901626   T   T   T
  0.2381841911135872 15.9830895417112426  4.5780481162853333   T   T   T
  0.1855639707014819 10.4894664345611712 10.3468889553305790   T   T   T
  4.4626992232889782 15.3846331714101598 10.4641639808465037   T   T   T
  5.9375128014889045 10.1413745666657409 16.1073713635573270   T   T   T
 -0.7843960516809189 15.2638779212723570 15.6745050384279150   T   T   T
 10.0828028240013303  0.1578656153634220  0.1994716228438191   T   T   T
 15.5912978646019695  5.2728326446724596 -0.2162204759329925   T   T   T
 15.6971169383840028  0.0197456935323696  5.3517701374914521   T   T   T
  9.9012949943793096  4.9533711059922121  4.6304507857081010   T   T   T
 10.4016377793069132 -0.2565210325071032 10.3027020472814144   T   T   T
 15.3015746496402976  4.7336227850636003  9.9444716702886513   T   T   T
 14.8660688538479366  0.1459639689604764 15.6819176730549206   T   T   T
 10.8141092222575939  5.0427108374775438 15.6052749565287723   T   T   T