Li P  S  Cl
 1.0000000000000000
    25.1819793006824639    0.0000000000000000    0.0000000000000015
    -0.0000000000000009   14.5388225279766061    0.0000000000000009
     0.0000000000000000    0.0000000000000000   37.2126966544236950
 Li  P   S   Cl 
 288  48 240  48
Selective dynamics
Cartesian
  4.0025970598261722  1.4571572499691336  4.9183416909134099   T   T   T
 15.0776497657443933 14.0635836399651559  7.5307769379811083   T   T   T
 21.5240718961954549  5.1118283322094697 12.6835666370234605   T   T   T
  6.8343096015360132  7.2219803022884959 13.1442718844465318   T   T   T
  4.6568500458461743  4.8201816897556506 -6.1799582858698994   T   T   T
 25.2111222009095108 15.2661795898478232 -2.3163396418936077   T   T   T
  1.0582990550118239  3.4665816601666859  9.2430566535446186   T   T   T
 14.9213146392265177 10.2754795936712924  0.9802432834562655   T   T   T
 14.0106603960432565  9.4014324344713245 15.0052815984129317   T   T   T
  5.1678080781932598 13.3287843370589592 19.3432612299917288   T   T   T
 13.4634369745366396 -9.1553804167358592  2.0351435165988603   T   T   T
 20.9416130527948425  7.0049609994505744  9.8713505766916541   T   T   T
  6.7798320213775218  3.9146790972953172 11.7283320317300888   T   T   T
 17.6715674026037100 11.6174610237693798  6.9665332637968236   T   T   T
 14.0234949483558875  2.3169001718139519 22.4806873815489752   T   T   T
  0.5926469026933858  5.7775002253439389 13.9014188312366986   T   T   T
  9.7619182939466036  9.6777927241771700  8.8419935743904290   T   T   T
 26.9098483824440677  1.2209470794861443  7.1077257020781781   T   T   T
  2.3569957527356098  5.2565676292791297  5.9461959208952857   T   T   T
 14.2543825573168821 11.8311484880603146 17.3973022148994581   T   T   T
 18.2446601586366874  5.9818265345496497 13.0698193550340349   T   T   T
  4.8489381523460882  4.5741020505022227 14.1613389133551397   T   T   T
  9.5696234873273145  4.6040991224938237 -0.4352030852690153   T   T   T
 24.0824109155403221 19.3210064022858141 -6.0496968100958330   T   T   T
 -4.1184592516646443  6.8629506281619053  6.4353447786491591   T   T   T
 15.0665931681578940 18.0044884109602314  5.8118687533583602   T   T   T
 24.3677343628111274 -0.0623923155537895 13.8701677832449626   T   T   T
  2.5549196937075234  8.0913299506737957 24.0772085706031369   T   T   T
 12.2840559303235590 -1.0073268234481090 -2.4432598101727674   T   T   T
 32.1402151901859483 14.5759740952428025 13.4239483853545103   T   T   T
  5.0599266335673034  1.9157604659115854  7.2962998006735251   T   T   T
 13.6662475332016076 10.4389205447503706  8.3935384332113809   T   T   T
 22.0353544141038959  5.6420361772189249 15.6176269691676506   T   T   T
 11.6894324150976647 13.7855203056267683  8.6781758240959270   T   T   T
 22.7796012284450171  7.2196148913310383 -2.6357966090846854   T   T   T
 19.2262006339181930 14.6307099656245789  8.2602380547031888   T   T   T
 23.0988455278583693 12.7113672881208934 17.2321799917836742   T   T   T
 12.7132014393092145  5.7113566401255360 12.3223346294391032   T   T   T
 17.6425715592235690  9.4675581564218874 -0.6238392052792062   T   T   T
  4.2287072128626075  4.7425165228501811  8.7842818854632938   T   T   T
 10.7105504152545521 16.1923785859303919  5.6300752031103354   T   T   T
 16.7387124778775309  5.6553799920545789  5.4721891460230943   T   T   T
 25.7274755942075721  6.9169373979746380 20.0176031011600735   T   T   T
 21.1244016546516775 10.2605748377814336 15.1030326191806772   T   T   T
 29.6926365962390051 -3.3281918937824329  5.2340542880572043   T   T   T
  5.1477884353509005 15.7566047736562673  1.2061619158361536   T   T   T
 11.6874176655404192  1.2922856173268802  9.3593055470699600   T   T   T
 23.7025632436268232  6.8489160146428718  8.7633355143969389   T   T   T
  0.8314339110574843  2.3765638873144401 14.4908006554233868   T   T   T
  8.9116399292883166 13.2601747476896605 17.6483181243178322   T   T   T
 14.0041570205208465  4.3840363067710753  8.6979847708509919   T   T   T
  9.9809678168239166 19.9192920428070721  2.7919653189509956   T   T   T
  8.2183273679079338  2.5433563677264717  6.7887343050639419   T   T   T
 17.8246465627734700  9.8159291943884348 14.1343561728030895   T   T   T
  1.7565862878899945 -7.4475336278603859 10.2987103918215546   T   T   T
  9.3111383480582415  5.6964720775720492 12.8475348423068052   T   T   T
 22.3691285172727738  1.1616382705193806  5.1303439626876655   T   T   T
  6.4053204303829672 10.9975673204660147 -3.0809248232778517   T   T   T
 20.5497891809113540 -1.4544392962977837 15.0824991649728783   T   T   T
 24.5075993259720342  8.4463188649750158  6.6368147132495965   T   T   T
 -0.8677757871395385 18.4430700971592181 18.1412384268263978   T   T   T
  1.0570666059610530  2.2256723731053354 19.7715778672744236   T   T   T
 23.2299929764490436 16.8388006980867111  8.7563663609631526   T   T   T
  3.3256341422087998 13.2283568939087743 -1.9575077877570413   T   T   T
  5.8591993468586434 10.0374878876965994 12.1876923185087698   T   T   T
 20.4770668675332175  9.7466438390196792  7.0787168320406959   T   T   T
 25.0895218077365243  0.2069514420804203 11.3027002719643352   T   T   T
  8.7724526926325694  3.1831162114346627 15.2675540475753664   T   T   T
 13.4812254739929287 -2.2953421909805392  6.1717075812242728   T   T   T
  5.8225823868856645 11.9756686084305848 -0.3166969887025206   T   T   T
  0.9751873237773950 -1.9261011023520889 13.1978428691267062   T   T   T
 23.7002152542587012  9.6542365696016290  8.9064147500025523   T   T   T
  4.9430334441191413 11.8548555645470657  8.2929463500508529   T   T   T
 15.5998116690944055  0.5948462814722673 10.9322185462034120   T   T   T
 10.6976976038234497 10.6582550037009298 18.3210833495421888   T   T   T
  3.7482248239989233  1.5699819632782293 12.9448976667487852   T   T   T
 15.2091199769905874  7.3847690352974746 -0.0295347075297927   T   T   T
 13.4104921547247891  4.4222274828523256 -1.8744280246405918   T   T   T
  1.8158052946847558  9.6060566606500721  5.4333227644427531   T   T   T
 17.6307696775061160  5.8397095226577411  9.0266207900244293   T   T   T
 19.3517573667803298 16.2568927157168162 13.7702776586070978   T   T   T
  5.4158193709955027  2.7480405232870826 18.3111074606770963   T   T   T
 10.3974932948904559 13.2083969286697531  3.7490948100774104   T   T   T
 25.6055638334069435  4.6272761018187500  3.2178524282274070   T   T   T
  1.2242444478898231 10.7691872297667111  8.7965437920980065   T   T   T
 16.0042265732042921 -0.9838968284727047 14.2691419885982764   T   T   T
 22.0068068489769750 11.7672340747913111 12.4548885939937772   T   T   T
  3.6317408872350692  0.1463526942314224 22.3081678862509918   T   T   T
  6.0367504207063982  7.5872720495661499  2.4057383652146411   T   T   T
 20.5286525517795369 13.4491152224401986  3.7247843166613301   T   T   T
 10.2713696181036411  6.3717043217063578  9.0055344505720267   T   T   T
 15.7589357452635053  7.9789688729070978  8.0224648054386485   T   T   T
 18.6773418340841495 13.3935011344257369 12.8775225213748179   T   T   T
 14.8843680251159540  1.3358018445595992 16.9279462272990102   T   T   T
 11.4407042369171865 16.3131980425607424 -5.7909636868339378   T   T   T
 20.3795618267118606  8.9902699292996857 -1.9337260727775625   T   T   T
  3.2400258693880390  7.3165984646062592 13.0070404212976847   T   T   T
 11.1457507896821504  4.4704873671173830 18.2090430491097841   T   T   T
 18.9059955583368513  5.3380786932598463 15.7188917062146487   T   T   T
  6.9939159915369107 -3.9510800969352857 14.5160574937200071   T   T   T
 21.1699001990936893 10.1445790408901004  4.0745856723510991   T   T   T
 17.1839614340206914  6.4077545360177783  2.5914784109494842   T   T   T
  7.3909007160919149  7.8133595572460655  8.3902573555006050   T   T   T
 17.2858903279432035  2.9086634461955656  8.1694356151357077   T   T   T
 19.0044077103444629 10.4514184512249919 11.1083529945411765   T   T   T
 15.1482287147836523 -9.0375628528418588 14.5674979907970137   T   T   T
 11.8190667634770588 21.0212591066353767 -0.5285094663956592   T   T   T
 24.8266910585227230  3.5426489703699438 -0.0227377610434334   T   T   T
 22.2558114132715161 17.3472327500612309 14.7845934768746226   T   T   T
  5.9310040449727044 -0.7639865650261108  3.4663382082415333   T   T   T
  8.6464607266142153 13.3732008467736954  7.1897934636212657   T   T   T
 27.8698846315423125 10.0235021031263756 14.6829353825865123   T   T   T
 -2.8701184198387226 12.2113967326868611 -0.5637816406683612   T   T   T
 22.7916269170504613  8.0370885831796279  0.8010327966436819   T   T   T
 25.6366036318008845 -5.3491308288736823 12.2328714366702709   T   T   T
  8.6659909806824569  6.1779329846249977 16.0922991559155086   T   T   T
 15.6163039033842548 -6.9965604561496857 12.7908673729785995   T   T   T
 20.7413456196985280  3.2978133989095224  6.9296300208809907   T   T   T
 -1.0109171221782964 -4.2803857335921558  2.5218700741882687   T   T   T
 12.9960624942266190 10.8001062182056913  3.2866428706688398   T   T   T
 13.5057999619609905 -1.5019805347558945 12.8219207922687986   T   T   T
  3.4160773260619477  7.5227639340559875 17.7482959772691551   T   T   T
 12.6967496889099181 -5.5899187458279327 12.1409117099085027   T   T   T
  3.7023797092831150 11.9524157611924231 22.5317623851332023   T   T   T
  1.5091940895948022 -1.1570244707248927  7.3959457534523478   T   T   T
 18.3816168038876455  3.7515892565340154 -0.3229938665930989   T   T   T
 21.1936348285869158 -1.4175243772218464  8.1493477383346331   T   T   T
 11.7932730300869597  7.5670761863245426  6.9671837134432861   T   T   T
  8.8969607296315889  1.8955316631533810  9.3788822044848619   T   T   T
 -0.4615448197739238  9.3980317738999375 14.5015968709552983   T   T   T
  2.4550281155865230  1.7943446752377223 -0.3983871028264382   T   T   T
 19.6340345894037895  6.9572047136467283  0.7785538685960137   T   T   T
 20.2486747364736850 16.9222245340296418  9.4211497892634082   T   T   T
  8.2820178736694281 10.9362978582071655 11.1497257156247915   T   T   T
  9.1155149000125828 12.6045958020844076 14.5383618208857879   T   T   T
 -9.3897135579843010  5.3307449400669746 21.0244367268508725   T   T   T
  4.4639154507729053 19.2383240195901486  3.5678185918833156   T   T   T
 23.1828688512507988  6.6976528687797208  3.7625804444289717   T   T   T
 15.8090299490427544 -3.7887053320972059  5.1150370548079893   T   T   T
  8.9635711191791216  9.9372271446040159  6.1211621904167890   T   T   T
 11.3540940389046128 -7.5732529639174153 14.8150972628407729   T   T   T
 27.7714285806939252 12.4072691875243173 24.9778928322011637   T   T   T
  3.7244619666536662 -5.2725738760067511  7.7806110623048355   T   T   T
 13.3867914236154082 11.7179882506468687 -5.3470247389475016   T   T   T
 -1.6424787558396023 -5.5565389297147156 28.7377317894375466   T   T   T
 20.9429605082827202  4.5045715224508083 36.7945701995454613   T   T   T
 22.2655448061507144 -8.3579214059207203 22.0182757287150288   T   T   T
 13.0283185926462544  7.9799254348743238 18.9076926676123094   T   T   T
 17.5416984412417989 -2.8337154675137453 34.2238761227858106   T   T   T
 -5.0888654837218175 13.4315401236913061 35.0039392123264719   T   T   T
  1.1147044470620588 14.2607970837884110 38.0945876177631249   T   T   T
 18.7333002963452877  4.8298418872555970 28.2478803431657468   T   T   T
 24.1603716989372543 11.9484656367834852 28.3283314726570588   T   T   T
 13.0416503158044854  2.5310662404550430 13.6458459868062683   T   T   T
  6.2131625745099921 19.2627175179389205 35.8804007656694210   T   T   T
 -3.2643514617924438 11.7209500533245006 29.9020558743439828   T   T   T
  6.1279854322929994  9.1206540807866148 27.8830819170337563   T   T   T
 17.5461947458882612  8.0283115251150683 31.5724160966653393   T   T   T
 24.6221057334159426 14.4807253219028667 24.3311951940711779   T   T   T
 10.7084107984587362  8.3686871607123408 25.7354027128735758   T   T   T
 12.3037724840195164  7.3615921321833051 34.0863105309552310   T   T   T
  4.3288353748469230  5.2357776667932514 28.2501273087015683   T   T   T
  5.8174481297066318 -3.0456996372139655 29.1163748467113770   T   T   T
 21.6042021331014809  7.4558850502884999 30.4321188829384717   T   T   T
 20.5244503010647499 13.8839254923387223 22.2069848453641008   T   T   T
  9.7026688602442057  5.7007145412456088 25.8708167915122296   T   T   T
 21.0030526949465859 15.5560484031783268 37.4536783251458161   T   T   T
  0.2551865925758424  7.0827058010631516 37.2790919001705419   T   T   T
  3.8070270699060744 -0.3811495969115153 28.4301081810155836   T   T   T
 18.7197235959102279 10.4196895148535340 24.4804515206358850   T   T   T
 28.4172901287359991 -0.7684675852076249 14.7737741487450069   T   T   T
 16.3724191853844623 12.5978321573440297 24.8557275842322269   T   T   T
 21.7684674227179187  4.4115775136231523 39.9185618347837448   T   T   T
  1.7713609978660307 10.1830680035465626 36.1324910854132924   T   T   T
  0.9906230342484860  9.2375641766770897 28.2046406270446646   T   T   T
 16.9186214189300763  5.0179068242135241 30.8778131409018144   T   T   T
 22.4948410671540451 16.7334499616453947 22.1661013237880518   T   T   T
 10.0395767393448807  5.2646180556095459 21.9580958361662688   T   T   T
 16.2449043631279473 12.5421259840810109 37.0638262265209733   T   T   T
 -7.1160670444787213  9.8477294719899717 39.8837291992326612   T   T   T
  2.4728133222184172  0.4548925367470237 10.7880566143429846   T   T   T
 10.7294842169088049 13.1006549521643798 26.1016411076712984   T   T   T
 19.3183374822486620  5.5835769237509156 32.1950063920968432   T   T   T
  1.9234882626092316 15.6238695670160297 40.0417758721576718   T   T   T
 12.4347101941496323  5.2591285796845746 28.7490766283461241   T   T   T
 28.6961671751877248  3.0729028585488334 20.9500216059079847   T   T   T
  1.3038001752459791 -3.7947663663209745 21.8977924711609404   T   T   T
  8.0502236254625359 13.6176490152455294 11.3857971921200498   T   T   T
 17.1857223579008469 -2.3047261671378529 30.1903502346897987   T   T   T
  8.3339969684108581  8.6306356514230274 34.9873388938794108   T   T   T
  7.5728310044689300  5.7779021624591920 27.9298320871976280   T   T   T
 23.9836370807627972 14.2617378419798193 21.4802476193498677   T   T   T
 -1.8269428415013005  0.9664469447190387 31.1016622133269003   T   T   T
 16.4610351706961602  8.4757790055896685 22.4142115889499287   T   T   T
 19.9922623091520677 -0.3283395591841626 31.3590601973019751   T   T   T
  8.2014572608434708 10.1841777276022185 37.9932510214557340   T   T   T
 14.9305016251554878  5.1356642110380690 24.0859483089289164   T   T   T
 -4.1143345849234825  4.9062818841362583 24.5735132133093508   T   T   T
  6.0089912120390743  4.2796007454770661 23.2000539498845946   T   T   T
 22.1732305877208447 11.9138658245114186 23.8615752844632460   T   T   T
 26.3762492006508644 -1.2032799649167367 34.0550514345271154   T   T   T
 15.0963802908391322 15.9342716308698655 34.6010496078958596   T   T   T
 16.0258354767778357  2.2167673503826490 24.9273371512417441   T   T   T
 -1.4492617557235199  9.0979094103446307 32.0459648425336070   T   T   T
  1.8167707849578305  2.1841760148818903 24.3371232395988244   T   T   T
 14.5083514405534828 10.1606783433053280 22.5788655705957559   T   T   T
 17.9816067674333127 -1.7956998729558900 27.8322314791178016   T   T   T
 10.6243355401852781  9.3220361430812737 35.2507157529487500   T   T   T
 10.1650501589228188 -3.3898913118967191 28.6624242617549498   T   T   T
 -6.3477566472012192  8.5984020329761037 28.2055100739347786   T   T   T
  2.8547911812444768  4.9229627689083824 24.7335091642695275   T   T   T
 20.1308376501975737 13.5324626693112187 18.9961363521611517   T   T   T
 27.0285942169436595  4.6229788033149983 35.0630130766893018   T   T   T
  8.4855576682225760 12.6337525764706768 34.4513754371608911   T   T   T
 16.3644642701371694  7.8672807735870132 29.2639702831877742   T   T   T
 28.9765101390970798 11.1836735764815920 33.3334180353259342   T   T   T
  3.4644318298409966  8.4902246293948593 34.9865400749586115   T   T   T
 17.1292196263865897  0.0907434197174426 31.7684320885194147   T   T   T
 19.9036346202232046  3.1566657667286715 17.2854520989740301   T   T   T
  8.7885025254128202  1.4894076907642826 24.1624179246634903   T   T   T
 11.2642958502994528  2.8284764077118418 40.2657249499097674   T   T   T
  2.1347724652079916 -1.8103362575967878 40.2278838753953067   T   T   T
  7.6699371908036866  6.5227065943396987 31.1759790301430861   T   T   T
 17.2291596622487440 17.1032968921702526 21.2880913376732792   T   T   T
 29.7979881665515514  8.9557731384386656 21.9718892468450768   T   T   T
 12.7521336887890371 13.9440736393046798 23.7038350397136419   T   T   T
 11.4109236366866540  8.4227842068449483 40.8086172048105880   T   T   T
 -1.4000720110965261 17.3709477502029053 39.6040390627838264   T   T   T
  4.1498382021718854  7.8940116263652058 29.5819429312732822   T   T   T
 18.2160299958730540 19.7407766468007999 22.7648805740405535   T   T   T
 21.6849758845860734  1.4055620498282748 25.1914110604173977   T   T   T
  9.9380747712300685 12.4256467434405948 22.4291186797006503   T   T   T
 12.4735553002930732  4.4829015761104944 31.8196860703600066   T   T   T
 -4.6581039863873155  8.0027646977511679 23.2298696434679321   T   T   T
  7.5546409964542685  0.7017916978563352 28.8990073169667205   T   T   T
 10.2200627580222640 17.7546484220081702 28.1007429161449451   T   T   T
 28.1839748562614183  6.6365118899746873 21.0937430128424985   T   T   T
 13.5616350272518904 16.6024714813578491 29.3128005275534811   T   T   T
 15.7008821244105441  6.5702858573892131 33.5976125726211023   T   T   T
 -0.6014489479757058 26.5279567117733102 32.5825914936499146   T   T   T
  4.9459763870137872  2.1216951230693377 25.3909096435336394   T   T   T
 20.8995214748046827  0.8143144214717979 28.2341737082660735   T   T   T
 24.2780091261654363  8.2755842866718652 22.6885488080493722   T   T   T
  8.5553430357033573 -2.8972809529705073 24.6778179826818373   T   T   T
 13.8671529962871745 10.2754215756345495 34.8834507737251158   T   T   T
  1.9971571837373552 -5.3561637652011358 39.0600172876137322   T   T   T
  5.1460044510872507  7.4858151663145254 32.5593313586205966   T   T   T
 17.4230505216655374 16.0134388200933415 27.9308150106434567   T   T   T
 24.9640320278564580  5.2597362206369684 23.1842029787748096   T   T   T
  8.4448923306695498 15.2875933460100093 20.6105651409730974   T   T   T
 10.3014511716345911  1.1425414960778584 37.1647379517817313   T   T   T
  1.3699125942823802 10.6310047266388104 30.9693519407923681   T   T   T
 26.3288329600464976  4.4264888382548140 28.6179394416345119   T   T   T
 12.1143489148063566 13.1273473620881873 30.1100483539713366   T   T   T
 10.7658531002820563  9.5792195356848673 22.2761606980379341   T   T   T
  5.7777245374932660 10.5291504741136386 24.6966425270913135   T   T   T
  8.0225707700165447  6.8341355939793571 42.9108778175537111   T   T   T
 16.3843172883993518 14.0031894074080050 39.9845190119435756   T   T   T
 23.0152827198045884  4.4109611145584688 28.3734670947868679   T   T   T
 15.5131147074341413  9.6552522059695853 25.6888900228822621   T   T   T
 12.0668222505152674  1.0738071206852091 19.1942424147168644   T   T   T
 -2.6637971458209311  7.4312406780646461 26.3588655325249128   T   T   T
  8.1434917070303232 -1.3024137987222721 30.0870679051487180   T   T   T
 18.4507937561703308  2.1289938105690762 34.5049407216019972   T   T   T
  1.3571145789079477  2.6272460787177616 31.1047021965781845   T   T   T
 12.6894876931970337  7.2371537631178997 24.0460382640454569   T   T   T
 20.5616907476414745 -4.8071359464743173 19.8938727681655543   T   T   T
  8.1611320949461330 18.7168464983729663 19.4798316481487781   T   T   T
  8.7281532833281208  6.1004140243491145 33.7730306098871296   T   T   T
 18.7802655217825567  3.1122487309407036 39.9140669722256547   T   T   T
  6.1665942700455814 -0.1923262526405363 32.0951561113977988   T   T   T
 11.1214050777045568  9.6528984308682659 31.5980302489942950   T   T   T
 16.4762402920174544  5.8182700540056773 27.6359454208136519   T   T   T
  8.5287205342079702  7.9189156631691571 22.6568933033960462   T   T   T
  7.9486938898764308  0.5046058040575894 36.4140111587628752   T   T   T
 30.2621876431261718 15.9330548234125793 30.2607229098078996   T   T   T
 -0.3223863768994467  0.8185166471947932 28.4169780429384957   T   T   T
 12.6396102468513760  8.7721248010574371 28.3358573083568501   T   T   T
 16.7506799783304814 -3.3146422833525504 21.3593185214331669   T   T   T
  7.5255451900587111 10.1661801933541831 18.8954490891193245   T   T   T
  6.7864795854909312  1.9615843310514995 33.8745012369167853   T   T   T
 23.4396116285679881 14.5800128790158148 37.6431227040315122   T   T   T
 22.4658792790025608  1.9744355597677281 34.6317714088096835   T   T   T
 14.3459512232152040 11.8800257782690863 28.7126287828164806   T   T   T
 10.8814808133284497  1.3071605598153233 22.2396883652681367   T   T   T
  2.8640691990551788 13.9894887501912564 18.2956915024854858   T   T   T
  9.7392226778244062 -2.4163563355332425 36.9459253020071401   T   T   T
  9.9801407858870981 16.7707660775452503 34.1021059160963063   T   T   T
 -0.9600951616509859 -0.9106356147013407  4.5003310826868201   T   T   T
 11.1526983516686649  9.4834284243471139  0.9406349632492395   T   T   T
 17.7141574137875644  0.4950992335846473  5.4123168911414137   T   T   T
  5.2536702104142705  7.3845317717357375  6.4168472196488322   T   T   T
  9.9756125770647195  1.4028427151889000 12.3079501638138584   T   T   T
 22.0723542080196857  8.0778951647593047 12.1540363032922691   T   T   T
 23.5808978021719398 11.8063039335756628  5.7935289362861351   T   T   T
 11.5345941413747735  4.5926323027196050  6.0687300327023070   T   T   T
 15.5031241059527716 11.3566906524821825 12.0941897668823835   T   T   T
  3.0021554322681081  4.6430225924725406 11.7046339931355181   T   T   T
  8.6566953612012938  9.4802416682411952  3.4053433559755142   T   T   T
 14.6719535094914075  3.0975047116719958  0.1424375766680374   T   T   T
  5.9049688713656030  0.0087418669802681  6.2935072184973944   T   T   T
 17.7117118804580542  8.2641548749035927  5.7698466372438082   T   T   T
 21.9539277990230737  0.9024013306971328 11.8456314020662443   T   T   T
  9.5553556980215095  8.2023163107271735 11.9442513242942869   T   T   T
 13.4046913631722493  1.3399796522665932  0.1926862693483416   T   T   T
  4.0855143126388667  6.4984363127526406 -0.0358289035992628   T   T   T
 23.9682695518838820  4.4385199447525139  5.8094537608211585   T   T   T
 10.7567597766920695 11.6681718640965606  6.1029037838152425   T   T   T
 16.1099499638241141  4.2804397611722411 11.5316840897640329   T   T   T
  3.1443642680131423 11.6250343318938896 11.4203530895740997   T   T   T
  3.9274547747448598  4.2456429711636146  0.3902607628104425   T   T   T
 18.9526841768812488 11.6176652953116353  1.0454230265617617   T   T   T
  2.5204882427588795  4.6082677813888502 17.8128606302539154   T   T   T
 15.3159809678212220  9.9102175441309441 19.3116132584373794   T   T   T
 20.4526446909743207  3.0026028523634469 31.3896807155124229   T   T   T
  7.6500480302184490 10.3783893671805849 31.1934534335400251   T   T   T
 11.9961888934978305  3.3569982298257446 24.7438941593005168   T   T   T
 24.5459429975177912 10.5077974670278849 25.6642359880430391   T   T   T
  1.6738313326714640  6.7731463637655560 31.6626140567241841   T   T   T
 14.2894275509432020 14.2346893704415791 31.6096520447681222   T   T   T
 18.5853709939110274  7.2140683321487886 25.1915282869247399   T   T   T
  5.4789335017771998 13.7757734975278723 25.3115228648271291   T   T   T
  9.8585320747211753  7.2463283740994875 18.7709109779722105   T   T   T
 22.7545546633423506 15.1995706706615792 18.6375269557455887   T   T   T
  7.8627489529053944  3.1935331325587129 31.4065756380460321   T   T   T
 20.3754553584129461 10.2649113365688542 31.7811866109263903   T   T   T
 24.6617492251908672  3.1637841721458382 25.4624823657303310   T   T   T
 12.4106157384134832 10.6639499572788274 25.4767272005246248   T   T   T
 16.9509426235627529  3.4824340751321516 18.1370865679725348   T   T   T
  4.6039783982488371 10.9559430419474175 19.4867031527790111   T   T   T
  1.7699376274170100 -0.3668186528059753 31.3158090895622578   T   T   T
 14.0721315197882149  7.0442238853689867 30.7455500093967977   T   T   T
 18.5466253674091952 14.5184925113757082 25.1039129311827551   T   T   T
  6.1020224909550169  6.7675926176764039 24.6741154179890714   T   T   T
  8.7159059643305170 16.0941439458720446 17.6393207889736559   T   T   T
 21.8096773693405446  6.4159279196913017 19.4138968586498137   T   T   T
  6.3954545179907623  1.4127722478905838  4.7127845861898914   T   T   T
 18.4876917249637387  8.4774152251067179  7.6346278293754768   T   T   T
 22.1775785869965354  0.8670764086277777 13.9683233364078525   T   T   T
  9.1642326880914986  8.2213626299365714 13.9565140261459817   T   T   T
 14.7295329468587219  1.6754060071746264  1.7828711735346192   T   T   T
  3.8628992405509344  7.5397134723014814  1.7550764404111399   T   T   T
 22.9296693274853922  2.4756092504948164 11.2289581131682752   T   T   T
 10.3662063630699528 10.0551692882651338 11.4332582743100417   T   T   T
 12.7540203259760165 -0.4420430270093573 15.1614024434188952   T   T   T
 -1.9426664714610349  9.5126615430636434 19.5947700932943150   T   T   T
  6.5505708902366839 -1.8826837623807458  5.6221651245364628   T   T   T
 18.1647094838511975 10.0847441711394339  4.8858968207111726   T   T   T
 22.8535779390413616  6.3834770436847190 11.2656502459291641   T   T   T
 10.6903257294024829 14.0953770607058573 11.6023437338510629   T   T   T
 13.4895050087478783  3.4487774149444377 17.0656595583199220   T   T   T
 -1.0883774535897606 11.7391978498692104 14.5250612650472934   T   T   T
  5.8173123408518617  6.2204316361325160  4.8820038150466294   T   T   T
 16.0206831946297399 15.5235657731184453  4.5247894260474153   T   T   T
  7.7744340041287661  1.7061079818156732 12.0712428009898805   T   T   T
 20.0683179284421165  7.9111424934167207 11.5319346534128968   T   T   T
 23.5966800305378896  2.0982075489942145 19.7900805172214120   T   T   T
 10.9461521775471127  7.9643134179872543 17.0917129320023697   T   T   T
 17.1750682225232794  0.5361676826799723  7.5814692312686063   T   T   T
  3.0964510833470937  7.6063357649671497  6.3984622932006445   T   T   T
  2.7445562479180201  3.6100784889751880  7.4685472566461648   T   T   T
 15.3460178321010474 11.8208688205918584  7.2693024673443967   T   T   T
 20.2750751665279694  4.2537857103522718 14.4577570399396098   T   T   T
  7.1775498802380984 12.1309843762758618 12.8244416641567724   T   T   T
 11.2172836010658870  4.4802266841262766  0.9479127835730642   T   T   T
 24.9625671144357604  9.3677495368102939  0.4846616974485231   T   T   T
 23.8578853283863239  4.5076874098878061  7.9073788571275498   T   T   T
 11.0461096498743068 11.4805925056837523  8.1929012535050667   T   T   T
 16.9551543079889306  2.5513220425447178 10.7334812723120283   T   T   T
  3.4955460999709360 11.4140640667836664 13.3497514390767691   T   T   T
  5.7275798152487347  3.9435876424072136  1.2997702818171626   T   T   T
 20.7659205110816174 11.9876477347306327  1.8066224978729752   T   T   T
  4.0678259835155366 10.1502221674906750 10.3773192500660105   T   T   T
 16.8102387231714552  4.2073878491863121 13.5270374476402750   T   T   T
 17.8765201267722489 11.1904374205454609 18.0435622590464781   T   T   T
  1.3802928158149381 -1.4416204533943462 16.3901149918042215   T   T   T
 11.6573725111714346 13.4879543179725978  5.4791254871774138   T   T   T
 25.1284901449315683  6.1093446471626107  5.3288686006830730   T   T   T
  4.0361934834879900  3.0724110227556478 10.9192860182386742   T   T   T
 16.5473612312327489  9.6714859193887222 11.6012243336083571   T   T   T
 19.7954405367670496  1.2574026113167092 20.7004544880328289   T   T   T
  8.6537435591219598 11.3352321844264878 16.3740027278352649   T   T   T
 12.8750549218167780  2.9971284061526928  5.5650414992403201   T   T   T
 24.1485410417658777  9.9338588816272413  5.0082839737425680   T   T   T
  1.0001384201111698  4.8541075976002448 10.9683685508480586   T   T   T
 13.5672865978932791 11.3338944140940114 11.3096641823283903   T   T   T
 17.8159119319353003  3.1408296561056726 16.2817788742041181   T   T   T
  5.1146020181097755 11.7593268639381492 17.6401422787274562   T   T   T
  9.7119721228861575  4.1466144790642936  5.0493076785083844   T   T   T
 21.5714424476049800 11.9245156056504591  5.8988778290405968   T   T   T
  1.4976002600961038  0.4163563259445828 12.9498204324193864   T   T   T
 13.4596404049135963  7.3412622076344558 13.6817766619333057   T   T   T
 18.2679529206754445 -1.0201180749992296  0.5553646670754505   T   T   T
  4.1179679709142265 10.6409776492845403 -1.7261564193350116   T   T   T
  9.8280599795562402  0.7249663487388651  7.7144013168940830   T   T   T
 22.2128683097708688  8.3423432393699741  7.8219591348472024   T   T   T
 23.9311902207164664 -1.9198168397986677  2.7121326151599234   T   T   T
 12.9059840489217503  8.3776610953261326  1.7257180543085731   T   T   T
 18.5888485381618445 -1.1917720830693392  4.7966623966652016   T   T   T
  5.4962761665621729  6.5619925760275741  8.1311040815942803   T   T   T
 10.1201619301873240  1.5603073012505391 14.3166944925426307   T   T   T
 22.5606576346636558  7.8533342152337964 14.1741531500859992   T   T   T
 23.4094344345523808  9.8135405851035173 11.4721659544401824   T   T   T
 10.5359470481538864  2.9995493334497310 11.2305563653967191   T   T   T
 13.7026465530578854  3.9887524697361934 15.2436193133045137   T   T   T
 -0.5900480040432134 -3.8329061664634274 16.4373578481370579   T   T   T