Cl48Li287P48S240 E=-2537.297446 eV
 1.0000000000000000
    25.1819793006824639    0.0000000000000000    0.0000000000000015
    -0.0000000000000009   14.5388225279766061    0.0000000000000009
     0.0000000000000000    0.0000000000000000   37.2126966544236950
 Li  P   S   Cl 
 287  48 240  48
Cartesian
  1.0687490313855113  1.6329176641486460  7.0470037837857191
 13.6477247816803313  8.9797649536335680  6.9609761811280775
 17.7913676311053521  2.1584078619335449 12.8538171589015260
  5.3577984333241151  9.5722321545249720 12.6855737448809265
  9.8504940398293996  1.6222240004408064  0.7295995402859633
 22.4875311752708207  8.8631007874057239  0.5936976415918411
  0.1567634488952112  3.6678829289355517  9.2753183649462336
 12.6611007653434697 11.1739801542611890  9.2439125715253230
 16.7390970671958144  4.7947621572125003 15.2553000791528959
  4.1538981356591647 12.0774500918416106 15.2651123350316649
  8.7261316330302048  4.2864758667009708  3.3025630226353515
 21.3182306714823397 11.4489744318993640  3.1859895467836439
  2.5112264669353195  5.6742825439961484  9.2561255581993294
 15.1091240887692848 12.8713306691415603  9.2909417934302514
 20.8246134552878210  5.0295407759418067 15.1821450319859306
  8.2329207751739588 12.3825577248769587 15.2816750920330975
 12.0123927568712539  5.2863808907960266  3.3170624145710632
 24.5598499698102337 12.6028384068337918  3.1727634613581532
  4.3582602057180218  3.6125930914478119  7.0894297298471702
 16.9959303331583378 10.7839004198169981  7.3152127392513009
 20.8911099706213186  3.5334160008279998 12.9292941076376540
  8.3503671994837454 10.9501669719761434 12.9652992606963497
 12.6321805490158336  2.8449657283768151  0.9341462467119338
 25.2530031874381216 10.0913824550330595  0.8671818387587964
  3.0465963376916654  2.1533458759137796  9.3965585126824323
 15.0373160361657074  9.0086609716980526  9.3520410360843158
 18.3414123214244249  2.2505722397931893 15.8861845135599538
  5.9331711667313343  9.4781432564451187 15.8088752775865657
 11.0903739198570452  2.0616066866352996  3.5856962004111370
 23.7489974695334389  9.3503176724324923  3.4797245400749075
  1.0222187774049731  5.5371799147096290  6.8442869783864024
 13.6159416730661658 12.7666507239201401  6.8436696906466317
 17.9701157034497818  5.7613393911755564 12.9486106341413834
  5.3477703136682138 13.1205936836315242 12.9918215009889160
 10.1582127991713520  5.9934031431359900  0.9945102581754144
 22.7121561402363810 13.2892944107177176  0.8017004755987568
 24.1124626525650214 13.1131145411919352 12.8034704544070781
 11.5401459052718618  5.9235911277308784 12.8158106584431284
 16.1564591900579479 12.5165231327601525  0.6600928890928655
  3.5647346161678293  5.2951301887722906  0.6803345334258596
  7.2935433877389544 12.6168758857631147  6.9764172901282882
 19.9822619899652381  5.3176970742910186  6.9906654735698748
 23.0234450372902977  1.1658714007480067 15.2510069762905864
 10.4067893433152516  8.4087664184654738 15.2880100180188148
 14.9789501650460100  0.6155368596068336  3.2427293393100638
  2.4494655642859078  7.8840243732802220  3.2379129609268134
  6.3812943067827348  0.2220635015103428  9.1996393838875257
 19.0584057063268943  7.4634084460228669  9.2460375761394840
  1.8735405928650122  1.4386233942772806 15.2147298569737153
 14.5966805364218697  8.6692759961737185 15.2543115825436502
 18.2881556526515219  1.6610964799976782  3.2643766989028551
  5.7290967821874128  8.9021125174874634  3.2446469670192482
  8.6258638716997389  2.0820851699387362  9.2848059653894186
 21.3779549423027149  9.3234391738009972  9.2505492781213334
  2.0009003566881933  0.0017569926944702 12.8947998632946721
 14.6413755630631961  7.2279287479284218 12.9379428956184785
 18.9148770458410169 -0.7900560270635270  0.9169497857960721
  6.3479337376735065  6.4654724983051421  0.8885259523667455
 10.6886779125987434 -0.0237688568027668  7.3008379915514032
 23.3403397654081139  7.2697869875563352  7.1996949402059895
 -0.4980607295788989 13.1660222933488260 15.8770552808314935
 12.1595855270782813  5.9267692938350702 15.9245742713141603
 17.3689860348570804 12.9618740405108532  3.5477890838110597
  4.8334289519985365  5.7078887646179455  3.4975436831393880
  8.9489230960516135 12.8551874688268573  9.3674980094477132
 21.7820950953758015  5.6809608721031406  9.3533022986050618
 24.2126018744601410  2.1729295898351775 12.9671458063430265
 11.6684995917645757  9.4338306011156021 12.9744596264834033
 16.4592042208033753  2.3757273098559595  0.9691619923368393
  3.8820135742097999  9.6413673297555231  0.9131365267220175
  7.3108726547430072  1.8547012306475341  6.7833329319262416
 19.9427881576769330  9.1466929983802316  6.8017142081631334
  1.0938431122487133  8.8999218843235166  7.0173503918124878
 13.6900356654870574  1.6623205345633754  7.0452401742591393
 17.8356785865135237  9.4867598492511771 12.7794107784087139
  5.2636368275192646  2.2488500004361875 12.8097078975807399
  9.8648198331465213  8.8749456937262750  0.6892518698702265
 22.4218836117815066  1.6445666975004742  0.5357772880691983
  0.1974130034880388 11.3211536321208115  9.2622688743720367
 12.6939722295840074  3.6476472293499698  9.3116072074610869
 16.7612103373141714 12.0567229452068823 15.2637511279967715
  4.0986965221702851  4.8969751055355326 15.2487173852288880
  8.7125098509900045 11.4751433235915155  3.3214285095294667
 21.3205916947696359  4.3501956509062714  3.2064643810373812
  3.0710025115126860 12.5883180133205794  9.2861112351220729
 15.1220247874200666  5.6711029489090281  9.3303344031380018
 20.8278468243049417 12.3015849241276420 15.1809791413484838
  8.1952701621868389  5.1229153431239416 15.2258310114919446
 11.9655163250105048 12.5636778248566134  3.3147887937567333
 24.6289254495788512  5.2644509030731381  3.2191033798396509
  4.3843829223946402 10.8548036135538872  7.0661151198313386
 16.9845578079029309  3.6499192581073823  7.2085093024570366
 20.9176616678936895 10.8082685405630343 12.9340943508130994
  8.3119284477918391  3.5667256924540802 13.0130432930218447
 12.6435076011737628 10.1239392676270814  0.9270706735598049
 25.2086370831008040  2.8461550651572320  0.8617270240749818
  2.8570172175709141  9.2542199409346644  9.3556560985363006
 15.4987480904931054  2.0885112273371047  9.4206194855882508
 18.3711155905083814  9.5001404484278353 15.8624683762175138
  5.7211512026284463  2.3045342919451293 15.8834315800516688
 11.1349873295448649  9.3403727253808402  3.5225607845996776
 23.6085893547672576  2.0631520706375741  3.4527582051964885
  1.0499866504299524 12.8756671441330752  6.8898916788428606
 13.6033936006499072  5.6208218691594958  6.9912660919661649
 17.9491850488083244 13.0562798238947249 12.9709561413318060
  5.3864153787463991  5.8414802118776610 12.9282200601137642
 10.1183833059695516 13.2775435712448093  1.0516552998669946
 22.7768527198974127  6.0212991547910422  0.8594766454105733
 19.9834350659048106 12.5653459630050026  6.9986080115391314
  7.1952246737101238  5.3948836416590602  7.2219851580408934
 11.4807805584944056 13.0824530081809733 12.8646472429696264
 24.1044780416429774  5.8771069853594406 12.7536787746418305
  3.5485971756857961 12.4678001752823349  0.4100832426298830
 16.1347262007120378  5.2165422517405586  0.4941171981739910
 19.0109746486614135  0.1409541192401506  9.2489371779702179
 10.3618821133122978  1.2329416948791889 15.3246720665742231
 23.0805389220470332  8.4012137586635642 15.2521135040003397
  2.3977377527046584  0.5997086076590985  3.1373830361453883
 15.0380270648820424  7.8848715909762239  3.2174422595317100
 21.3532985606754657  2.0365204726220743  9.2596498032311416
  8.7624884062953257  9.0414221742803971  9.4495389404014958
 14.4825109730885568  1.3967482028171150 15.2319024488506223
  1.9573037742648474  8.7082297432324864 15.2174060492978800
  5.6561905557643346  1.6663904445597502  3.1150223092068776
 18.2560500627368612  8.9764395059088660  3.1765394614948010
 23.2975060946740982  0.0086121289750348  7.1796676160177553
 10.2731723172776608  7.2707060403916905  6.7401688901291061
 14.5974704334970458 -0.1368927601862630 13.0014342362993869
  2.0110200299323497  7.2516104038621867 12.8984364455382359
  6.3249752931365411 -0.7802294718787706  0.8450491480959407
 18.9408202289617691  6.4914384851155189  0.8652568445617919
 21.7602446507057365 12.9556312280856787  9.3442616168572279
  9.0311043111399840  5.7653922876075363  9.5022479856867275
 11.8739390890710226 13.1279168188199069 15.8510328697150626
 -0.3590530760467371  5.8298227812949301 15.7871285187224277
  4.7541773496035695 12.9471864865206143  3.3687390058206823
 17.3782316784284880  5.6757809038026714  3.4632776954070397
 19.9155798174680072  1.9028565574367482  6.8341381650812947
  7.0681452255190615  9.1060387958968203  7.1505461943516453
 11.5832694875705435  2.1840230301904699 13.0155010925271366
 24.2202205006019575  9.4354334169044698 12.9384709594718554
  3.8029166839930735  2.4175450463010586  0.6793524107217495
 16.4267199724391908  9.6567024301081741  0.7638120104271706
  5.0960217352060235  1.9755068931012096 29.9520089513110612
 17.6694228175073853  9.2427672907415577 29.9710213252552258
 21.8777403584089214  1.8153779263488785 23.9446350462785418
  9.3166808701793329  9.0870716038138930 23.8818377388719050
 12.5915786126037954  1.1819232161735522 35.8015204185803739
  0.0023685741890460  8.4233073635009941 35.7199618281861646
  4.5913946031256518 14.4892243772226887 27.6695121489057243
 17.1589791364754802  7.2129981668327225 27.6770229404496568
 21.7376798609761792 13.2997390166302800 21.6167466846370395
  9.1798078832290102  5.9433453552096722 21.6831293822373645
 12.6938951975403480 14.0216213220723755 33.6686941512290048
  0.0663699426124245  6.6606424783677731 33.6530874862376379
  7.8232396360911496 13.1315575806475220 27.9776415798674165
 20.3459337111201819  5.8381551276735326 27.9682771526213045
 24.6824091315894911 13.0361755559123722 21.9816687936335171
 12.1107121064119383  5.7558956908683081 21.9656572939064070
 15.8320752526160433 12.5532991431661678 34.1472441954228358
  3.2370812976363172  5.2629949645732674 34.1221014151827404
  8.3980269447242897  0.0308967533573484 30.3838171003262367
 20.9989294193975482  7.2944041583418846 30.3621690030399272
 25.3294415001044726 14.6451425013840595 24.3258040565314957
 12.7032415326653929  7.3448495157345794 24.4110239573494638
 16.5931801042791562 14.9249773231971581 36.4173783048236430
  4.0097773655051920  7.6420349576406359 36.3863418447212723
  7.8646661756865610  1.3997028315942297 27.8766376483585958
 20.4073002730783628  8.6724392495750244 27.8729688018113322
 24.1663022784989110  1.5691802820352923 21.8076224807325936
 11.8277363063601477  8.7344690591382310 21.8627511981004901
 15.5850548647916760  1.7373618420409640 34.0419678052505645
  2.9818576851956533  9.0362236982345454 34.0271208459966061
  5.0892988879776384 12.6468590288205114 30.0123367179283242
 17.6685328960976626  5.3863074195011684 30.0501658226498307
 22.0554678115563760 12.7106851530230962 24.3193953092855288
  9.4938259483894605  5.4300322263020204 24.3431479183560775
 12.7619941969781987 13.1500518353228699 36.2827256232661099
  0.2477343804361928  5.8230002118611282 36.2660603263747205
  3.0172940364649499  5.4651983186962765 23.9610587170817730
 15.5888243793398633 12.7288848718310703 23.9166579066920768
 18.9111255704838648  4.8018521574251229 35.7736519943124875
  6.3106253455702364 12.0958556029906958 35.7369558604636168
 11.3797708215952422  5.6069101355661255 29.9911091873299966
 23.9664118933475052 12.8643926207129944 29.9380751340719051
  2.8865846322136033  2.3730249387541882 21.6417617340226727
 15.4438451319964560  9.6713676195681977 21.6203805241399927
 18.9599161001963381  3.0878756532951712 33.6557428664700993
  6.3754429489329221 10.3680919813462484 33.6527786711721859
 10.8789733281712220  3.5999668551265978 27.7007303407762500
 23.4547439326663749 10.7962395807158735 27.6759450230004589
  5.8156675835249994  2.1464145191914827 21.9711673741841800
 18.3874650339635757  9.4052551377067122 21.9594503838571420
 22.1421060878856188  1.6465491838244164 34.0943370510888002
  9.5431573017868150  8.9357039138338603 34.1303985225864253
 14.0736318540529446  2.2063855077710515 27.9954299751412599
  1.4888031800342949  9.4741386536878487 27.9566020330232483
  6.4535250407553493  3.7539131625867923 24.3355312713868450
 19.0200091896477481 11.0048383169315258 24.3406125938549742
 22.9028212015890347  4.0620595079482182 36.3585455657489689
 10.2995289679505913 11.3093223809062131 36.4219191175564063
 14.6971849200163387  3.6598433915183661 30.3972695158703026
  2.1138703182950445 10.9221979103987543 30.3437842900930370
  5.1844757593420017  5.2201491699425580 21.7638231065581351
 17.9294108965651127 12.4470069793256624 21.7991494438246534
 21.8549439323861456  5.3678597940980266 34.0226396834951146
  9.3057931904785800 12.6604047179582544 34.0232591920503182
 14.1553977153370489  5.0240503273985109 27.9014694448521787
  1.5427170413767610 12.3005780941877720 27.8369877725224946
  3.1846251009135966  1.8050728258738769 24.3307587523854352
 15.7515342140478705  9.0857425103775746 24.3087696822275134
 19.0752330576869262  2.2066668060985797 36.2538943716207029
  6.5153693006786773  9.4712398098531256 36.2566480673905147
 11.3758153758588776  1.7507704158279709 30.0620517882100025
 23.9754028262795629  9.0172490545673210 30.0441472425472398
  5.0863972070234285  9.2377279308871145 29.9697026085605920
 17.6721860942973237  1.9669522595492277 29.9684512814812152
 21.8859085744803252  9.0926596019919401 23.9670319404251266
  9.3084322050059676  1.8338298394354613 23.8977131126244657
 12.5895687528283755  8.4501622060934629 35.7935420136003728
 -0.0120548379656954  1.1811720145088898 35.7255442311470119
  4.5755248455144510  7.2121692173202137 27.7026488660674985
 17.1734677138409246 14.4786049143106759 27.6771951832490437
 21.7090296336845263  6.0684371221220559 21.6341356460989722
  9.1709005861961010 13.2425998208065892 21.6646754603376728
 12.6762636613284005  6.7277818020579332 33.6685885330500909
  0.0665660250962385 13.9876995688792096 33.6194684171904612
  7.7664957890499471  5.8331747917382195 27.9834898033677177
 20.3939798926355955 13.1266588511270879 27.9735481604687344
 24.6554635430117237  5.7778665696182072 21.9756904373789581
 12.0856368816644419 13.0342574999975831 21.9238529868714451
 15.8337027179482739  5.3056265229464996 34.1116891982591710
  3.2445542768213280 12.5804330861609284 34.0600956941822517
  8.4144604098782398  7.2972986458566993 30.3778082888370733
 20.9795420389449667 14.5638622580410022 30.3774917753796885
 25.3366850413065556  7.3776029966011762 24.3201845918621906
 12.7331584764221617 14.6378410410255526 24.3625618466251446
 16.6464854886501925  7.6623984244781962 36.3339111316090282
  4.0354443281538330 14.9198193508692150 36.3039632786415893
  7.8445224541014049  8.6673234154808174 27.8698748917974122
 20.4581959803954376  1.3868163715782598 27.8773500117298809
 24.1092150142783481  8.8547878191558791 21.8026452693699326
 11.6415571454414053  1.5296747828379529 21.8000755525616405
 15.5500190220019920  8.9880395604379189 34.0233063171095509
  2.9659427474824742  1.7251483425887209 33.9821605048494320
  5.0849766936407184  5.3863087223585113 30.0524937850611593
 17.6719558358974886 12.6521128582303302 30.0464871698844682
 22.0521850403074957  5.4282632080218418 24.3204178102514632
  9.4867494218015178 12.7374418243930005 24.3651196224247002
 12.7697161733555298  5.8668078152268359 36.2776869908915174
  0.2008425363407255 13.1060486335540656 36.2336136140681262
 23.9746041828171634  5.6082262775465335 29.9720330449857748
 11.3777927337938678 12.8708197230285535 29.9775614776154029
 15.5860779422551445  5.4383371937840943 23.9336074228051139
  3.0243458627903306 12.7374905539548031 23.8556963875684396
  6.2781260896688602  4.7955820553636963 35.7501435038776663
 18.8619071650162411 12.0594077203755923 35.7744821558773083
 23.4601759738275888  3.6309881830289150 27.6780294288151509
 10.8783581551565920 10.8355884058872274 27.6767539341304634
 15.4387043483820978  2.3887721201745613 21.6326327238339502
  2.8700276536231031  9.5843742120303386 21.6227506295349841
  6.3858037352455668  3.0285218582917208 33.6621548295788031
 18.9490673552545665 10.3061790881563677 33.6686232072851368
  1.4768174712434143  2.2094888351496000 27.9573867899562032
 14.0821875546808766  9.4892300844732080 27.9817015463104575
 18.3833055949274673  2.1285046053293444 21.9647360834468728
  5.7911558466976762  9.3653738927438042 21.9589799321726247
  9.5591929352064060  1.6645792503506880 34.1331616877131125
 22.1283586096955602  8.9230566545044869 34.1114792393245381
  2.1164193435014349  3.6694891603138804 30.3513933824668420
 14.6943666646614570 10.9349687087338800 30.3860152990601478
 19.0235968902642618  3.7258199237264829 24.3377691075377953
  6.4001609672313426 10.9798432175404663 24.3916932937925743
 10.2975446535077317  4.0160856778502900 36.4264820363191575
 22.9110549710583840 11.2418718475072925 36.3426755563159176
  1.5468573775233314  5.0389486744815404 27.8637340899614401
 14.1393791951047270 12.3061572998280191 27.8894077510835743
 17.9206762213184483  5.1763727247647644 21.8019753457665004
  5.5570434545147034 12.3678305572490252 21.8622395504470362
  9.2879651982725751  5.3901364119264246 34.0440907559513235
 21.8606109900627814 12.6232620944444758 33.9934277924938471
 23.9615889329637248  1.7566535192250292 30.0187923482098569
 11.3750727770522033  9.0184437272014364 30.0496974295292105
 15.7638710097564694  1.8076981490259434 24.3179548227171587
  3.1916108346502465  9.0693117346604382 24.3160598165479378
  6.5323147716451695  2.1947029125952859 36.2818593288202393
 19.1457761397294384  9.4736607425311945 36.3077245459602409
 -0.4945462384601235  0.2711786779909162  0.7818243901656166
 12.1185345924482206  7.5557728240137516  0.8805889656125423
 16.7965728659566835  0.0321904398818216  6.4219635105057868
  4.1555906437214114  7.2943373614476084  6.4229587331865501
  8.3270036434688492  0.1959312972822257 12.3413220085110176
 20.9562388451412609  7.4223855201495939 12.3639930044480515
 23.1140323634361344 10.9676139812129829  6.3737950587711971
 10.4700934839039856  3.7078487724466949  6.4918513233248616
 14.6746409870092460 11.0398193789940429 12.3561113333235735
  2.0266196971702102  3.8470283773740190 12.3862571275450630
  5.8678989467494631 11.1782679591961145  0.8196050395894193
 18.4383189800163869  3.9059857909227844  0.8397930213381513
  4.1837069645269755  0.0571062672757665  6.3132597132094084
 16.8246120011384903  7.3163926389670504  6.3871007666355499
 20.9476570362486711  0.1561414624233734 12.3575557391373287
  8.2898583380066242  7.4944089237939941 12.4661194656161101
 12.0633191424270265  0.2818780065209935  0.8751498390266349
 -0.3933552670920206  7.5353509447633522  0.8237133140122620
 23.0959760105573615  3.6828186606697755  6.3679717660467414
 10.4206587081261652 10.9341627898840272  6.4602514399467115
 14.6326946153604140  3.7925526043022071 12.4130418027798797
  2.0578011522043527 11.0863025476874686 12.3892847511521875
  5.8352316127027466  3.9121657456496663  0.8409528121937758
 18.4195778906980543 11.1765364014548876  0.8502147264314223
  4.0932548532031205  3.2218739589140406 18.9631026526171276
 16.6152669289868555 10.3963813155427118 18.9543616010406843
 21.0269114500423981  3.6360863827208019 30.8383238527633274
  8.4356360925714640 10.9045872721677171 30.8429883545109078
 12.6912008789450645  3.6086214504683114 24.7863278389669190
 25.2708332868230947 10.8770460462708947 24.7510395220070691
  2.1382190791298430  7.2687931437044639 30.8511035978976871
 14.7379972184317278 14.5362413562806303 30.8552671851001321
 18.9620449258697441  7.2439212106476631 24.7614494559705456
  6.3977042364338628 14.5257263045540839 24.7782642040371961
 10.3425719457324554  6.7480592298085700 18.9903014387543010
 22.9638991668747110 14.0437800440980460 18.9484891705506797
  8.4344758722782665  3.6363767135220737 30.8574544235730848
 21.0226005749537386 10.8958100386925700 30.8373631796056493
 25.2589233195805356  3.6164809586655906 24.7594390239769808
 12.6860957237576635 10.8933181768631648 24.7728450304694938
 16.6216765580136610  3.1307877011870646 18.9614372862468841
  4.0394794540145575 10.3607953919212630 18.9371270849398847
  2.1367910529892504 -0.0026830635421981 30.8038941198763823
 14.7321027360667749  7.2735755556605248 30.8503821669886626
 18.9713695235852029 14.5142346935176683 24.7667943314079295
  6.3883463367882136  7.2388375666259011 24.7718593667518938
 10.2660227345030961 14.0987675854703163 18.9903531581461493
 23.0028087480152266  6.8099322103216204 18.9363825769935055
  4.0879624462524395  0.1295187264030932  8.3822389219324087
 16.7903628515875134  7.4228988278833334  8.4373608085102898
 20.8905913590369572  0.1835649930102742 14.3897243961817409
  8.2120478045338263  7.5500458272778843 14.5151480274116427
 12.6177335158891690  0.3209954047365411  2.9268942186093976
  0.0817779443280952  7.5799451898896351  2.8793060515944351
 22.0030884209763080  1.7692598324466433 11.6117239287936638
  9.4327185568813761  9.0863993957414451 11.7666679197027051
 13.6767280899425945  0.5874685286909225 18.4578177224094766
  1.1633589496665520  7.7873218944127300 18.3169856476463409
  5.1543014389818289  1.7144925368001993  5.5587919973106619
 17.7747598273159824  8.9782678809016190  5.6052965276214124
 21.8382376529143301  5.6551542132320103 11.7230005406044100
  9.2464451846944549 12.9830290118333043 11.7128552932778387
 13.9209011317414415  6.1018366750624695 17.7630630210426830
  1.3279539634751272 13.3183482918610050 17.7893426982349006
  5.1545759905902591  5.5869250180348349  5.8243505100976112
 17.7636153577090248 12.8402563009434978  5.8889429555199992
  6.3844558442402972  0.2965025850478462 11.5931136371103669
 19.0116778571402456  7.5373528679275923 11.6403539519651389
 22.6648419314226821 -0.6853249448461363 16.9455711149735109
 10.0535197033386972  6.5799310364503008 16.9837551614476503
 14.9105874626202777 -0.0137947546414722  5.5843928431337995
  2.2782616853412287  7.2344568566677250  5.5419612891371557
  2.0831251306582366  3.6673579994403025  7.9283264941230351
 14.6436121301348852 10.9181090371205887  7.9553499156999905
 18.8299134043029532  3.8982236558363188 14.1688526075164010
  6.2676080213944632 11.2407591866399592 14.1717811654672534
 10.5453232242442816  3.7977601596600468  1.8147862949519169
 23.1489325713448615 11.0516780661272520  1.6896520673217001
 23.0241248036076342  3.7530334080385237  8.4321885816291164
 10.3303683607966317 10.9910885291243154  8.5152825969971602
 14.5718440588486242  3.8322969200387487 14.4454029554198193
  1.9847210446860151 11.1186658959782569 14.4198663022580043
  6.3789330672331976  3.9698891700046501  2.8783825233112625
 18.9438526681240447 11.2847217546610405  2.8949252176530589
  3.1165239718152837 12.7154223290891579 11.6718674881278766
 15.7291519628482881  5.3833044586542664 11.6748626442225660
 20.0104088872694099 11.4790371680857088 18.3959281327738857
  7.5315042104340515  4.1657127053906988 18.4430838823330348
 11.3971504935739176 12.6007096157645062  5.7076911487638018
 24.0463538226539910  5.3531578152431241  5.6157684436254947
  2.9573170876786565  2.0928221699833438 11.7717259188314056
 15.5775576377443130  9.2925272523334375 11.6969258189312111
 20.1681427202299517  2.3972505045237793 17.7455194944613233
  7.6254891922477173  9.7101386379705694 17.7922813427834079
 11.4633733810673899  1.9907012598424356  5.9315328117969166
 24.0937339655372256  9.2470058546551019  5.8199887410721596
  0.0877328767152262  3.9297134624677765 11.6371381372073337
 12.7267396340657211 11.1662611105529042 11.6378025448150701
 16.2822378973610746  2.9746167318851833 16.9601795355141185
  3.8043684781656180 10.1859357756325064 16.9262220039261244
  8.5946566893766185  3.6906880839298686  5.6462341645584759
 21.2198629028865433 10.9076931707048512  5.5501180138360242
 -0.0599887537864389  0.2952918843294966 14.1538248157348185
 12.5523458498476490  7.5833838463822776 14.2033557112836704
 16.8272291209218636  0.1619582344241165  1.7767443820166948
  4.2638722678342464  7.4326595166185871  1.7361323945988292
  8.3481506834229062  0.0448231906308227  7.9283711643997945
 21.0011137659992073  7.3161269158322142  7.9139951436982274
 25.2039830126785667  0.3774980150025243  2.8266351812123727
 12.6611856377398411  7.5821233071001721  2.9263361466649975
 16.7001370245999716  0.1404214608199930  8.4800152542720149
  4.1466332432836381  7.3894648696109471  8.4465561193063667
  8.2408129156347396  0.2270498789864506 14.3721179143347904
 20.9160064484299504  7.4526619736559798 14.3964762064320038
 22.0119400321428920  9.0316063421841548 11.6097098354118238
  9.3700146278320702  1.8185830699398289 11.6083999458973022
 13.7274891850085652  7.8816637008564880 18.5290857249310612
  1.1798521810897140  0.6031915957326232 18.4530319070439646
  5.1217693028463067  8.9431128571568159  5.6126023212479090
 17.7534793813681624  1.6967113962235003  5.6576097121246161
 21.8423155421891195 12.9361046530438930 11.7151746044934626
  9.2410469015188603  5.7264449474078987 11.8895952247355510
 13.7669297630857486 13.3766304319144265 17.6134340230569535
  1.2674762840859735  5.8885877692276196 17.9044963759593863
  5.1538458914456493 12.8930454717898861  5.7139259921776651
 17.7962855322936804  5.5959508933040381  5.8061420752178545
  2.2847593158706800  0.0304138429678229  5.5149175880641890
 14.9248341108918083  7.2631901160315282  5.5767287084339952
 19.0004331910192370  0.2720225472316086 11.6356104113472441
  6.4474105279290050  7.6032178817606528 11.6038640171760932
  9.8802100949593594 -0.5776880362355433 16.9939661308749024
 22.7967235211982455  6.5607252901971407 16.9320295329123311
  2.1013443232838958 10.9433087712844461  7.9095957618156314
 14.6588687597959613  3.6878795085370828  7.9725224615009953
 18.8497170797078226 11.1789288624770151 14.1614879264513629
  6.2128777515076417  3.9650494494971786 14.1920065569198819
 10.5333060282475568 11.0526503033984653  1.8035184136957068
 23.1274553891206942  3.8140282117255486  1.7022883243050859
 23.0477918571303597 11.0620360525936157  8.4351198083094783
 10.3708066271601478  3.8044787284638630  8.5441225243250862
 14.6267557969095439 11.0714893753796098 14.3877768729807070
  1.9246954285512192  3.8834016474604334 14.4211402601356422
  6.3567457776841723 11.2071013489198226  2.8700370518426541
 18.9613441726640986  3.9556126555760347  2.8838618266566924
 24.0695546968165104 12.6168572690336571  5.5917194312036482
 11.4824389766653621  5.3523334938938225  5.7216375835786089
 15.7293186868031238 12.6685276055028133 11.6363738455011578
  3.0898192040028851  5.4421387220883854 11.6296329902237368
  7.4296036995287951 11.4975282122721989 18.5331761219539892
 20.0193565012808357  4.2230459171239110 18.4043203456494879
 24.0812071029885182  1.9841651039845216  5.7801791598206416
 11.4521615318210106  9.2429886728842785  5.8599368746239149
 15.5115905660710443  2.0200495165787622 11.7827710639509871
  2.9922674681810948  9.3525492120649005 11.7454470449356627
  7.5965283037767604  2.3691482358796603 17.7012155327625322
 20.1753542811809083  9.6379190236949643 17.7842187078524212
  0.1189770798766232 11.1964171767595655 11.6435722919049898
 12.6898665942098106  3.9329344907956734 11.6868853475374355
 16.3128173793439046 10.2340245638460985 16.9441950621832547
  3.6598283692732689  3.0635220994970909 16.9846720182942157
  8.5393844850781129 10.8516684761035389  5.6445624407337451
 21.2041095790676657  3.6365289526182210  5.5415482053172962
 20.9507799756992554  0.0475808065026482  7.9124143067189872
  8.3510471808632083  7.3075432743167861  7.9419615786808491
 12.4856168245227099  0.2867156493029379 14.1886082902844475
 25.1392207641157697  7.5685390078819452 14.1147373515629901
  4.2028315730404273  0.1465850897819924  1.6246770208049572
 16.8418818678841617  7.4337210177097433  1.6876491360409707
  8.5795225044027603  3.6291447694818406 28.7925521928652408
 21.1537791530410431 10.8855694567919787 28.7718810020333819
 25.4188918409227078  3.5527144959734280 22.7153990471818474
 12.8710576179779057 10.8401830063417250 22.7313021550438741
 17.0196555144582362  3.3587290531513250 35.1218392083407167
  4.4188453386708719 10.6480442524202328 35.1201688624928465
  1.0526766965282226  1.9955718842535188 25.5961716774798127
 13.6463547042182967  9.2640554018317882 25.6157602662992332
 17.3022143451563082  1.4625693127777533 19.8469788369616751
  4.7365480720764390  8.7061668431335022 19.8353600954617981
  9.3568849418843811  1.9561633333612025 31.6330431751744001
 21.9543034588627073  9.2201717640315053 31.6136667279400321
  1.0170505853476051 12.5861794033137997 25.4444549343800901
 13.6110258201286403  5.3169366333437322 25.5043892687562632
 18.0623695889329063 12.0025503240824492 19.2191205887614025
  5.5770262166280284  4.7841994847158622 19.1958295241049370
  9.3676652762818335 12.5910687704589446 31.5809487392491341
 21.9607973867580668  5.3202552102698739 31.5822528017933024
 10.7027192507311000  3.5387386259200855 25.3503235391970243
 23.2812368111177825 10.8220442501695189 25.3267081158723819
  2.6251086018516951  4.1581620722364665 19.9884590392976840
 15.0617054944405755 11.2596479789623327 19.8740206578901244
 19.0208062256658010  3.6482090366543001 31.3455252789668393
  6.4253155416834371 10.9232608806387645 31.3407008899978514
  6.3238745296480312  0.0291791648895193 29.1989457820352385
 18.9015491096400510  7.2958119807026129 29.2046548634517329
 23.2365651536444027 14.4702572585871234 23.2077764756068667
 10.6717515847435571  7.1783036414698511 23.2216895642925181
 14.6234196937721457 14.3498421842719246 35.2544151915021189
  2.0311267154252959  7.0760800558417181 35.2076885858094144
  2.2832980552766911 14.5283477624794237 28.7404718315684065