Li P  S  Cl
 1.0000000000000000
    25.1819793006824639    0.0000000000000000    0.0000000000000015
    -0.0000000000000009   14.5388225279766061    0.0000000000000009
     0.0000000000000000    0.0000000000000000   37.2126966544236950
 Li  P   S   Cl 
 287  48 240  48
Selective dynamics
Cartesian
 -0.9441552407288214  2.5970561814758852  6.5296412534231862   T   T   T
 14.1504439320013695  8.1497956904009783  8.5712309984728119   T   T   T
 14.6799833949476195  2.6463248283524350 16.2217199812128463   T   T   T
  4.7099877747017578 10.4400920763583080 18.1040707478474445   T   T   T
 -3.0425848360311769 10.1161811523805945 -2.7461589039615459   T   T   T
 20.6672561647222288  9.3470987278240436 -10.4946365143977509   T   T   T
 -1.3440419981553002  8.4921180721918681 14.0451374561042641   T   T   T
 16.3349053828673583  9.7152524960094659  7.8421898074469922   T   T   T
 20.4506739677187461  2.1465272775845277 15.4138140718935297   T   T   T
 -0.5028126241904222  7.0659927720434954 19.2363017045336910   T   T   T
 10.1216216823592475  5.2675992158700362 12.3112085895861796   T   T   T
 15.6852761928485371 16.8090098632737863 -0.8777512019136929   T   T   T
  2.2127696122189455  0.6668137005472736  7.7896363428011766   T   T   T
 14.5420550313798316 12.3843555623455153  8.8226388975391874   T   T   T
 22.6209007633197920 12.0016981887499696 16.0762081783424193   T   T   T
  8.1802102485054995  9.9248183253573750 21.7532370386304983   T   T   T
 18.5497813233404116 13.4406912132152989 -3.2601606907530130   T   T   T
 22.3371746890480125 13.7335605732316886 11.7673835220450300   T   T   T
  1.4803240343310378  4.8951073272393346  4.7005799631025251   T   T   T
 18.8582608069172721 13.7691728897672299  9.4471041754986089   T   T   T
 28.2784438220599839  4.0094896181325863 14.9196529182643047   T   T   T
  2.5170197639722245  9.1868113254697406  8.9826741673419335   T   T   T
 13.2720839958702967 -3.1193149290378210  2.1178776505810952   T   T   T
 27.4293086631386771 12.8443004866490789  1.6695256327733874   T   T   T
  4.3536527570825534  3.5540601236382714 -3.1567794181434103   T   T   T
  9.3871024878752394  6.1763040358600625  8.8388207315061287   T   T   T
 24.8364718079437523 -0.3095536613914220 10.7718864924865514   T   T   T
  8.9521884212536822  8.4959739870020989 16.9415478901102929   T   T   T
  3.8973564488840018  9.5114094920526675  2.9810571846945928   T   T   T
 31.9114760284719026  8.5439367782854738  9.8499351197224385   T   T   T
  0.8072622444091319  5.3622052046998432  7.9354505038875232   T   T   T
 13.1937504133367565  9.1765860748973047  5.5564750677388712   T   T   T
 20.1957674599770840 -10.1091036106020020  8.6085805962986015   T   T   T
 -1.2027997385282001 20.4666669128355352 15.8542267559380239   T   T   T
 11.6447791183732452  4.7531186402616905  0.0046752458678488   T   T   T
 26.1826885231612039  7.2381165076419665  2.5050332727754303   T   T   T
 32.3836769987970996 16.8841164794427741 13.7549874900231437   T   T   T
  5.4467102458414036  6.4708327118009281 28.7711663011466925   T   T   T
 16.3480436223079693  9.9228765879722935 -2.5028424038082249   T   T   T
  1.0770872565668150  2.8422106135456895 -2.6402349687510136   T   T   T
  9.4329825245179322 15.5185840954737309  8.0118488875771554   T   T   T
 18.2794576796714878  4.3284791186161566 12.4732157508273183   T   T   T
 31.8135945446679571  1.7824110664862667 17.8269537864141547   T   T   T
  9.5682380461683998  4.6435002936282306 14.8876723471669443   T   T   T
 16.9215275368684921 -2.0309800781019081  0.1208149241431164   T   T   T
  2.9277443574727475  8.6782576367823268 14.7898819686981007   T   T   T
  8.0409735480500988 -2.0653286011478338  5.1668012074268752   T   T   T
 24.2990564480355395 10.8753298667417759  8.8251728040010953   T   T   T
  3.0074575252868523 -0.5227642597564249 28.3557857047194517   T   T   T
 16.9397646418041035  9.2999841201226445 15.6107607000987745   T   T   T
 12.3711192506983974  4.2551788828937882  8.5433422365496696   T   T   T
 -1.3273148971034427 16.7187001276960991  0.0023757331648380   T   T   T
  9.1988483128607275 -1.7432690356595284  8.4632768598701773   T   T   T
 21.9190957742752417  6.3912160684529731  7.8429042173192371   T   T   T
  1.6838927170140119 -2.3802553948466443 14.1924545969482079   T   T   T
  6.3570891067660336  3.4474605905196762 10.9427327363186553   T   T   T
  8.3601121724455432  4.8360957982266886  1.9847683824655351   T   T   T
  6.6530211936307149 -0.0372726155139048 -2.6975968578809177   T   T   T
  6.3037919568722263  0.0153302808625898  8.5917640273223128   T   T   T
 17.8789322100287009  6.7664064646085365  8.9142172239582571   T   T   T
 -4.8151179233318908  9.1365305695440533 13.7635672926195571   T   T   T
  9.0441625687690408 11.5159587131992254 18.8906140619195710   T   T   T
 17.2576092366076992 12.0639981616518419 11.6613876312743230   T   T   T
  7.3116236793029428 -4.5095704653184931 13.9141323192798083   T   T   T
  7.3295757980520930  8.9864892029436056  6.7114309619582393   T   T   T
 28.2306243637724705 10.4781308296144005  6.4895386103778003   T   T   T
 19.5857010204236879 -2.6985042291821260 13.3343916109066907   T   T   T
  5.7607139265589860  5.4197883631515005 14.1763053154537566   T   T   T
 20.7354045323060525  1.3887869185931025  3.6455484215229461   T   T   T
  9.5487756861314885  9.2087326714738005 -0.2608329423298657   T   T   T
 10.7553959006426343 -0.3154737305551925 10.8558594539313198   T   T   T
 19.2746682198637060  5.3445556795314548  5.6050023442832275   T   T   T
  4.6030663135821497 15.9604634776023566 14.1956691708632139   T   T   T
 14.5894181078966501  1.9895074144683724  5.2711038843016231   T   T   T
 16.3008590750152003 18.6136888840124648 13.8974255524538215   T   T   T
  4.2200116729555903  2.0222822638700855 11.1176305014237560   T   T   T
  8.7437009274267083 11.4204578372018233 -2.6797742148900570   T   T   T
 19.4981398874234415  8.4165927950937771  5.9360811766469812   T   T   T
 -2.8431804766693505 14.8518802719943537  8.5353893776530416   T   T   T
 18.3393818203868122 -0.6834792265775717  1.9811339431476218   T   T   T
 21.2324404007045615 13.2087406316475509 20.0987932278131645   T   T   T
  1.6257226132266713  0.4096960157380919 13.5349877302721051   T   T   T
  5.0286710618002406 13.4995494778401834  2.2998049100663422   T   T   T
 20.3451049679357823  8.5878202208370347  8.4028623368539535   T   T   T
 -0.1373859009475088  9.6254074406485692  4.6823874396950869   T   T   T
 17.7169149325563353  0.2611687753734623 13.9851774452324449   T   T   T
 15.7748373481214372 11.9885400492469252 15.0750643844632641   T   T   T
  5.5644091465965619  7.9993951415486206 18.3755700927700403   T   T   T
 11.6762674721176634  9.9131093611088907  8.0768333024984482   T   T   T
 26.3411709129102007  2.0761873408118299  4.8226126513783996   T   T   T
  0.9235182149553125 12.0959267201429341  6.6958900711780496   T   T   T
 12.7500735515341930  0.7169357781259826  6.4975372681907491   T   T   T
 16.9956685204751210 16.2954682900220789  9.7457558124118613   T   T   T
  3.5243640021301377  3.8141986103166778  7.2376089071483998   T   T   T
  9.8871706524698997 12.6139752772590334  2.9650209533979983   T   T   T
 34.5606308994123026  1.5883731538538421  3.1608631615724958   T   T   T
  2.3998728527096111  5.1803557772486126 18.1133816809292583   T   T   T
 16.0625259361014976  4.1278608125529166  7.1644437536816508   T   T   T
  9.0316437928536697 15.4931354928694347 19.5253481220095466   T   T   T
 18.3993529591063663  4.4017792587497775 20.4883891929393549   T   T   T
  5.2938156309086297  6.9382800868603045  8.2116977117262984   T   T   T
 23.3268807430062175  2.0465979967196679 -2.5527785629544302   T   T   T
  6.8305663762837501 11.8069259628124854  9.1586681464327491   T   T   T
 13.2599588578110534  1.8112660503836164  9.1319518389563932   T   T   T
 18.0900220606164872 12.8766645466964640 17.9112236861949370   T   T   T
  9.6226664240522357 -6.5538531845772274 13.0545591281414151   T   T   T
 13.8977875188050035 14.4515658210562776  1.0018133532622022   T   T   T
 25.8561468595849604 11.2171266693998604 -2.0433800831118929   T   T   T
 19.2064925135118223 11.5385498369860677  5.9217413166787995   T   T   T
  7.1652305532898488  3.6176226976854329  7.6099863824295371   T   T   T
 12.8838029503722602  6.4656231913890005 11.4062242207202740   T   T   T
 23.6109597381581757  7.5243687342836267 11.2033235062157459   T   T   T
  8.2352359069816092 17.5403520469819796 -0.4490244084482993   T   T   T
 13.5712097747019023  5.6670285895950681 -3.0127397843483932   T   T   T
 21.6567250091825407 -0.6085115945407027  5.2877454214209942   T   T   T
  6.4554195997830721  6.1779452018484520  5.3890353035778462   T   T   T
 19.5667264690254505  4.5234784679362097 15.9641745587235544   T   T   T
 24.5130451583419564  8.5159306726527113  7.1149684516564120   T   T   T
 -6.7358848265364175  6.0608028999525612  0.9076586782284459   T   T   T
 17.0094944353909092  8.7940193999937506  3.0614426749551309   T   T   T
 19.0328964553162727  0.2848963442387009  5.7046727609764787   T   T   T
 12.9215971631120770 -1.1919058973366674 15.1619957369730649   T   T   T
 11.8055820885913700  1.6971844041443331 13.1405163150421664   T   T   T
  4.0672104823182975  9.5282903738121227 -5.0945358629246851   T   T   T
 16.9488770269281410  9.8759169413107308  0.6620488819617677   T   T   T
 22.9567161848401255  0.7462948336900214 18.1474937579542654   T   T   T
  3.7737247935788143  5.1802666551596248 12.0707775512704050   T   T   T
 13.9040526737689234 -0.8387124395007431 12.8925968802925190   T   T   T
  1.1508030152650106  7.0887897328429945 13.2382889752741288   T   T   T
 -4.4126886759409638  3.3577446609995518 -2.4316792933523197   T   T   T
 11.7596836956024564  2.9487325611269850  3.0991987560281982   T   T   T
 21.2111064958574040 11.9028657816770824  8.1775555697093782   T   T   T
 12.9232069961318015  4.1163432699998683 19.1970168443307365   T   T   T
 22.2913981796632008 19.6542766818218801 13.3258616566651273   T   T   T
 -11.9933925512569584  5.0129442065415564 14.2225826138644553   T   T   T
  6.6266882546007118 14.7570548331127114  5.1618798799930676   T   T   T
 14.9408944484298587  6.1844063259696549 -0.1787835250936703   T   T   T
 22.0503598701971448  6.7866263252543630  3.8193490355865509   T   T   T
  4.5455116000981990  5.5068122677263709  2.7089168336776948   T   T   T
 25.4423737976160496  4.4678889085130864 14.2204574819375349   T   T   T
 29.2418891410967667 12.8037617144357831 11.8810933277495181   T   T   T
  1.3238245525996619  1.6512082387895080  0.6976190339090862   T   T   T
 13.2691180009318099  5.2947214794965003  6.4068281716316857   T   T   T
 17.7234148019666868  3.8831170458359359 24.1936404698568417   T   T   T
 24.8294359088350802 12.7027109290912108 28.7031546359159364   T   T   T
  4.4433740617578099  3.4969419900076173 22.9581440265495793   T   T   T
 13.1115156888817630  5.3902118829748922 22.4736097067253588   T   T   T
 17.1529392058803083  5.3483060643504849 35.2147916994510695   T   T   T
  5.7163372505108878 15.4536045481361413 31.7510626345076119   T   T   T
 12.3103972033015641  3.1253309866050660 28.7631900270794887   T   T   T
 24.7115208611372061  3.8577668292364109 31.6949197343398268   T   T   T
 -6.9921256223124448  2.0951390468899085 18.3285676091192435   T   T   T
 10.2473223505296804 14.8068634096884004 14.8269169693708722   T   T   T
 14.8496236902698833  9.2186918470665553 37.0008391423326799   T   T   T
  6.7968371046335649  8.8971349297051496 29.7518090912084645   T   T   T
  9.9148792929590357  6.0497458896754051 30.6521731598589895   T   T   T
 19.7327432640249327  6.8745068144644588 24.7739623179914865   T   T   T
  4.1872679050891408  5.7231844090710418 23.5966136437797438   T   T   T
 10.8269742522265577 11.4579436580007474 12.3699697538220637   T   T   T
 20.9500515434065342  3.2775622543500575 37.3311864132925848   T   T   T
 12.3286412073845675 18.9324368231107201 31.1901045494681419   T   T   T
  8.7995671825651645  2.9426204259766275 28.3050823383152235   T   T   T
 23.0499731198970501 13.4051857181229153 32.0926973488725693   T   T   T
  3.3252649714140254  0.0738833966539330 17.3241796518682456   T   T   T
 22.9517799838057464 15.8357901489009230 13.1854446239028107   T   T   T
 20.6481607989346578  6.6123438104955099 34.6665327406085453   T   T   T
 10.4656582320748779 13.1713055900092399 28.6702266329072941   T   T   T
 13.2633046181101815 -5.3512468329963268 17.3612676251312230   T   T   T
 26.5153079082274701 20.7426526046910311 25.0115956238704271   T   T   T
  0.2388965814307951  5.8445047599163811 22.3066087014526104   T   T   T
 18.5558731333795741  9.1359950549925557 11.2664237399521827   T   T   T
 20.7440104350178736 -3.7915238434155372 39.4498986699585927   T   T   T
  2.1354512664958993 10.0183154969892598 37.2746563375316740   T   T   T
 12.3126655494183659 -2.6941752504049479 32.4930121978954674   T   T   T
 21.6268207840537592 10.4465305897405578 30.2416913839296164   T   T   T
 -0.9263354664539664 -2.9175243141740008 13.3015504705783574   T   T   T
 18.9250605660918438  9.8760051252976879 24.0764338951618910   T   T   T
 24.1637073843613521  3.5531328217193954 40.8724969739273831   T   T   T
  1.2840464948177297 13.8002395731294740 36.2627604705263451   T   T   T
 11.3191095810834668  8.6320112361828336 24.2736778560414272   T   T   T
 21.4575271364055808 -3.6075004006674884 23.9223421155025555   T   T   T
 34.6769893370767193  6.4033421189533408 43.5962227209650806   T   T   T
  7.8772698583325287 -0.8796751437782045 37.9145671832602744   T   T   T
 23.7090409451055386  9.7465416950422856 28.8089617766795598   T   T   T
  2.2181061791679988  1.8298599477490833 29.6703913917857776   T   T   T
 10.4094587875413289  4.9248420655839835 17.9597782246454258   T   T   T
 19.0988282428027425 14.1194290184790034 22.6060544120238625   T   T   T
 27.6092000177296661  6.1850091043890174 37.1818076589966111   T   T   T
 11.3385384314337099  1.3791618181584293 37.5029857215645279   T   T   T
 15.1144076448119069  0.3760972214283037 28.6475051722329859   T   T   T
  6.2279751061760544 14.1165877941546754 28.8262114151028399   T   T   T
  8.5556361239316878  4.7646869449206397 22.1015678168930698   T   T   T
 12.4839202427070859 12.5075111441481184 23.8303021876080017   T   T   T
  1.9917459603828607  8.1232715958830788 33.8827452741835486   T   T   T
 15.3599747838080525  6.4701574061377745 29.8180720449417933   T   T   T
 17.6621351062968195  9.2731165589506723 32.0432148367091969   T   T   T
  4.5376084640626768 12.3867197344197528 30.4922486736936698   T   T   T
  0.6137180670204947  2.7444637419698110 23.0337986719735852   T   T   T
 22.9108625565976212  7.8486168836227064 25.2161397959588705   T   T   T
  4.2446655286086195 13.4829999225643000 36.8816639830700126   T   T   T
 10.9671468235420555 -2.7909923581712608 37.6410190952589616   T   T   T
 21.5830537815280330  6.9273026996935698 22.7351158901177435   T   T   T
 10.2053495660569844 17.0117940723205123 22.4933864279530411   T   T   T
  7.7085563096042709  7.9154747616614882 27.0058959259397433   T   T   T
 19.8312570445442198 -0.5767156605833454 25.8169733196459106   T   T   T
  8.8309526210488425  4.4243597323671251 33.5064566717216721   T   T   T
 12.8451648183608249  2.1854645791421534 34.2695436200915182   T   T   T
 16.0515777692162693  6.9192997453971055 32.1987978760440257   T   T   T
  9.6532367223151869 -0.8334603216140641 22.8849763142333522   T   T   T
  6.4877234620541149  3.6592210726757277 20.3336217744837207   T   T   T
 21.1717149433165446 16.9368358457867210 23.4550818134264532   T   T   T
 14.7284423802633082  7.2812279801776327 40.0110890053697972   T   T   T
 10.3148116317620726  7.7450505592767840 39.5189959118909044   T   T   T
 14.6103330557938005 13.9121003784092139 25.0212097076383841   T   T   T
  3.1701153633036978 14.8857633215572349 32.1498745340323921   T   T   T
  7.5186341360104514 17.2501881981201244 23.9843393364768502   T   T   T
 30.4610709764968348  5.3208172301427963 36.6227878375183309   T   T   T
  4.4160284114645725 10.1189060799135646 23.2157896200790610   T   T   T
  9.9417176275021788  6.6055854862886898 20.2434788586683823   T   T   T
 17.9378804592899748 16.8395300629451121 32.2818576218850879   T   T   T
  2.5852122477576041  6.7462839013742526 29.6828292361333617   T   T   T
 10.6335186074275114  9.5927634411294029 32.3052156625678109   T   T   T
 23.0527150208208980  1.4945245416472468 29.5884145208114084   T   T   T
  5.0723481084893356 13.2498646532923772 20.6666832761597732   T   T   T
 15.0704181555595103  9.2515709530892032 24.8112136807462988   T   T   T
 15.3707947707719548  9.3703021365480339 30.4015622954534948   T   T   T
 14.8177747782185456 -3.0967010052762456 42.6267678498612881   T   T   T
  9.1942672535195200 16.7074448423538016 30.8879869950748613   T   T   T
 27.6986437981580416  3.5140260232304921 25.9195336139170465   T   T   T
  5.2847760244824906 12.6831013400372896 23.9410388986238409   T   T   T
 15.2984154359413527  6.4244524863712540 24.6712570512552034   T   T   T
 19.3247558337520466  7.9377615083505004 30.3276737093766293   T   T   T
  6.5004037553794491  7.7730845846092596 36.3869639592088419   T   T   T
 12.3748831122060370 10.3060496188297392 28.8530057368801387   T   T   T
 21.7402125506283781  1.4231772168330021 26.0594336284809813   T   T   T
  1.7711282978792859 11.7464593333390752 18.8440576268693647   T   T   T
 17.4759748290419239 10.2686226018137177 29.0502233431287422   T   T   T
 24.9294855249343819 18.0621806650352887 27.9743798067745857   T   T   T
 -0.7352396958609829  8.0209934017806148 34.6739410678923861   T   T   T
 10.5750643446736259  5.5817732351786002 27.9069743585008680   T   T   T
 22.3762950807187266  6.7371755259362383 30.5570621883045526   T   T   T
 10.0179543227767134 16.8365438961460185 16.7762030790959606   T   T   T
 16.4021882944277699  8.6948598738835337 12.4808243633510738   T   T   T
 18.5141709808163313 14.2891184430588645 28.9788066956189425   T   T   T
  4.5214605336499964  2.5168371257259152 28.3494016081575708   T   T   T
 23.4073121192360425 13.8278452988921856 23.2937000163377164   T   T   T
 22.3569713306896176  4.8047468165286968 27.2959161106615120   T   T   T
  7.4072170848486119 14.7350426482450096 22.3029842432405339   T   T   T
 15.6087242664925263 -3.7689050264333304 20.9951694363829304   T   T   T
 23.7735700902755731  8.4395177837301603 37.4620106904661583   T   T   T
 10.4209209410194301 13.1166538191509865 32.3210076302957532   T   T   T
  5.5317932404349808  7.3892137845924317 32.3897280988903518   T   T   T
 15.4581657500787166  2.9241925718887871 30.3157182292796286   T   T   T
 27.6733143182185763 10.8149146376182834 25.5564878562445479   T   T   T
 18.8132989371847970  2.4658332276647230 28.6208166539937103   T   T   T
  4.3627376822184845  2.1117744111873504 36.6210241848415947   T   T   T
 29.2760550462542604  1.4464418169327120 40.1734018827822510   T   T   T
  8.5157967965886137 14.9222052154799485 26.0799491427315964   T   T   T
 15.8093309106401634 19.5880703389283681 22.0072243779566428   T   T   T
 25.7539518108434002 14.7223736180836902 18.8196302450330961   T   T   T
 11.2913889317618708 15.5995000772066987 25.0953921238850057   T   T   T
 14.8612439420104856 -0.3254128386411857 35.0589349908748247   T   T   T
 23.2588763959002982  5.8508518165499677 36.0760003505124303   T   T   T
  4.4681166543754749 10.5732955662322112 35.5326057935173196   T   T   T
 26.7799231628561607 13.7026974220593978 24.6299063537789813   T   T   T
 24.6431207543473860  9.3835807902333741 18.0296952358317171   T   T   T
 14.8050515614236549 16.4826266885072563 23.9293266748038285   T   T   T
 16.0706506655857098 -2.7753115640456505 26.7995696053798476   T   T   T
 -4.5409233222478775 14.4815694334656193 36.8674646844788043   T   T   T
  7.2337421948647975  7.0268040283922515 23.2786905200938854   T   T   T
 20.6065518346112171  6.9187701183814792 37.3841838502901567   T   T   T
 24.5050638419871554  9.4172143269333830 22.0117170441608039   T   T   T
 11.9503128404386949  8.7937845365584870 14.5619620661353668   T   T   T
 12.0966789694070780 13.4564655089649534 36.0903930810590268   T   T   T
 -0.3943762393441734 -3.5070247587115499 32.0469775025045038   T   T   T
 17.5692874200279263  5.0930463802509776 28.4627201262685539   T   T   T
 14.1399272508182481  3.9823346584816419 25.9678829292788649   T   T   T
 26.3406386611329246 11.7363440910888635 22.5136675683480085   T   T   T
 12.2271900240073954 -2.6047068278538301 18.7835466456666467   T   T   T
  9.4666873088757981 10.3625362079922247 28.6394306964186534   T   T   T
 -1.7582427926292836 -0.6501580021270215 36.7055686740102232   T   T   T
  4.2338527476483279  9.7055723079930800 28.2777248755953927   T   T   T
 16.6344475208936871 13.4242235255977711 31.2548100474718744   T   T   T
 21.7824232195062955 13.1671620231526063 28.4297433247211160   T   T   T
 15.1104271172344973 21.0677989778334869 18.4648429481874850   T   T   T
 13.1800893354422222 10.0291839941134882 34.8273953743013323   T   T   T
 26.9522617031158802 19.7478235459120803 34.4818518002354395   T   T   T
 -1.8386954195544893 -2.1637212311870728  1.7506298900358002   T   T   T
 11.8657572943020089  7.7166477906009678  0.1492022731410957   T   T   T
 16.1071223569747524 -0.6975504559219300  6.2657589101015798   T   T   T
  3.0438617141817845  6.9222188250783478  6.0439801511925770   T   T   T
  7.5262905862704912 -0.5409269677077421 11.5197227921811667   T   T   T
 20.2594831402634448  6.6656897403907589 11.8576409603350683   T   T   T
 22.0733588572963590 10.2089111991113946  5.5478734690880236   T   T   T
 10.2487154769760505  3.2890831816352684  5.8178019946255155   T   T   T
 13.7056803407239123 10.5669218429344340 11.5221378875816889   T   T   T
  1.0648267467323873  2.6222889831220511 10.8963823121712444   T   T   T
  6.3132804089224157  9.8197860250468878  0.7657045082927380   T   T   T
 17.5759880294988200  2.9580226073313174  2.2129505166104022   T   T   T
  3.0104787502672909 -0.6945044069583797  5.4467838824642758   T   T   T
 16.0835102623437152  6.7207311577730762  5.8768629860559987   T   T   T
 19.7539655919918502 -0.4351008318955732 12.2920936198606405   T   T   T
  7.6125584258973360  6.4150803105470979 11.3797163662475960   T   T   T
 15.7682259413081685  2.0761904760954208  2.2522490397572796   T   T   T
 -0.6901805460911685  5.0990525596960632  1.0004787674555804   T   T   T
 21.6844580517648176  3.2515246299160836  6.0613130513614939   T   T   T
  9.9256946950131688 10.0402066118110866  5.2862514446795021   T   T   T
 14.1311698650784354  3.0143155384004374 11.6479401636483999   T   T   T
  1.2005051647700928  9.9813472499553662 12.0162395203456107   T   T   T
  6.4925299153586122  7.7764828117837821  2.0521264354241300   T   T   T
 19.4093896184641821 11.1983795502322145 -0.1541072572823387   T   T   T
  6.8887333260001800  5.1766642184193543 16.7372984012875996   T   T   T
 20.1879354242211200 -0.3197839434024269 17.1839464918913798   T   T   T
 25.6466101550155940  8.1050760983621899 31.4723889904617273   T   T   T
 13.0159774011647631 15.4022394762423005 31.7600631902463242   T   T   T
 17.4117125332947111  7.8869917323414427 26.2516008600342055   T   T   T
  5.0695826085977407 15.5142790573034652 25.4439663896240837   T   T   T
  6.9702847725216301 11.4890367266515590 32.2243695857920827   T   T   T
 19.3933373315204953  4.5840377395230067 31.6466214917175641   T   T   T
 23.8716227132188585 11.3076628374291417 25.7814497226819306   T   T   T
 10.7159443990233481  4.7182695552677156 25.1859713208729694   T   T   T
 15.3854035944053358 11.3315199608980919 18.1259087164793549   T   T   T
  0.7115648777975430  2.2079235014424325 17.2959376268435072   T   T   T
 12.8794764092980945  7.6907369000174333 31.3518471720077017   T   T   T
 25.4284892901518162 15.0545255559744646 31.7293264812944713   T   T   T
  5.0959040882322695  7.9486938164709233 25.6045091184423299   T   T   T
 17.0102999175529348  0.7597413688146156 25.7550929991999489   T   T   T
 18.2329309040308445  6.3782997480032675 18.3291773960388973   T   T   T
 10.1983813843744517 -0.9021658174594150 17.5999369944863879   T   T   T
  6.5299076926224071  4.0522555210146418 31.2371731244822080   T   T   T
 19.2987964428832051 11.6350846201025071 31.7920991678452118   T   T   T
 23.6191581887569342  4.2136141915027583 24.5666708834578777   T   T   T
 10.5321189328380154 11.6869261782271643 25.6867020464530817   T   T   T
 15.7437097481727424  2.3534306518380270 19.7365144799131684   T   T   T
  2.3650582332439898  8.1509880484425530 19.9122335220105633   T   T   T
  3.6204966034485468 -1.4845807004603953  7.1500422924777931   T   T   T
 15.7337513729662675  6.5182747056264621  7.8507057265022029   T   T   T
 20.5924563799859293  1.1926500434720921 18.6690898932807201   T   T   T
  7.8724097686440127  6.3142628682833601 13.5132627541100234   T   T   T
 15.8588584413128775  0.1211276714409289  1.9691472586383982   T   T   T
 -1.4122972815391546  6.8260604156745401  2.1122131987567210   T   T   T
 20.9514841049387570  1.0776460484524870 11.6412997459539937   T   T   T
  5.4308155312118656  7.0949871058317440 11.1659279490124135   T   T   T
 16.1259517813056235  2.9321910124186479 17.7597397851394199   T   T   T
  2.2367076439056408  8.2508950796132545 17.7106384940990935   T   T   T
  4.1097321171674750  1.0581688309955783  5.0968193781228281   T   T   T
 16.9636712178343885  8.5599958154871203  5.7124863249336606   T   T   T
 20.6426401493692779  4.6684818848738461 11.2086127271064147   T   T   T
  8.5015606123389507 12.0551523550758297 10.8646275740576215   T   T   T
  9.0461799935892699  4.3235178983526925 19.8565456310042840   T   T   T
  4.3208684288224388  8.9289214815911535 20.3882036303690519   T   T   T
  4.1816490883490589  5.3204156124227016  5.3373104902269048   T   T   T
 16.9654575933813696 15.3919064709539306  5.4008740135027757   T   T   T
  5.7182399158552348 -0.6484562390282549 10.6774193911770094   T   T   T
 18.1007458995485564  6.8902998254281265 11.7127699457516741   T   T   T
 23.0684447428813648  7.8723453927473264 17.6264069067328855   T   T   T
  9.3732786623526785  8.7973422003668560 19.5959279770990626   T   T   T
 14.2313238490589242 -0.7392271588075406  5.2501575296472760   T   T   T
  1.2342503840089618  7.1246075114783487  4.9364014879890128   T   T   T
  1.2334129744309812  3.5118422112638488  6.4724808032118260   T   T   T
 13.8517099225897269 10.5945130398660190  7.5741972433547700   T   T   T
 18.1988654389201763  3.1041725289408819 14.6883147846995303   T   T   T
  4.9882486294665220 10.2625634548097153 14.0222998434647064   T   T   T
 10.2324047666657041  3.2029763837436698  1.3682032540080675   T   T   T
 24.9906937595940306 12.0110017990079001  0.2631656553934215   T   T   T
 22.3646104808284711  3.0133477191898779  8.0532978639871970   T   T   T
 10.7032554024212914  8.1777851293991191  4.7744404389141488   T   T   T
 13.9833700664065574  2.7804179137369958 13.6859699834130240   T   T   T
  2.4034523450960616  8.4582569169049613 11.5644850340646776   T   T   T
  4.7587648774679003  7.2202279049411660  0.9792828416298707   T   T   T
 18.5128002139241943 11.4281560426198219  1.7082247768458485   T   T   T
  2.1766726505598797 11.6016904059790917 11.2201844686879628   T   T   T
 15.4431065661026992  4.5071557432431764 11.3803691889687109   T   T   T
 19.6137644331251124  8.2382704684884906 17.8778854584306792   T   T   T
  5.9000071154559883  5.3762751365810448 18.4300972594555006   T   T   T
 11.3109602265743607 11.4410633776959827  4.8129042622150147   T   T   T
 22.1355797188332630  5.1725073254811651  5.5568388982815691   T   T   T
  2.1008014324308459  0.9136763021630701 10.3349836879486308   T   T   T
 14.5319420778886705  8.5463532898119645 10.9769211162996818   T   T   T
 17.5016860282580353  6.6932772856500709 20.1386382266977861   T   T   T
  6.7225977356106359  9.6432789470957339 16.8345340495249047   T   T   T
 10.8033620912707082  1.4054771936187695  5.0469393154175064   T   T   T
 23.1034809231570684  8.6983236020327723  4.6608028345212666   T   T   T
 -0.8123442355200691  2.2102188259159612 10.4879171728635114   T   T   T
 11.9509163774780713 10.5773310238810723 10.5985067429161326   T   T   T
 13.9804888588065417  2.3523350467635997 20.3916943133558313   T   T   T
  5.7856511556682078 11.2810722176755185 15.8620854438366905   T   T   T
  8.2016028267572310  3.4882579057503054  5.2240897825300436   T   T   T
 20.2211521911279455 10.1394691795889536  4.5901663038264315   T   T   T
 -0.8232172846618437 -0.7682520338972756 13.0814965904753571   T   T   T
 11.5212305273138220  6.4904150133405061 13.3146589246909830   T   T   T
 21.4914525565685786 -3.5342741626775278 -0.0446375652957541   T   T   T
  1.2472505320206189  7.9293229770672822 -1.0121364222331040   T   T   T
  7.6488258847346309 -0.9758045382985810  7.0661232844712014   T   T   T
 19.8446511219999273  6.6602851087330635  7.5296305199213256   T   T   T
 22.6828718307903330 -0.2437340827724913  1.9258164884400126   T   T   T
 12.7033135938211821  6.1084967282160436  1.3561563189660624   T   T   T
 17.1338219202166897 -2.4887933516329710  6.1699645573782416   T   T   T
  2.7662628418895996  6.8293431981568391  8.1054368156796084   T   T   T
  7.3903931588062068 -0.3252864692655027 13.4761185772688084   T   T   T
 20.4497181362161484  6.6586673036648865 14.0344313037294999   T   T   T
 21.4053637358524576  8.1146016598377884 11.0582498839741383   T   T   T
  8.6595860532082565  0.9456976307793423 10.7610058200616585   T   T   T
 14.3136366702724356 11.5171122446383869 25.1251816187001360   T   T   T
  0.6023201513856228  4.0509917343779414 16.3527922497980782   T   T   T
  4.1088398509249782  8.6768016484819910  5.4412213206486468   T   T   T