Li P  S  Cl
 1.0000000000000000
    25.1819793006824639    0.0000000000000000    0.0000000000000015
    -0.0000000000000009   14.5388225279766061    0.0000000000000009
     0.0000000000000000    0.0000000000000000   37.2126966544236950
 Li  P   S   Cl 
 287  48 240  48
Selective dynamics
Cartesian
  0.0794386190835658 -3.9544984563006729  8.6127015456401459   T   T   T
 12.7356961669830735 10.0113745988958378  8.7706211288194318   T   T   T
 18.4969409001463276  0.9051016378239785 14.7216776066104078   T   T   T
  5.5836299446559998  8.6321264546745979 13.3513702563172014   T   T   T
 10.4994898031054849  0.1691794598811296  0.4114203088069824   T   T   T
 26.2187362418579823  9.5884922353188493 -2.6282883208684478   T   T   T
  3.0377472652890214  1.7917732713603973  8.2231131949939691   T   T   T
 11.2473004100421772  9.2772093071713115 12.5180046142897972   T   T   T
 21.1407413284099661  7.5716995006355434 17.4931573723523854   T   T   T
  5.3391125681718128 13.1863655398057738 12.2964053379054228   T   T   T
  7.1196103373547635  2.1693432208172094  6.2785043755688408   T   T   T
 19.7725599301142907  8.9582230717671330  9.1872851748648916   T   T   T
  3.6215574014821135  4.7609168316760009  8.4444592076481211   T   T   T
 16.7851321651525396 10.9098709001119438  5.7834223550686730   T   T   T
 18.2168933731185732  1.9857177076258157 18.5540590620968011   T   T   T
  5.2919332569101893 19.6171234920474902 15.4754523356035580   T   T   T
  6.4091070967223605  8.4415015201982619 -0.7432895716117280   T   T   T
 25.3606159390816401 11.2235014220741967  2.1300479026263761   T   T   T
  0.9591888149378569  1.8120773260799874  6.1256256921008667   T   T   T
 13.6449483211421025 12.8145838658442379  6.7024888345067835   T   T   T
 21.1165469861352904  3.5720570429582161 18.6243406286040880   T   T   T
  6.9628331152357967 15.2843811299324059 17.5032888653618812   T   T   T
 16.4956988121859567  4.9603844664173753 -0.4519802513325498   T   T   T
 26.9897176130181222 13.2979223926811443 -2.1020308738864659   T   T   T
  0.4916940906551735  0.7823278287157456 10.6898177255615021   T   T   T
 15.5200597666552351  9.1627872229427680  8.6677053288285428   T   T   T
 20.3815677612748800  3.6044098862305587 15.0814306549935040   T   T   T
  6.8999013331534655 12.3708139478149022 14.6689766716674086   T   T   T
  8.6574556260314885  5.3100663596399960  3.0895974912826230   T   T   T
 23.9766961000111536  8.0644061678619146  2.8576013351863074   T   T   T
  0.4621739824956276  5.8549070105609147  7.4621668575395947   T   T   T
 16.2380346657716856 12.3763454184975394  8.6509487395157443   T   T   T
 16.8959113377713024  3.3108463718900345 14.9679705764462181   T   T   T
  4.1983673470289933 12.0268467327408040 14.2115437250039207   T   T   T
  7.8528971500330389  4.2867442991322156 -0.8781228646235022   T   T   T
 20.5924122904301257 14.7722442320288749  0.6145688057218793   T   T   T
 20.2162127824116880 11.5926354011611039 18.4562963754381677   T   T   T
  8.7747688860968722  5.1807839637316970 17.0468447824940945   T   T   T
 14.1989675825033874  5.8613572538144725 -2.6739973226751195   T   T   T
  4.6633679574785045  3.6599652584094367  0.0063127688406030   T   T   T
  9.1501992607720695 16.4629689709959521  8.4943680013863325   T   T   T
 22.7221743402069194  8.3721810529768632  8.4387090706856860   T   T   T
 27.0908564171504764 -0.7766630989320932 12.6136683587875709   T   T   T
 13.2497202926376385  7.7282400719614648 10.8217164145042037   T   T   T
 12.4277286772257334 -4.0419659557486041  2.5165367266746244   T   T   T
 -4.0849647918501839  5.0774094492354669  8.1463349941673631   T   T   T
  5.1233769211074627  5.8119305458869146 12.0170654569190489   T   T   T
 17.3152920951745983  9.0992873524016886 12.5937627602346627   T   T   T
 -0.2640142883532652 -2.4455669998132450 13.0671597778934014   T   T   T
 11.6951734264891432  4.9892795861964716 12.5957561928956192   T   T   T
 17.1362235835738446  2.9501219834494692 -2.4687104015899592   T   T   T
  4.1188665346031126  9.7589019433664639  1.9317800827749070   T   T   T
  6.7507381817344188 -0.7017227488542555  8.4126715916933641   T   T   T
 17.9102749161590822  2.9995421309056689 11.2763451479718810   T   T   T
  1.1912989786919292  1.4128058248831756 14.1523621511737989   T   T   T
 14.9547563791182405  6.0488719022535067 13.4608289227998803   T   T   T
 14.3661898050932031  1.1516200103101504  8.5189561263530198   T   T   T
  7.2942191011425974  8.7843821321493287  5.4900956356723638   T   T   T
 10.3333453874324821 -1.2123577456980208  8.5835588100976494   T   T   T
 18.6274691969708073  6.4121072198446116  8.1286254791730261   T   T   T
 -2.1396026455490511 16.1691504586621662 12.7058951969923317   T   T   T
 14.2840293251291541  8.8112391630531661 13.9364420384732561   T   T   T
 18.8329054814472130 15.4644534709452195  8.1943847161834960   T   T   T
  2.6429491519094501  6.8793095023008588  2.6176236450764825   T   T   T
  7.5767421555528882 13.3950628323004750  5.2745758216104344   T   T   T
 18.0461176568106794  5.5673310309699708 12.6103244126014093   T   T   T
 22.2666744148219706 -1.2797729616139606 13.0917898084819413   T   T   T
 11.1203049241326557  7.3830397098870675 15.1049975025229397   T   T   T
 18.7283013432765699 -0.3960063671259749 -5.2815269025504383   T   T   T
  3.6094425948063615 10.8853585731140150  5.0783918555686185   T   T   T
 10.4794199979490035  0.0383149400089756  5.8912369218005853   T   T   T
 19.9381626017569218  6.0518635472304547  5.4577536391681267   T   T   T
  0.8899934577413194  9.0556257051579330 14.2507431016096948   T   T   T
 13.8122781280057456  2.5636726100501641  5.1547085477309684   T   T   T
 18.5027871017846195 10.9792194346683019 20.4550864533453236   T   T   T
  4.0292189341105553  2.8259345169953325 13.3048121380289590   T   T   T
  5.7140715512538369 14.9754244249376747  2.8169784253549537   T   T   T
 23.7414375019603199  2.5880230215739140  2.5699344632708465   T   T   T
  1.3681512613096098  9.4736627932318029  5.2647900487546533   T   T   T
 12.8831890576076731  4.3527307664163457  8.3756407249205331   T   T   T
 20.9092008180087348 18.2935221218712876 12.4413664238312371   T   T   T
  4.3413019011109473  3.8364867955000816 18.5311514520782161   T   T   T
  9.5290122617249260 16.6249729690234318  3.0337457486241517   T   T   T
 20.1577661760427347  1.6208330057924660  5.0311390265415818   T   T   T
  2.9392976737942660 12.7236347269112891  8.5364352965784924   T   T   T
 16.2632302336732764  4.1766932049341250  9.0553245405252039   T   T   T
 19.0996851860894239 12.4898192730926709 11.6667635149280020   T   T   T
  2.1708294984104430  6.3212465583545798 12.8859964037537438   T   T   T
  9.7428285147610740  9.7921464209574545  2.9931750696434416   T   T   T
 22.2072774218215301  7.1687486210686568  5.3019003430212885   T   T   T
  5.3509285751388616 10.4452610739172904 10.7774667530677384   T   T   T
 16.7428939748651331  3.1778742195940350  6.1703487365954963   T   T   T
 18.4232827563493373  9.5193772053379355 15.4138037783752360   T   T   T
  6.2926145864433245  2.4411499633392171 10.6726487153574947   T   T   T
 11.7515367928095991  7.6504924591368102  0.4913707452909106   T   T   T
 26.3481166955742765  3.4681945877549878  1.1669993953586282   T   T   T
  3.5182994197668807  9.4604019747901198  8.2475930050109252   T   T   T
 14.0890252866037322 -0.4262275127444345 15.0879454748662223   T   T   T
 26.0232779734118438  8.0567226757475048 19.1856801411346005   T   T   T
  8.1098769928190020  4.8809171924264323 12.8486474899232928   T   T   T
 10.4523589535442447  7.5519070090849869 -2.4989326493310671   T   T   T
 25.2368720900165471  4.6060129737304303  3.5738637059014255   T   T   T
  0.7881461258919817 12.7130258781404102  5.9840212672545032   T   T   T
 14.0083794624066762  5.4381402007150017  6.2224350961793293   T   T   T
 15.6816282973805379 13.5793534536781024 18.7215305896477737   T   T   T
  7.4318705981427113  2.2998916675171279 14.2016017279898605   T   T   T
  9.7518664411505238 11.7447680923539579 -0.0108595859084489   T   T   T
 21.9398846607289428  4.7224142274698044  2.7518111941013959   T   T   T
 21.4511893796233792  8.0218755720148991  1.0571859613024639   T   T   T
  6.4292932025740752  8.3465321446857139  8.8085735154321920   T   T   T
 10.3542645856473197 13.3441901463374819 13.0346317155858973   T   T   T
 26.0640997127447704  8.5614942526331852 10.9521647145771190   T   T   T
  3.4127707957270794 12.2854158530803410  0.6074999440853732   T   T   T
 11.4702078228229265  3.9421435047039868  2.8060759453379798   T   T   T
 17.1345341136289662  0.1098970202442992  2.3324578547044341   T   T   T
  7.7136533071533346  5.3976464923615515  9.0899756924622537   T   T   T
  7.4980112708391280  8.1757783489606553 17.8431719973416065   T   T   T
 20.8588982428726197 10.3436409424533551 13.5623389729727002   T   T   T
  0.2512375759847682 -2.7781947722607505 -0.8902112848775702   T   T   T
 13.6389454264996406  8.9416052166603279  5.9558012440615595   T   T   T
 21.8588088293246585  1.4807411025879047  8.3052468889639943   T   T   T
 10.1137945160644911  7.5225022593340425  5.5330266833210828   T   T   T
 12.2488191227689143  2.2046777241929978 13.9423923795043141   T   T   T
 -1.9233118040911150  8.7510819040475880 12.8552595828236065   T   T   T
  4.8098769048516576  3.5255308773891967  2.5463445494051169   T   T   T
 22.4834685852720568 10.3065432127365284 -0.8577685048075471   T   T   T
 21.7180641728377282 -1.1567975950704859  5.0919632283948619   T   T   T
  8.4221357504043706 10.3864160545544379  7.8010628782523792   T   T   T
 12.3763110408801342 -2.2340510113133223 13.8572065616365219   T   T   T
 -0.4789938096660360  5.3656970891769697 13.9621069163659985   T   T   T
  1.9323752847126578 -7.3984392072264722 -3.6558121250347329   T   T   T
 19.5133922949928689  9.4074912734118961  6.0643715502627664   T   T   T
 21.2659556873130953 12.8398622423473761  8.3140037738843695   T   T   T
  7.3475709949106287  5.7968706746245733  6.0069679759456029   T   T   T
 11.6900137668075210 15.6861713634880005 11.1438506092877088   T   T   T
 -1.1053696990859563  5.9966087866855551 11.0154114943681289   T   T   T
  3.4966323663083569 18.3950742312340054  5.8927283826682260   T   T   T
 15.5653662932411958  5.4518591671739651  3.2172177265141739   T   T   T
 18.8506296125541439 -1.5935144232457672  6.3761992000013636   T   T   T
  8.3797842691702318 10.8634586846185002 12.4157697707141690   T   T   T
 14.6175277382334361  0.1757617251038301 12.0300443357692117   T   T   T
 16.9128803467272988 12.3718549817492516 13.4185058118711140   T   T   T
  0.0297686117069079  2.7497538995104795  8.5389348725313940   T   T   T
 14.4776310192094808 12.8697799556163801  3.3142672904050259   T   T   T
  9.2681073289943114 12.5010083993238048 30.8720685146649139   T   T   T
 24.9836521923839996  4.9311754636728065 28.7411735317369939   T   T   T
  0.0693513804579588  9.7910279582751123 23.1952666608007831   T   T   T
 14.3780612837312916  4.8678123372279041 26.1545305271862389   T   T   T
 20.3567731509536429 12.0391644180078750 34.4664897339301390   T   T   T
  5.5542137448327864  7.2812086003840157 40.1890940030541870   T   T   T
 10.9931971611431809  9.6093214561637978 31.8216479279408198   T   T   T
 22.6338500437818411  2.6510638286079233 27.9222143152339584   T   T   T
  4.7295248985846428 15.1571498263891797 16.0881477923725349   T   T   T
 10.9287458761873975  3.1641050257829910 19.2963474528739631   T   T   T
 18.9429818659427767 14.1944206103443378 35.6283857117750884   T   T   T
  3.7509454329494991  4.4005267454471664 34.2865473379060575   T   T   T
  9.8366510745665483 12.3553900888190213 28.2922887357156618   T   T   T
 21.8732903644245056  1.5332306390820494 30.6415181479171359   T   T   T
  0.8619592532921150 11.2596852384182142 25.8316685800233614   T   T   T
 14.5296120721576525  1.3841918165051594 24.9061847143281234   T   T   T
 16.6494455956202643  9.6209635866916123 34.2404271547264614   T   T   T
  8.2083441886127435  3.3185902071770550 33.9977706504810371   T   T   T
 11.4557929385698856  9.3665962349858880 28.4540989559616015   T   T   T
 24.8179767712292048  3.5938277181867169 32.1260123931415507   T   T   T
  4.3454279837466370 10.8721522736447049 25.0225987093297171   T   T   T
 12.7350901673521690 -1.0303786319578125 20.6626091300040926   T   T   T
 24.2057669645942255  7.6776629948988013 37.5789009186326552   T   T   T
  6.7478376925046586  1.6286334092073891 37.1855562470343699   T   T   T
 17.1679551412886298 10.6535632068317128 24.4958495960566225   T   T   T
 25.1061918486370388  2.1984138530639878 28.7983586111853640   T   T   T
  3.7227360344036953 11.5898180563215085 22.2869431805517380   T   T   T
 12.8715011874655119  7.1573601074396045 20.1889823641950592   T   T   T
 22.2006228367668328  8.9057444935487631 31.1334382320128853   T   T   T
  6.6749422461749459  5.7154354342049727 33.9208669341384237   T   T   T
 12.8104851974567779 11.6782295986821651 29.5736269109587546   T   T   T
 21.3649064917770133  5.0736275467386234 30.5811870099652552   T   T   T
  2.4111480248900525  8.4437661799684882 23.7575854625378717   T   T   T
 12.7116271825613296  3.1962878448790337 22.7629599278310053   T   T   T
 18.1296061993792392  7.8904336315017689 38.8629279795822313   T   T   T
  5.4990927988751004  1.6132196298971320 34.1162101655186660   T   T   T
  6.3854634396348651 -0.9676518430895541 22.2577191936148289   T   T   T
 21.5669662308011141  4.9817068722261633 23.1766731719656356   T   T   T
 23.6192004953718211 -0.9341611524072312 39.6974931200705186   T   T   T
 10.5389426176765060 14.3881638599147763 34.5847703378089051   T   T   T
 16.1915673418134958  3.0579847802318825 22.1587717607398993   T   T   T
  4.6662239788908977  8.0720012059992783 31.7625851571322002   T   T   T
  9.0062248005741843 -0.3524236914985429 21.2103919358623365   T   T   T
 23.2221762502284435  7.9644132091716013 24.2098752090886116   T   T   T
 21.4549667319151141 -3.5725677661117081 39.4455515940723345   T   T   T
 11.3538272505294398  5.2087281196756710 33.4900688429620814   T   T   T
 16.2066622332288972  1.2750114931270702 32.0792046852721526   T   T   T
  2.3728291948037095  8.3812819343917084 29.5433481931002042   T   T   T
  7.8752517781539213 12.0957353925681161 24.0327592472740257   T   T   T
 19.6417799719181190  9.0798544270689803 24.5740185049741306   T   T   T
 -1.8186141561634290 15.8310287150421800 36.1287022773168616   T   T   T
 18.4529490367001827  7.4109125168631991 31.6837137015315733   T   T   T
 15.0210806342535648 14.6590108977307985 28.8676676896348283   T   T   T
  5.4989340584594606  8.5329890655310550 28.3495162504951033   T   T   T
  7.6796417144486453  0.4516169939665479 25.9033711268866966   T   T   T
 21.3599136183641818  6.4951179158816368 26.3437248039744496   T   T   T
  3.0430583118710635  0.6923338133882747 36.6120942463761665   T   T   T
 12.9380271038682704  9.0277976868256964 34.2122015955812628   T   T   T
 17.9351609067529054 -1.9678175657987313 29.0675595724447611   T   T   T
  3.8022556529728937  5.5531836050180567 28.0394032317792394   T   T   T
 10.6565189310490744 -0.5011333482075194 24.5793000251731826   T   T   T
 20.9418551317768973  7.3606612028995144 20.7025231112430390   T   T   T
  0.5654906964975434  2.1675114804254796 35.5302693112074763   T   T   T
 14.3663363210777000 12.3785009217011286 34.6569489485022117   T   T   T
 18.7325752079884040  1.3601646994039769 29.1464942064851407   T   T   T
  6.6028618329139626  6.1737942412664504 29.8261803426088328   T   T   T
  7.9611428020073411 16.7385938882478804 23.5622279527106109   T   T   T
 19.0178285031930230  6.0281390268214796 23.4874142496900085   T   T   T
 28.0342819195084374 16.1937112073359728 40.0241393838609838   T   T   T
 14.6866543563722356  7.9412608615451550 36.6977570197137482   T   T   T
 15.7411424391073869 12.3886809129386002 31.0083029973352389   T   T   T
  3.7926146815588457  5.2359931035540894 31.2149543301795305   T   T   T
 12.2500644311623645  3.1431709159674930 27.6980681629330938   T   T   T
 23.3487105502191739 13.4655780353842829 34.5272381894514453   T   T   T
  0.2542515139103303  2.2950829560174624 23.4635768592947649   T   T   T
 15.0836886071671952  8.9669159051993930 22.8114025838548251   T   T   T
 13.7626770866771828  2.2908291825317191 38.2957419481259933   T   T   T
  7.2143835181034941 12.8833673579627757 34.7739504546394684   T   T   T
  9.0992160034847078  2.7484158483798655 28.4214177517861692   T   T   T
 24.7937413101026252  9.6050678681066799 28.6018489495793666   T   T   T
  3.9523006978567894  4.7473371264159123 22.6522798375312107   T   T   T
 13.0178313147932982 11.8900912758688477 24.1954281268832005   T   T   T
 22.6787364115116574 -2.5542140178064612 31.9394293640987676   T   T   T
  6.4458903619395898 14.7852317321690734 30.3828234285375771   T   T   T
 10.0797978943887045  1.9940223680669376 31.6668123247911701   T   T   T
 23.6041583376741073 12.8745484753987967 28.7033695301755962   T   T   T
  1.0795446565976585  5.8858246081275905 24.4678878985424397   T   T   T
 15.0005636123308506  5.8648288933802917 23.0382334968993590   T   T   T
 20.2151391022793305  6.0028851069890941 35.1683559561536967   T   T   T
  8.1380180183871005  9.0538091840926747 34.1222062528688852   T   T   T
 13.3714071914145869  3.3866533442143538 30.5535989977341345   T   T   T
 25.7262346165466553 11.0990709386242017 30.6323932024250176   T   T   T
  3.9693805561242748  3.5848185431751558 25.4698949217169002   T   T   T
 13.5200101683091098  8.8275176750342474 25.0194260765923246   T   T   T
 15.4936907502150500  8.7363193765010010 40.0694904255465403   T   T   T
  8.2527440149436266  9.4412419042075975 29.2739182372585525   T   T   T
 11.0353032488607194  0.9491682962000462 28.4932071831388960   T   T   T
 19.2751551030222714 13.1108741076670121 23.7869452425899688   T   T   T
  2.8817586198196334  1.8646174320196851 22.4952877359368379   T   T   T
 15.6961554982145728 12.6556184484726124 23.1827379254749530   T   T   T
 12.6496540443479635  4.6905277109128605 36.5200174375281605   T   T   T
  2.9528692743245775 15.9869622605174868 30.5907704831287290   T   T   T
 10.5039859351101441  5.3949119239596488 29.9955179644427652   T   T   T
 20.9514255953699902  9.7784227804143207 28.8516035988640347   T   T   T
  1.2783265002005610  2.8204931677004672 25.8674659821467436   T   T   T
 15.0523428354852093 11.8815500413755686 26.4383094735541846   T   T   T
 20.8219570256055064  2.3076201164821404 35.2290270031698114   T   T   T
  8.8895591559179756  7.5600811965918888 37.4532976704997935   T   T   T
  3.6588112371406258 -1.8564497100565587 31.6790504175246568   T   T   T
 16.9764765024912663  5.0545211833256731 29.1544298696700039   T   T   T
 20.1224993976222777  1.0215636339217988 25.8453000054622670   T   T   T
  7.7424755327374690  7.9732578747346690 25.8457882938340546   T   T   T
  7.7048064976838457 -1.4880088150948796 38.3043612960641937   T   T   T
 23.5693895282972647  7.9177177873715179 34.7448568306082493   T   T   T
 14.7421232175374506  6.5313363072820438 29.3108491594668088   T   T   T
 21.0616477524523873  1.8275533482718178 22.6197743885463751   T   T   T
  6.6833201254338039  8.5359793441283500 23.4574211800674348   T   T   T
 13.9590592595758718  1.3885386256337398 34.5632002591582506   T   T   T
 22.7297983914037118  5.0404281563100568 36.6350776175086068   T   T   T
  5.2478443569026565 12.6698239800125343 28.2713296639783813   T   T   T
 17.1842193165827766  3.5161860256991142 25.0856780264090879   T   T   T
 23.4101648086577967 14.6382706507589369 24.8432648071299198   T   T   T
  8.5387531918491177  5.0432539664977414 22.0774228957826431   T   T   T
 12.9334355549997415 10.9349149488093893 37.2228998724457725   T   T   T
  2.6040635333689703  6.1654866561175004 36.9651885525732737   T   T   T
  4.9508070184818562  1.8848797230705427 28.2172746312636100   T   T   T
 16.4229938044916111  9.2299537487110932 28.8278422028491121   T   T   T
 21.1145301302769468 -1.3958330244343640 26.5032289682903404   T   T   T
 10.6257766662735591  6.7867400108998508 25.3890034601332459   T   T   T
 10.1829560872316165 -7.2146090505529514 46.2460942510799882   T   T   T
  4.3555859671831376 10.8318480725364523 34.8430035049518452   T   T   T
  2.3402621777221104 -0.8135076632184630 28.4488866917006575   T   T   T
 15.7161017550933497  6.7459137137297347 32.1557783844273359   T   T   T
 16.6597243160861694  7.1678788738236117 19.0734191705907037   T   T   T
 10.1653908420855323  8.5275528439961050 22.7026857642977333   T   T   T
 16.1352269814357427  1.0428930318163243 36.7501211323361474   T   T   T
  0.2025697131614427  5.0710856565346081 36.2125555838297259   T   T   T
  1.7450672958301410 13.4847378544590555 23.8961214606729406   T   T   T
 18.7107975252034251  7.1587467905475277 28.3335941471809711   T   T   T
 21.9380944996951115 12.7173538800948549 22.4071854508145094   T   T   T
  7.6662795265221320  4.9558348350659589 24.7494067054862086   T   T   T
 15.9117958351420956 10.9920858145186529 37.2148371239223721   T   T   T
 27.6415289641321849  8.7538945835827597 37.0778460341894842   T   T   T
  0.9947335003775269 -0.8891310614192131  1.0254552721903156   T   T   T
  9.7552183836167341  4.0395718689181122  0.3354253949781338   T   T   T
 16.4766307030596337 -0.0877847429775973  5.3836366220877947   T   T   T
  4.0335855218217427  7.1688203200900205  5.8074293887958204   T   T   T
  8.3681460204940681  0.0741237395348657 11.4059249049476836   T   T   T
 20.9020462712602608  7.4253653379348457 11.2959271831070360   T   T   T
 22.9911071262919862 10.8664773362085434  5.4176456790636607   T   T   T
 10.4435467336912655  3.7804178124606471  5.8875298289898721   T   T   T
 14.6657490239979253 11.1684014844874717 11.7901802949309840   T   T   T
  1.6442396215080970  4.0292458436527809 11.4761938189714012   T   T   T
  6.9959892175303962 10.6959781854358091  0.6410620187799299   T   T   T
 19.3034005026955882  3.2150919343900601  0.7967666884956137   T   T   T
  4.2118689639359053  0.1484944569677073  5.7790802497226794   T   T   T
 16.6751450073532297  7.2458303469679501  5.4798518766520203   T   T   T
 20.3941017539240974  0.4265968666411797 11.2040509483870370   T   T   T
  8.3225582228882367  7.5641306694796189 11.6118674876101036   T   T   T
 13.6306230595229749 -0.1589180133678852  0.3802078844182737   T   T   T
 -1.0195416358360818  4.7130522035683065  1.3888169203674097   T   T   T
 22.9622251347222601  3.8121427918122275  5.8306483011182477   T   T   T
 10.6572397709295696 11.1317094113649411  5.5798358257666756   T   T   T
 14.7419097834479391  3.4214941596337543 11.7567686528253752   T   T   T
  2.1079263436044284 11.0305702014348732 11.5091991936301543   T   T   T
  8.1073212746931471  3.4005623481070479  1.6588559873240030   T   T   T
 19.9046602474825036 10.8067286128644326 -0.6284190086606183   T   T   T
  6.3582559908370362 -2.4997310709061487 18.5568771972336037   T   T   T
 18.7073130364403823  9.3933284263432775 18.2978871938657370   T   T   T
 25.3579910665193040 -0.1792272729158815 31.4976196231199630   T   T   T
 12.4566583838410274  7.0494463973927601 31.5610699984139416   T   T   T
 16.9372054088272463 -0.1921588670485403 25.8074788689864008   T   T   T
  4.6410317318312666  7.0737692664256766 25.2582016413430814   T   T   T
  6.5315071237335438  3.3095101720756310 31.3201905516975607   T   T   T
 18.9406166711260440 10.6207692050768685 31.4213006126571379   T   T   T
 23.1737254772118817  3.5548994332483015 25.6192679666380201   T   T   T
 10.4013122479765006 10.6529640667972174 25.4059083595717254   T   T   T
 14.5606877634753253  4.7195661440107246 19.6029993331763066   T   T   T
  2.1570569045847972 10.4447257229493786 17.5809701969596190   T   T   T
 12.6595289985351602 -0.3948013202870839 31.5805346711882002   T   T   T
 25.1792448405012124  7.1121653710386976 31.4331891004848210   T   T   T
  4.3482384130610789 -0.1600804576640676 25.4507078293562934   T   T   T
 16.7743396503969961  7.2687913701768032 25.8790782142023090   T   T   T
 21.2121487988604756 -0.2052033764156189 19.4188228485019287   T   T   T
  9.9282397519018897  7.0370111438411920 19.0495831888581435   T   T   T
  6.3700046287425476 10.5917958939649104 31.3957287582237115   T   T   T
 19.0183082937252053  3.5387151318628463 31.6450334261252593   T   T   T
 23.1336459619722632 10.9809271444542205 25.5953811620396827   T   T   T
 10.7114434061200932  3.1015022071678686 25.4071230577426022   T   T   T
 15.0246944011382144 10.1902904862395260 19.9754449591126715   T   T   T
  1.6228401496625040  3.9652015452639908 20.2951456073327066   T   T   T
  4.4802285636052428  0.0413095922649392  7.8107083552221548   T   T   T
 16.2934889573418502  7.1732604317192612  7.5323267430773946   T   T   T
 20.6112259746465796  0.6197556832374008 13.3092980153223017   T   T   T
  8.1494152513974232  7.2765123778223177 13.5630159684199434   T   T   T
 12.3620123062414482 -1.2067253773461157  1.7143119487521632   T   T   T
  0.3628294118179393  6.4461955456471882  1.8522569270661837   T   T   T
 21.4241352684381781  2.1187854544496907 10.5617459292830631   T   T   T
  9.3218556711658653  9.2256081129087129 10.9410545551568745   T   T   T
 14.2683578596551843  6.2483354784040888 18.3129091234201766   T   T   T
  3.0862686948349398 11.9950545674459228 16.8015508873758392   T   T   T
  4.9863110684894361  1.9532478232131720  5.0445749477377611   T   T   T
 17.5202303692557280  8.8740826139085556  4.6186852271533185   T   T   T
 21.6944371112021059  5.6857563682096695 10.4640419662266524   T   T   T
  9.4050275809106108 12.9410068356881816 10.7648600398931240   T   T   T
 16.1318657764131501  5.0591270577794791 20.7694378746716133   T   T   T
  2.2521195866422641 17.6710089767166991 16.9331338719023599   T   T   T
  4.9943500131006617  5.6526303197294991  5.0106972965364509   T   T   T
 17.5102935107292268 12.9579373314349233  4.3985062781093420   T   T   T
  6.2780488127899083  0.0504877311191736 10.6453937778219654   T   T   T
 18.8531416337137188  7.4118024660111237 10.8946681562957703   T   T   T
 21.5454516333191677 -0.6843824362422614 17.3768259519508881   T   T   T
  9.6363193855140281  7.3827840037102499 16.9814506412183839   T   T   T
 14.4811853689705270 -0.0659213632819023  5.1555262888134514   T   T   T
  2.1072556738378152  7.1703903462523382  4.9745809493988800   T   T   T
  1.8375762955775854  3.5219428104781301  7.3697002656281718   T   T   T
 14.9180605290460910 11.0439338966450755  7.2640432569133004   T   T   T
 18.7677494467666293  3.5898652486979432 13.1855533419880491   T   T   T
  6.0554191986761463 10.9721220267699451 13.0279271114280473   T   T   T
 11.0477576089996852  2.4410741825351630  1.1844030572200270   T   T   T
 23.5180435455235468  9.9266866761230617  1.2191562988866504   T   T   T
 22.9155004563857219  3.4136876912179246  7.9177363099085971   T   T   T
 10.7193742642443457 11.0562007304064487  7.6318424725756646   T   T   T
 14.5828156516380911  3.3215598184851443 13.7687304274555888   T   T   T
  1.9461724618525444 11.3386319318441338 13.4965685010578973   T   T   T
  6.5578924474072009  5.0427633110106012  1.5065142889087932   T   T   T
 19.7203607655672073  9.8653315338720304  1.3348690768536582   T   T   T
  2.9889211465569665 12.6903862355720740 10.7737188739161631   T   T   T
 15.8113849587983335  5.1396061859341602 11.1912231677146945   T   T   T
 18.0384355569316739 12.9526573896864292 18.9319215785155990   T   T   T
  5.6646249101035036  7.0016698534762796 17.1268143333977605   T   T   T
 11.6308458758986788 12.7201536598014293  4.9749542608532904   T   T   T
 23.9449894499996532  5.5667184096165974  5.4158122697695728   T   T   T
  2.6376618277035084  2.1006050887066303 11.0767440561913837   T   T   T
 15.4931783118516471  9.4218557383192270 11.0920958024981964   T   T   T
 19.7391762886763047  2.1417921683325223 16.7446754334626817   T   T   T
  9.5860218330390179 10.2382606042657009 19.3025220774878221   T   T   T
 11.4944477190686207  2.3053826170808938  4.8992022966994275   T   T   T
 24.0283352817485252  9.1041675179205619  5.1314837063785763   T   T   T
 -0.2649793730762314  3.9409782545027108 10.7623012449429112   T   T   T
 12.6180638988835305 11.0613600704291137 11.4131573924632281   T   T   T
 15.2562897363740912  2.8319401474122801 18.2452822728260351   T   T   T
  8.2337757159545681 10.8797592238753040 17.9401609422020805   T   T   T
  8.4777381156818485  3.9580913773276301  5.1723459590434189   T   T   T
 21.0027952043650075 11.1085299256685879  4.7025071910623062   T   T   T
 -0.1945463714546559 -0.1432075900539199 12.7565842401854450   T   T   T
 12.8171214835875986  7.4041577137790986 13.2372936397341032   T   T   T
 15.5720949710960017 -0.9596848567053068  0.8724400414001390   T   T   T
  4.2354778238835529  7.6860137504361932  0.8749561459695038   T   T   T
  8.4849905501996208  0.0483480920517922  7.1126717118686020   T   T   T
 20.4754295695061472  7.4675647498886608  7.2213023299047610   T   T   T
 25.7006867837868782  0.8509383027561803  2.1007184317625280   T   T   T
 10.5234345140586196  5.6901235684361344  1.2853722060869406   T   T   T
 16.6648844255851927  0.1587381576974767  7.4404588145573163   T   T   T
  4.2311846264771562  7.1326775365867743  7.8648663669807286   T   T   T
  8.2788328062316303  0.0715083960886885 13.5493338690648493   T   T   T
 21.2571532439028701  7.5257834278983111 13.3040112516731455   T   T   T
 21.5589716203922634  9.2346386436235157 10.5211476905061048   T   T   T
  9.0921381798217791  1.8947323818248041 10.8631928963300677   T   T   T
 15.8063405593535382 10.9488991279583061 18.1002329864364100   T   T   T
  0.7421737714907647  3.2683175931156132 18.4822144140146989   T   T   T
  5.0644824965982211  8.9765075758612767  5.1504648629791268   T   T   T