Cl48Li286P48S240 E=-2533.158551 eV
 1.0000000000000000
    25.1819793006824639    0.0000000000000000    0.0000000000000015
    -0.0000000000000009   14.5388225279766061    0.0000000000000009
     0.0000000000000000    0.0000000000000000   37.2126966544236950
 Li  P   S   Cl 
 286  48 240  48
Cartesian
  1.0487607450995580  1.7089672504694762  6.9604515691097228
 13.6462235234696152  8.9121840488918433  7.0224573881707872
 17.9514289934679567  2.3109405267572023 12.6708670897647426
  5.2153630378794826  9.4513783391535746 12.8135436867390720
  9.8854854159257464  1.6501984904353830  0.6304925619386716
 22.4679568616422252  8.8816196567023784  0.6721385231131561
  0.0747948005203934  3.9112125043298747  9.2383617748476237
 12.7457337602313672 10.9496483794619266  9.2650201733241779
 16.7563619740112557  4.7957299918625917 15.2897283587985964
  4.1510685932602192 12.0810301101181601 15.2049104019749972
  8.7545625295287017  4.2024522216805265  3.1838937442599531
 21.3306459744374841 11.5439950777561489  3.2862116934452854
  2.5433776043469876  5.5834490747292582  9.2830205587201196
 15.0919410346501834 12.9483826939691582  9.2440239377136280
 20.8448237311728377  5.1193852067944929 15.2863872998869841
  8.2291754895918547 12.3075974977540312 15.1532288580014836
 11.9692170326545071  5.3418746897117533  3.1630972827588955
 24.5917656580576356 12.5558949128710626  3.3087682775690057
  4.4076425356557296  3.5197459168477470  7.2947740699526689
 16.9478373392149386 10.8870145577449087  7.0820688804768483
 20.9429849034833673  3.6701006923843047 12.9626719330565479
  8.3229854135295849 10.8051308614370356 12.9158292446075365
 12.6630790496555719  2.8153463998822716  0.8449101739222472
 25.2446263832790798 10.1123095291971090  0.9440096538597303
  2.4522048608387279  1.7342981298877009  9.3542087024020848
 15.6171190660126626  9.4130925968114365  9.3864721965070146
 18.5512511624152303  2.1962429514409880 15.8040238495594423
  5.8595584879868454  9.5199651766325815 15.8405887813942954
 11.1839956240354486  2.1274758982988686  3.4816102906151394
 23.6817237862840315  9.3456391572856266  3.5838603682732315
  1.0303474508055324  5.5056339719401226  6.8489612104649034
 13.6143163177174671 12.8068848552718908  6.8222188600907403
 17.9397762173879016  5.8445151709812801 12.9927068229717300
  5.3763992342012754 13.0314155632875828 12.9213271837624717
 10.1598255814081622  6.0359206419220000  0.7146728330827461
 22.7748682612564401 13.2734762391567962  0.9314543898999847
 24.1268930568021140 13.2122048747544092 12.7568362087453480
 11.5317297697294912  5.8713553630381909 12.7697685279064999
 16.1486314664626711 12.5432420726835652  0.5817921945391100
  3.5866788640339946  5.1834408132372749  0.5511211244643759
  7.3958008344702195 12.5889884579575693  6.9938322339140742
 19.8851898757051693  5.3457808327587388  6.9870846568232778
 23.0035962689705649  1.1533505385634126 15.2933252128964714
 10.4519511686933928  8.4117959387855414 15.2656572691329373
 15.0271352871295196  0.5653120811898270  3.1921047416571429
  2.3980166213041985  7.8087375140357729  3.2025206996977142
  6.4799360578072882  0.2067980030967866  9.2547595955425734
 18.9760457817369925  7.4947479569488893  9.2054982894640798
  2.0337178077665712  1.4089910131852117 15.1792636375610570
 14.4672120881173676  8.7210581254864863 15.2177831849716778
 18.2610281143062281  1.6553692790341459  3.2059224681464724
  5.6361275966813480  8.9432770077905435  3.2294537253798579
  8.8144528814131355  2.0444110609569468  9.2499920902754305
 21.2257206217211944  9.3495599627682218  9.2859849409345774
  2.0400964221591624 -0.0724674548791973 12.9018056599458522
 14.6046331452389762  7.2847893516778877 12.8960044788103900
 18.9394460513129275 -0.7956770602293988  0.8751200816822222
  6.3518106925198259  6.4797239555021973  0.8953472297753692
 10.7556082634079253 -0.0090313117491093  7.1945821951280804
 23.2821322457543296  7.2498375811411835  7.3113718919483652
 -0.4494377273798411 13.0953676116519109 15.8449442449612086
 12.1087152134040537  5.8608940040563269 15.8472530312719897
 17.4240018332855868 12.9890250313360358  3.4672603051868038
  4.8115655647869202  5.6829349495682440  3.5090903649763887
  9.1940847970432031 12.9413243962996489  9.3577479643203798
 21.5398504061930218  5.5727157068897863  9.3653989456246691
 24.2535076597196522  2.1650785980080109 12.9767872160741078
 11.6166503496303388  9.4477618813745146 12.9621859466885425
 16.4711075230774249  2.3930034802864397  0.7759346975839448
  3.8930356271074009  9.6492220764786296  0.8371674751507940
  7.3567503580728149  1.8798772685865013  6.8120280490802454
 19.9074498981966990  9.1267972540095865  6.7923491929213160
  1.0951623531848818  8.9351352487584297  7.0411355651034251
 13.6884672335555191  1.6325959709476978  7.0103411275882008
 17.8626640221304811  9.5238179076040623 12.7929342130821464
  5.2509035688160752  2.2400360684379663 12.7741171361004398
  9.8382812211382937  8.8933740373466943  0.4641507392225108
 22.4526018450870595  1.5812852262950348  0.6747407806078571
  0.1028878667020010 10.9167515345017350  9.3007592283278857
 12.7902551663144894  4.0436632067389029  9.2643459915249160
 16.6995390268845512 12.1661721905604505 15.2652956398423854
  4.1770642163562703  4.7610050348853425 15.2706614290456884
  8.7169100902250669 11.5236545689695173  3.1494141177505290
 21.3040576357252682  4.1476682957194679  3.3023359353307584
  2.5346801496957867 12.9398636249925616  9.3155335449192034
 15.6503571355822295  5.3269247744163737  9.2872085959232678
 20.7807529883630195 12.3864815419413272 15.2185788013741696
  8.2693096595676412  5.0681661303378158 15.1506595900469758
 11.9505098704472168 12.5787653306854761  3.1607778651775336
 24.5049265155603955  5.2981512275072502  3.3231058389228418
  4.3945578632585489 10.9048077335525360  7.2164278939522761
 16.9766826377071709  3.5815870850597795  7.0686378068144009
 20.9053460841818008 10.8286929452282834 13.0119303109938365
  8.3497521283471290  3.5539753311947919 12.9167104397465966
 12.6302808209241313 10.1225712594498543  0.8365443843845062
 25.2695564384678484  2.8219743768458834  0.9534556380638118
  2.8787816740104777  9.3274072956264416  9.4199241392107034
 15.4480438375981191  1.9840033444483334  9.3568222667522871
 18.3091590047957027  9.5599296235657789 15.8805852256019246
  5.9562034675493720  2.2646373874957986 15.8630943796819945
 11.0599785345581196  9.3545747622891469  3.4151848430567280
 23.7611985876826388  2.0705540293875488  3.5082811102268421
  1.0108105786912935 12.8842301455688819  6.9928011445349529
 13.6411248969391785  5.6053217938092530  6.8824660957106367
 17.9750687271647500 13.0985940403414247 12.9184295632826416
  5.3572190170229899  5.8014065428026873 12.9717537835762737
 10.1604444554017519 13.3131340105740392  0.6903024963875452
 22.7511390953493091  6.0024644562450389  0.9688542158552808
 19.7706346018390491 12.6702207178280766  7.2082825396703649
  7.3835437978607787  5.2975032320381557  6.9867275253439249
 11.5207207385346706 13.1475292364661218 12.7550504557012268
 24.0739000545613848  5.8375099247986517 12.8217571168730373
  3.5637717928353418 12.4857315186811419  0.5141711028864636
 16.1340324578319461  5.2400762582019640  0.3931553291733125
  6.4269415280247832  7.4171436661414125  9.2328415708238776
 10.5050591777637727  1.1142347273989812 15.2670934235960587
 22.9842744951500926  8.4799629241126340 15.3490791052851918
  2.4837153334608435  0.6528267089704856  3.2433128165932752
 15.0268844420622205  7.8786296119639871  3.1416887093891859
 21.3447566487308329  1.7682690944161925  9.4405061864769930
  8.7421683497874945  9.3219849538453712  9.2403924180436317
 14.5500043755073190  1.4512632058692059 15.2169093490294234
  1.8947390585797537  8.6583796865359339 15.1874419687904840
  5.7083292829542733  1.6637952086529944  3.2075164190972871
 18.2570308119456719  8.9359866039326175  3.1236104416239550
 22.8499510839702786  0.0012780942904139  6.7134554407847089
 10.7033565853533990  7.2866576438224442  7.1548106418070940
 14.6087085496118725 -0.0147558622817420 12.9044628440480480
  2.0089388808674773  7.1142961449889865 12.9808856680298739
  6.3651131459943500 -0.7730418138062062  0.8494563589144054
 18.9498452928417720  6.4791712858664328  0.8655898122156479
 21.6131787008576381 13.0233997756780973  9.4870994225604193
  9.1786585918380261  5.6920075627136013  9.3315587620472886
 12.2929582813172420 13.0714170051132754 15.7724508800041541
 -0.6518763764311107  5.8302608162166836 15.8297278070982301
  4.7943918427257399 12.9583128285285891  3.4781924511729572
 17.3695036205748572  5.7030515416472065  3.3838617032702367
 19.6556998356154047  1.8329807876018667  7.1414853039461654
  7.3269953094128786  9.1701115280269558  6.8112524560609256
 11.6356659963563960  2.1680911598029420 12.9486659680913991
 24.1731856661375026  9.4481601004432108 13.0080757106973124
  3.9047366474023728  2.3820748324228727  0.8052286469074744
 16.4390866957987463  9.6979388265266486  0.6510712989187879
  5.1228597497392219  1.9753720870838498 29.9965410419269425
 17.7215336831948882  9.2631319555834253 29.9516608691334980
 21.9098157171588213  1.9018486964325045 23.7661432860421691
  9.2654914462674558  9.0713973702805433 24.0003536934996120
 12.5600143567617621  1.1468901736689061 35.6740482453657819
  0.0074429289335984  8.4814146058117270 35.7910545326699818
  4.5683083373244333 14.5792818317139101 27.6904197377479946
 17.1598990400315223  7.1986804311319244 27.7123533232032315
 21.7426775249518940 13.2716490659545929 21.7403070191765941
  8.9946763080511296  6.1758450340866071 21.6715482004253914
 12.6792720910471655 13.9126690904632095 33.6008114943016096
  0.0696628547899010  6.7892236026083541 33.6709966001377339
  7.8415031782943334 13.1268451511501159 27.9835021440341549
 20.4558422226670160  5.8774791408193430 28.0006448088369595
 24.6689793586956938 13.0483470401733985 22.0079918258303771
 11.9450457037916173  5.7240625043850644 21.9914110759315484
 15.8059399085157271 12.5379512720508153 34.0706589993489928
  3.2237049015131665  5.3114252006609775 34.0952513128738133
  8.4310568840786857 -0.0217692371450463 30.3646616416904145
 20.9909466807836047  7.3116141696198866 30.4107104910737753
 25.1102084309639153 14.5719242921256438 24.6769370219028659
 12.7204000956081771  7.3804072748784764 24.3093601977385987
 16.5948598199746122 14.9223577611887155 36.3374645484352143
  3.9998944677701354  7.6143384385330828 36.3838319650248394
  7.7835535576694959  1.4249442551138247 27.9272370554804219
 20.4748843834931975  8.6707077128099836 27.8802320755048605
 24.8137310095060286  1.3462398843904939 22.0892828731111877
 11.6495681687517596  8.7864364461977296 21.8207619970052242
 15.5697212021731755  1.7422391501893568 33.9762852423738764
  2.9776165909139034  9.0223137362988659 34.0263568038269000
  5.1038177801446718 12.6509795222439383 30.0548071629095226
 17.7152082750925643  5.3180389063907647 29.9780534798126297
 22.0627171473957979 12.7903310427559784 24.4058375912566028
  9.4461859024740615  5.6432475150553918 24.5468053222317693
 12.8301455028674471 13.0688278039076877 36.2263872372772369
  0.1803645962705537  5.8625091066147563 36.2605076048325117
  3.0682244954282094  5.5724376620796869 23.8395689619696078
 15.6107363182047774 12.7910202574356795 23.8863716429114206
 18.8968462266292114  4.8193655781407028 35.7420492398737295
  6.3362441535611165 12.0842616704590586 35.7320263096500312
 11.5069511296316627  5.5645257981823795 30.1195623318747145
 24.0129833947631823 12.9139674527356156 30.0315871707398365
  2.7488083264742817  2.6046985429144369 21.6948129360093169
 15.4025048809519145  9.7004612912991153 21.6929191278285707
 18.9740033279241302  3.0688384945049143 33.6797806104142836
  6.3472184465104320 10.3572456479501316 33.6153917607797794
 10.7978676200965236  3.5420535399693223 27.6783971920667007
 23.4745208759134414 10.9274101903298000 27.7190892522929495
  5.7547637725829492  2.1831328000144925 21.9660248166595657
 18.2824825889670066  9.3430762267577059 22.0089274477441528
 22.1255232701729589  1.6615643103133746 34.1556321814701960
  9.5457085206229824  8.8851633894249726 33.9848406515956825
 14.3170533913467395  2.4850554292494036 27.8682863351038392
  1.5758380957477092  9.5690825306075347 28.0181807196853470
  6.2688859710582845  3.7433241773316781 24.5577065547464422
 18.9701089510048639 10.9934417236797994 24.4610953037859851
 22.8904603481675508  3.9843136033281632 36.4476066995148926
 10.3110661617284158 11.3218575352187791 36.2759283799752765
 14.7644525290932478  3.7452925335876119 30.2346275490602707
  2.0865057041342978 10.9576784414194233 30.4353118905164450
  5.8566978849113998  4.9972719205280747 21.9953492577081988
 18.2420939860300102 12.3340488118199012 21.8919388846288712
 21.8959054080610365  5.4042994299038973 34.0561495714969951
  9.2837177588020001 12.5827995988952246 33.9279370552529400
 13.1177543336609972  5.6546548430965871 27.8187585206088954
  1.4871385664567220 12.3854130220448102 27.9755835235621930
  3.1855048778859838  1.9292614265078840 24.4103528233932749
 15.7814925375255779  9.1139258542823676 24.3741034505123650
 19.1150203211136258  2.1806575787723648 36.2708818306754637
  6.5165338761189027  9.4665653588256227 36.2268957864762484
 11.4273758383135124  1.7693589900660989 30.0209010783745178
 23.9931248266867172  8.9987878321211010 30.0386066525682196
  4.9420869514306718  9.2438127932352412 29.9015291271337809
 17.6934757947035308  1.9370905803085228 30.0103886610760604
 21.9029050659332256  9.1995797250213087 23.7711110863372284
  9.3306469988525578  1.7168772919931516 24.0892774833525358
 12.5938658347477546  8.4200409575740665 35.7194887210817669
  0.0236095294351510  1.1845123234842267 35.8113268517024608
  4.5958671327670215  6.9280335959758776 27.5690510152978661
 17.1519661623721618 14.4775681296054568 27.7600126692203339
 21.6831969537265792  6.0224986022225702 21.7108056022866727
  9.1054304397455255 13.4023928734710580 21.6357216171963920
 12.7051884458995570  6.5880266129021487 33.7212533942366832
  0.0880318624362261 14.0003692590346915 33.7186549539906721
 20.3150334768141043 13.0785491711191977 28.0023444806946138
 24.6426574516040198  5.7849987590297980 21.9303288049365079
 12.0689308769027246 13.0140795648971679 21.9826153149782080
 15.8483619080263889  5.2718613807624140 34.0888767472348349
  3.2275740536678148 12.5757102167524231 34.1250139330063504
  7.9863886088538560  7.1377199591432516 30.5328481447942153
 21.0558957438828394 14.5724237180033853 30.3807732123722971
 25.1654627220790772  7.3413401539663177 24.5916263797661188
 12.7067258169100086 14.6196172408529961 24.3937285918176130
 16.6719154652889685  7.6679063165306731 36.3295815125915169
  4.0445813622596676 14.9421712722432840 36.3758493286709594
  7.4260679169292274  8.5777554890153649 27.7572460432935806
 20.3739711884891399  1.4393527881410015 27.8978682716548683
 24.6968184020347294  8.6494845268470151 21.9968105801104876
 11.7589542021581135  1.4768786577707409 21.8718825431377866
 15.5613130056345064  8.9886599046075357 34.0243736825991263
  2.9841982108348342  1.7607468247860996 34.0532036407715140
  5.1330815164776231  5.3433815503506086 29.9969863253666453
 17.6885876276667631 12.6643011392882805 30.0741844277861681
 22.0766839654620206  5.5540557148191301 24.4408015352813450
  9.3869694814485793 12.7184335352067315 24.3254581700097390
 12.8644169074812336  5.7806852059024232 36.3378579389805267
  0.2091407781226235 13.1398609650713531 36.3300723352199242
 23.9151745491908478  5.5772706017185723 29.9789263619567556
 11.4726326084679027 12.8210821721995032 29.9854671540301645
 15.6457476883224924  5.5219643375562928 23.8430777581313471
  2.9592281737449104 12.8235632884894688 23.8578293397141934
  6.3176366362935017  4.8005836800613357 35.7426247873378102
 18.8851283886704593 12.0687572583289970 35.7453425196938710
 23.4689566709884510  3.3613192837551518 27.6817252908677567
 10.8051137900861001 11.0823189533078246 27.6908299980128731
 15.4387476498718801  2.3584271988821173 21.6551533393903703
  2.6705862630017765  9.7651538999470748 21.7128561474017943
  6.3579533173424787  3.0431312863898157 33.6565849979925318
 18.9623785089662427 10.2836286696724262 33.6831531904112751
  1.6167031406652408  2.3303876797920764 27.9714629752781860
 13.1569308842190207  8.8942854451011168 27.9164460598490010
 18.3074071851808284  2.0704548503356230 21.9952728722525563
  5.6988874261196827  9.4636151899719341 21.9170277246413185
  9.5152842807150151  1.6185505076581994 34.0841211396029280
 22.1358800635176642  8.9385435731469975 34.1194631362782843
  2.1301142197733580  3.6709566986978461 30.3613132199201026
 14.7495918719304768 10.8296271979953289 30.2676320774832490
 18.8989873817199161  3.6906241834311597 24.5413189188783036
  6.3044546173457681 11.0388585928752629 24.3784489682187271
 10.3197794778565761  4.0020212077367736 36.3304186394680642
 22.8959592924255269 11.2824183616323843 36.4289878146949633
  1.2209856709313769  5.2286564844723813 27.9110820299856570
 14.3729041100285944 11.9837312489078727 27.7637111993198680
 18.4830532778381880  4.9539538044194078 21.9879366862404915
  5.7709972947180948 12.3447987547252254 21.8886867028853622
  9.3135788971435218  5.3343497241410907 33.9531703653195933
 21.8959806306023665 12.6762974416279253 34.0594058499718599
 24.0239750718770360  1.7529260232571824 30.1148670244179648
 11.4795326985425810  8.9695633082395680 30.0917690394847099
 15.7324844368454979  1.8553570923290337 24.3773834747900828
  3.1976387086906635  9.2380570683557970 24.3928723298294443
  6.5790398726915118  2.1920583433533718 36.2887116330434054
 19.1577191206160116  9.4565908885261365 36.3095287224716543
 -0.4416660139925393  0.2721719866464899  0.9251576295631277
 12.1654185201718423  7.5480183356435493  0.8227040256000037
 16.7396402553705279  0.0308274445476727  6.4040568240661173
  4.2004636548969474  7.3052260016880410  6.4063444220717782
  8.3690174452013277  0.1639470270168091 12.3713876807237408
 20.9224865569379190  7.4652752951544352 12.3488773086170571
 23.0600591082868327 10.9734753098985625  6.4921776313189197
 10.5263397876724270  3.6915841891079686  6.3746149847334026
 14.6203268692936863 11.1247795854780414 12.3825175163787549
  2.0859242125105211  3.7660691159265816 12.3539587103290440
  5.8867521948620487 11.1709963336926013  0.8114908123107466
 18.4821152868058540  3.9032566697956206  0.8300926626014531
  4.2409399296124857  0.0366150140243401  6.4046336881175128
 16.7816767660087471  7.3244819602280531  6.3243536755255683
 20.8820298608584629  0.2145346573058808 12.4676517728804317
  8.3614589321892829  7.4381313713623793 12.3460177674392426
 12.1912143424632990  0.2626507544230692  0.7939906658484381
 -0.4595265733380584  7.5394871639740231  0.8731571501646258
 23.0070188066963262  3.6648537969932895  6.4642300339340037
 10.4975622415324246 10.9626977846594222  6.3479477638507324
 14.6452770317233885  3.8269363841312023 12.3968745997464058
  2.0346459845709912 11.0605890102690516 12.3944166181952937
  5.9211591213804082  3.9022152720712420  0.8566108995666200
 18.4717845202887681 11.1780851854760215  0.8597276778679837
  3.9952778484592213  3.0898851450318277 18.9490274937802923
 16.6370893051747721 10.4842051868146058 18.9846364143440738
 21.0389856325446800  3.6315888224585042 30.8853707487652009
  8.4077764461466522 10.7927607548769267 30.7367130292365509
 12.6286835339397783  3.6323986288958179 24.7300117669028587
 25.2949392924093637 10.9187811296732011 24.8175807161453683
  2.1124391988582500  7.2535378982257521 30.8336629376426217
 14.7265962962108947 14.5327906528135014 30.7950662529615009
 19.0252360192795749  7.2843600235512396 24.7904496738451208
  6.3515531708812922 14.5660443979415160 24.7697469760726641
 10.3559583674661084  6.7917739868413927 18.9411258132750291
 22.9498901344569042 13.9842758674501475 19.0345106516545179
  8.4563750808040581  3.5916769178880092 30.7875058095769454
 21.0584983175957561 10.9173914670079686 30.8806482865696488
 25.2944298479170726  3.6511355511230157 24.7751601928206817
 12.6476432927093256 10.8889641343168666 24.7416652117479998
 16.6358763021725977  3.1026492810833406 18.9653259893566570
  3.9600467504087744 10.4982634801459600 18.8592800072822016
  2.1563138271750124  0.0425374138069659 30.8813384798965380
 14.8105304360812653  7.2634355469009222 30.8769837780362977
 18.9953145664695136 14.5420331529878126 24.7948564261096571
  6.3413658331156935  7.2877519066562337 24.6977348000346275
 10.4312723500166644 14.1102161578017586 18.9321158173650375
 22.8410305370792095  6.7885312001046589 19.0156416494081988
  4.2102654738327345  0.1452060874602198  8.4547685372787544
 16.6828742277850601  7.3984419412942231  8.3933418183122495
 20.8146717044478891  0.2687522187099963 14.5199214325617465
  8.3023035519557649  7.4769975325404401 14.3800646514858030
 12.6529180481203358  0.3369596677375534  2.8510677605005137
  0.0166144615706512  7.5838474126291375  2.9372108755483461
 22.0244618477608860  1.8021962099171356 11.7615783651691785
  9.4197104399778304  9.0439105403778015 11.5918255334872722
 13.7798176929132872  0.4226273825482066 18.2760060040639587
  0.9972381140172067  7.9162498681339057 18.3388355800381291
  5.1930922680872289  1.6949950383036048  5.6172655107135796
 17.7560038576354806  8.9788344934702167  5.5686885142595539
 21.8320542592884408  5.7098393830048231 11.7141043921967167
  9.2509995926401061 12.9345632628917535 11.7339301119556865
 13.8948287845774292  5.9019691382466428 17.8269652576615094
  1.3643280126555155 13.2934632684613909 17.9362663952245569
  5.1657502133231503  5.5759894483263377  5.8634757033910914
 17.7338121517234057 12.8601959038054794  5.8031871307141012
  6.4262163373955197  0.2846107155894311 11.6466478878231872
 18.9796937276434292  7.5675130632755483 11.6028662440202499
 22.7214966785238239 -0.6735708546129178 17.0201753558671882
 10.1062007588417657  6.5617976804301446 16.9383081191791618
 14.8628265299313789 -0.0233726701265519  5.5212977160254839
  2.3117634078960609  7.2642006705418503  5.5754478544451720
  2.0566769925400639  3.6435254532137540  7.9522559783902693
 14.6703248814392389 10.9370618266897441  7.9172563524349391
 18.8666107590870737  3.9680082506868577 14.1738112234992890
  6.2539991824785579 11.1742138141648208 14.1332886906070119
 10.5777056278793822  3.7998386215801365  1.6801451822228548
 23.1500245209814430 11.0584859874282309  1.7972569926739776
 22.9234588545464852  3.7092059381929863  8.5206497424080005
 10.4338164697344897 11.0266849607480957  8.4143680976817929
 14.5693501766249973  3.8639486815971709 14.4284056358167803
  1.9661831374123091 11.1084410127573676 14.4275679712925626
  6.3785589160438327  3.9661031928733719  2.9184123796726542
 18.9750861196732679 11.2340646091387555  2.9054739461727510
  3.1411266727466955 12.6386011561830589 11.6485882423478611
 15.7073643703664096  5.4515399067588950 11.6752540579642385
 20.0755546560356493 11.4329601961280183 18.4384697860756752
  7.3282449039596376  4.1634912999171396 18.3282369269319823
 11.4538460264596349 12.6285436918078435  5.5935785705041967
 23.9885627813523676  5.3333721330153390  5.7231543992538185
  2.9878035963774114  2.0133618027335731 11.7078719468055770
 15.5537637693196906  9.3723961359916572 11.7679785915525130
 20.1921703370094221  2.3824288146967891 17.7967013543456716
  7.5058262986060615  9.5945294976018705 17.8309847189520738
 11.5044568167602606  1.9705967739535342  5.8213464984116863
 24.0531488450463087  9.2557288848065742  5.9328881470374997
  0.1403500034089863  3.8929124992741646 11.6340405859864102
 12.6813921452955221 11.2035628501370308 11.6325871295873498
 16.4232504672721547  2.9207633926896190 16.9527640213378383
  3.7324716319762095 10.2612789247531815 16.8704944236990677
  8.6344535795032460  3.6328605545574013  5.5474245499925168
 21.1876554859213400 10.9567735447407291  5.6421049356349666
 -0.0333036969756810  0.2874214077452585 14.2002266192024198
 12.5352950544909518  7.5689945840651394 14.1440466222110608
 16.8388120192393025  0.1573322016354638  1.6848982907487631
  4.2442273017987011  7.4024058051723376  1.7257188636218801
  8.4179563131808948  0.0452489160891777  7.9225183204436558
 20.9432514491830730  7.3124492146352855  7.9379980088864110
 25.2991809934365079  0.3012746748596127  2.9676982422404579
 12.6492692840681524  7.6353217032699625  2.8725294311805736
 16.7296465895934965  0.1211936568037031  8.4292597279499990
  4.1132654511676865  7.4062564781748597  8.4668008463731343
  8.3229405514021266  0.1996726541958542 14.4063588593469518
 20.8521779501526261  7.4988467203090208 14.3802407878788632
 21.9668094501365232  9.0861576408920417 11.6119488711733947
  9.4335380641196505  1.7645480756478940 11.6134291492047197
 13.7740137386746220  7.7721290876033260 18.3625937802699006
  1.1377722412478957  0.5933507360287993 18.5377158687918815
  5.1581854907832518  8.9694198678659376  5.6433066326270911
 17.7132029997843397  1.6774337865664524  5.5991203243772532
 21.8238688112163501 12.9831781678475728 11.8822027609705021
  9.2593717236927411  5.6778534575929571 11.7106673396449956
 13.8291740594490786 13.0418236107344825 17.9320649314881102
  1.1419409003395293  6.0882647037176083 17.6884346108877786
  5.2082367440615451 12.8541413928902664  5.8216868728508810
 17.7513407068415177  5.6203153430106845  5.7297259670225493
  2.3434377481031357 -0.0110768014235441  5.5917411898479337
 14.8875940026351952  7.2983857330686561  5.5167052828389975
 19.0383293684969566  0.3287709152763963 11.6101656734484582
  6.4151778372669428  7.5460569206461994 11.6231074321675596
 10.2265818393927894 -0.7099769893128697 16.9388351060224380
 22.5517663561195825  6.6505132586048026 16.9995758967477641
  2.0701043592668373 10.9501266243831452  7.9765640839550684
 14.6921866319591619  3.6750204932804973  7.9123742663290404
 18.8090103941198272 11.2291198522631426 14.1904217387210743
  6.2836877925784256  3.9254712602712547 14.1489453878739528
 10.5246474234136933 11.0709151445330374  1.6367649326423728
 23.1401469686654018  3.7669888580931934  1.7922429577183103
 22.9631262294477736 11.0688936102445403  8.5452495491289024
 10.4607337224970909  3.7888495870869012  8.4370800440853895
 14.5176855816096833 11.1631744740277625 14.4190737001457538
  2.0412734325455419  3.8016911971719995 14.3871467798108235
  6.3451283130517364 11.2272130842317619  2.8723266641702732
 18.9464888548864998  3.9525975641219993  2.8844485519235370
 24.0747453571382160 12.6158840695291801  5.7207556269103970
 11.4829229444226169  5.3373383969461958  5.5871777610736890
 15.6810010142005929 12.7202191544717849 11.6236634428473291
  3.1485614371187536  5.3855706931531362 11.6282854119704844
  7.3190393991214995 11.4890740102949298 18.2730842027528269
 20.0274850686239922  4.1838501657884457 18.5120398014505447
 24.0365409238407999  1.9761056171375166  5.8514745641404442
 11.4763344770939462  9.2621537558365130  5.7542999880764372
 15.5762611549653265  2.0905754003139609 11.7538425214165496
  2.9204089305410506  9.2846008049767743 11.7860236597730932
  7.5649846701995012  2.2645068093445997 17.9271848613213933
 20.1675478405676571  9.6261474159946498 17.7206054875228745
  0.0933441033022081 11.1998837426804645 11.6695868391307389
 12.7076001446190983  3.9353906595269690 11.6475787950657708
 16.2585460255080321 10.3346623240022666 16.9938823437020581
  3.8330664205846148  2.8878047464456489 16.9257002951220983
  8.6034441603527174 10.9227717171574170  5.5270559175971155
 21.1265664376145850  3.5909022302897400  5.6492100674385286
 20.9385861236611142  0.0342409704427339  7.9326583320968647
  8.3626865904427383  7.3167656362615645  7.8965172646680228
 12.5557011441536197  0.2964726821838023 14.1226973611723494
 25.0856411830920223  7.5476710079397744 14.1645007406631827
  4.2747290332011358  0.1593400903660866  1.7091566554783917
 16.8354329548520418  7.4236809171547842  1.6371987804664128
  8.5452505803710910  3.6091658362450412 28.7581040918756052
 21.1893790012308436 10.9105352615799358 28.8118033773125823
 25.4963110008818781  3.6178301988019741 22.7344839848516855
 12.8118508725799405 10.8090447356092678 22.6933115368602216
 17.0037301606671143  3.3110138119429875 35.1686564709941436
  4.4209284899215548 10.6208301487934076 35.1319816786300407
  1.0331030277437370  2.0013529725787147 25.6227872601834150
 13.6204089276740383  9.2694481323044489 25.5751637549039756
 17.2501909434214227  1.4262012500981738 19.8845562407217891
  4.3891217250477155  8.8297949964515681 19.8757774636945435
  9.4056259859830060  1.9287154321747875 31.6050175228476675
 21.9917035833085812  9.2318448495608489 31.6349367200232940
  1.0482298805103496 12.6057866363648525 25.5614567871659446
 13.5696317993943083  5.3333304997629618 25.4139166273827364
 18.1397773065222090 12.0232546620141676 19.2717476103644003
  5.4758969978124492  4.6521217805791126 19.3085612973764498
  9.3994567940957161 12.4460975751518141 31.4899747514597941
 21.9669031624895155  5.3275285714361509 31.6152530862704104
 10.6253283712157582  3.5995427648675058 25.2832151449382145
 23.2968366453681135 10.8637226009996262 25.3414456236449901
  2.4023585145642068  4.0024621535300202 19.7549833424569279
 15.1359042825238923 11.4150144132635631 19.9667147337324700
 19.0371148447496772  3.6468249285682108 31.3867249719574914
  6.4168354628428483 10.8637498743279934 31.2994390194260639
  6.3102936141850217  0.0084728052572310 29.2237555582308488
 18.9366875478944721  7.2967360042617315 29.2023731623592440
 23.2572526939711679 14.4927847522841127 23.2558529440571569
 10.5958367255690824  7.2355779713241022 23.2240230547718376
 14.6035048466868460 14.3378586006506925 35.1966291176014963
  2.0112619148651749  7.0951080130456710 35.2357630025137567
  2.2515342391254580 14.5924688763634283 28.8152417806464243
 14.9144552204715524  7.2582145377152880 28.8177974645044621