Li P  S  Cl
 1.0000000000000000
    25.1819793006824639    0.0000000000000000    0.0000000000000015
    -0.0000000000000009   14.5388225279766061    0.0000000000000009
     0.0000000000000000    0.0000000000000000   37.2126966544236950
 Li  P   S   Cl 
 288  48 240  48
Selective dynamics
Cartesian
  7.5291502798853189  3.1444683691777491 11.3946950506430156   T   T   T
 11.7025009561373690 12.8010445834597206 12.9052926050410175   T   T   T
 17.9221504865122370  3.9780609110951359 15.0017338908075395   T   T   T
  5.7613874698394598  9.2052744135100788 12.3355745162471191   T   T   T
 19.2910450528651296  9.9296568560626639  0.3009688285861820   T   T   T
 17.0723670179660374 12.8802233502988805 -5.8712087574393879   T   T   T
  2.1946040222109455  1.9799798731606715  8.4039732543163108   T   T   T
 15.1689007325324816 16.8181258427545970 14.9204678176397874   T   T   T
 23.7468908338045495  2.0559945668826010 14.2513243939468026   T   T   T
  1.5786232273457836 13.2180878424867387 13.1319528758751289   T   T   T
 10.4804634289302392  8.9726746821449588  8.5531303012622928   T   T   T
 22.4347826569311195 11.1511348041938056  0.0059981639684614   T   T   T
  0.6096803136279391  4.4501932907449282  9.0967434902929316   T   T   T
 15.0156955645370420  8.1643572227673751  8.1714058757797385   T   T   T
 20.9447971190834039  2.9254274925282089 15.0502223018969694   T   T   T
  6.2181946931559962 12.9097590972365630 11.3892808171069273   T   T   T
 10.6783004166462003  1.8549670900175319  2.7322116238451968   T   T   T
 26.0199346540898944 12.3499118750031442  9.0899840021602181   T   T   T
  4.1529817510866032  4.1972802760480299  8.7223300415004665   T   T   T
 13.5117541828256904 13.5830815719662752 11.1222913445979987   T   T   T
 21.8409543439081659  4.2034993692210056 12.8334877032077461   T   T   T
  5.3824783411433295 10.5394802701671573 15.1790152581398701   T   T   T
  8.5036749755323235  2.9440809710283884 -3.4590869348188944   T   T   T
 21.6668581016264028  8.9759656986383156 -3.0684744330473070   T   T   T
 -5.2483001565140430 -1.9036873331434043  6.6122901586762834   T   T   T
 13.1114174625181281 10.7242098983055847  8.3596782393916840   T   T   T
 19.3729236678062122  6.6248948116501865 13.0724727519044635   T   T   T
  8.6710092908074010 12.7614429007939627 15.3187599766754747   T   T   T
  9.7018092600465078 -0.9774534300365361  9.0081034875758732   T   T   T
 28.5061048924349905 10.3448921319049347  6.1133075253219840   T   T   T
  0.4823029794778831  3.0998255698199220  5.6115219726312198   T   T   T
 22.5035274825304583 13.9613239904963606  9.1758475809312401   T   T   T
 18.2825276613228311  2.1130206531304103 12.6504383700051282   T   T   T
  2.5937720488019154  5.4713897750108655 23.2939373812344535   T   T   T
  8.9481575428509963  5.4682994968133523  2.9593236123413176   T   T   T
 26.5600605194911665 12.8971357912147333  0.9521147653389064   T   T   T
 26.8464559734463890  9.2218602053534546 14.1119474703015193   T   T   T
 13.5286409966923582  5.7423195860345739 15.1166209984175897   T   T   T
 13.9941400437886116 12.9782537387168659  7.1285106195617072   T   T   T
 -0.5453040778761166  7.8715116763705373 -2.9893151421697293   T   T   T
 10.4785199122003032 15.2384908922187954  6.3257957086037129   T   T   T
 20.0783075615710516  5.7217570570289524  6.7750954996768096   T   T   T
  8.1783214576867564 -8.7851471101577197 19.5569414222043889   T   T   T
 10.7570884071852291  7.1754815580084959 14.8411155728521003   T   T   T
 13.3450688124348105 -1.8249270557008135 -3.4926970816296348   T   T   T
  6.6810328461640855  7.5724811497909634  3.7160890969105504   T   T   T
 12.6596155016760541 -5.8852986198395474 11.9283862860945842   T   T   T
 22.4734220729685887  8.7844685427739968  9.0190472682560667   T   T   T
 -1.3045076050943731 -2.9495725918296762 17.3839009681217185   T   T   T
 13.2161347703899956  9.1154624640185204 15.6213730200046523   T   T   T
 20.1257607000569507  4.9586616464622040  0.3161455603643740   T   T   T
 -0.3387574730221793 16.2496436104205912 11.5558074199560306   T   T   T
  5.7516591993800859  0.6743780928647981  2.8159407869894109   T   T   T
 23.7088584511135494  6.5064722326652964  6.8905871459442700   T   T   T
 -2.0026041879193506 -0.9819715393833492 13.8311812418398059   T   T   T
 19.8545667346549450  3.3728379909166191 10.9211640748730741   T   T   T
 15.8370172443282691 -2.4028506603627457  3.9682430181339838   T   T   T
 11.8907476804416952 10.5140447447855792  2.7888115480205062   T   T   T
  8.5698259639468883  3.6064008796099061 14.7747762703874486   T   T   T
 22.3150199271006784  8.8656565146016320  5.5817249865369405   T   T   T
  2.9265745360833328 15.9956764723386087 13.0876590915033546   T   T   T
 15.3765695712585462  7.5849776617135101 13.3369674889326006   T   T   T
 27.8264510513586458 22.5871067398846641 -2.8720018185546028   T   T   T
  3.4161952829064308  1.5030997288284678  3.5191788974786360   T   T   T
  8.6380620378853958 10.6338996113859210 12.6549532349342986   T   T   T
 20.7840477293304460  6.4389965298096792  9.3295330009190494   T   T   T
 27.6803945690564532  4.5053537270795916 19.3900326852526206   T   T   T
 11.4377458521343609  6.0885752690442718 12.5993863940856343   T   T   T
 18.9417370623066930 -2.4831302846344649 -1.6135118870910563   T   T   T
 -1.5610261708809665 12.2967785229037609  3.5367932591190718   T   T   T
  7.3292497349555648 -1.1804243624000359  6.3321446183204557   T   T   T
 19.8624363923312401  9.0622522432195574  7.7831193218616068   T   T   T
  1.2161235838777313  9.4595064711644454  7.1910392624735495   T   T   T
 19.2432066721069575  8.3375326675073254  3.0150644280168692   T   T   T
 17.2112589429122096  9.8837164960634496 14.5043890061561118   T   T   T
  6.7127389146259517  1.6598953871879933 14.0301620857225533   T   T   T
  3.0002236485780762  8.9634342578283892  0.3380200005759006   T   T   T
 30.5025007935725938  3.0014312322154004 -3.1965159373804570   T   T   T
  3.8538013380956464  9.8460417144093562  9.2323999805788350   T   T   T
 13.9407732931042290  9.7640476076744491  5.5501112873767244   T   T   T
 19.9678617743579210 12.0404852692810351 11.8914262391559120   T   T   T
  5.2539268723337909  7.5185507171217640 17.6442048569697576   T   T   T
 12.8448802708448238 13.1288466888477586  3.7265067039344761   T   T   T
 22.4970219022619844  4.9441023658835244 -1.3280391546261996   T   T   T
  1.5474575192114206 12.4009062193723416  6.1131793336423010   T   T   T
 13.6582849942610967  5.4192397293987948  9.3142832194155822   T   T   T
 21.5992504802474699 10.4823144397165642 14.3733949761514417   T   T   T
 12.8106377697803051  2.9616720914327543 13.0250898254307277   T   T   T
 17.4571666033696786 19.7991147858930354 -3.4824130531252435   T   T   T
 22.0524512450247485  6.1557448948708027  3.1827110788121749   T   T   T
  4.0151404196657428 18.2781075915034208  5.7343701729296050   T   T   T
 15.9549637061488472  2.4863489183684369  8.9960596112806073   T   T   T
 18.7775478815700225 12.2735476575348947 16.2126638300432440   T   T   T
  9.0437871343727654  2.6253991051421135  8.4422271721398126   T   T   T
 12.7028266055043328  5.2475091317245388 -3.5400873626928671   T   T   T
 28.0952707816581011  4.0014116631022238  0.4276974536738867   T   T   T
  6.5233561936104900 15.7769396224742451  9.0287784073244346   T   T   T
 15.7084349222810111  2.5838771822866922  5.5345516933907613   T   T   T
 14.3040263772548908 13.9182816742659519 15.0431973964439987   T   T   T
  4.9250966270178411  4.0081095204848634 15.1815712933706752   T   T   T
 11.4281223357447050 14.8472999280272759 -2.5304469816088706   T   T   T
 23.9369251223697432  2.9224930447532715  2.8498551386088535   T   T   T
  7.4967662470748246 16.4889349178195310  5.7918237524764375   T   T   T
 16.8073568747149906  5.3017567370362357  8.6411563999189180   T   T   T
 11.3150286941968492 15.1508085487112218 15.8900911038177099   T   T   T
  6.9684097284310118  6.6412290084338697 13.5871972558004028   T   T   T
 13.9351261176741925 13.6289626554217556  1.0174929857832391   T   T   T
 24.0875822802975605  6.2281587507393699  0.2516927807142744   T   T   T
 18.7486904280392253 13.9156608467615648 13.9064204684100066   T   T   T
 10.2788097268125735  7.9772798072364104  5.6321853372016539   T   T   T
 17.1228297457889411 11.7466536840684448  9.0525118577939523   T   T   T
 25.0762136891669485  6.3347830170135104 11.4890916858042686   T   T   T
  3.0583937005330153 13.0596120235214848 -3.0559837720944985   T   T   T
 17.3134393855551210 10.6184547345056544  6.7213717201693388   T   T   T
 21.9503668191532739 -0.0015107030771558  5.5613997668986030   T   T   T
  5.2629482856028522  5.1891448518396563 11.4811865931807660   T   T   T
 13.4076213911947111 -1.3808941882693129 18.8861114555977849   T   T   T
 25.5553761928774890  5.2793435258773895 14.5432894739155731   T   T   T
  5.0460344055890403 -1.8819548530823436  8.0805265302222473   T   T   T
 17.2376166693603849  8.2409876540042468 -0.1773927031871948   T   T   T
 19.4667212818187778 -0.0513975325063555  8.8246077330546946   T   T   T
  7.6298942371700083  9.3898502308543996  6.1666628960180878   T   T   T
 15.4612038335722559 -0.6409375057722231 12.6509588529202421   T   T   T
  1.5401373201678823  0.5848163158865058 15.3573065535229869   T   T   T
  6.3073673043529208 -5.5978817525373206 -0.3629884971282210   T   T   T
 17.3380308486639478  4.6014378072628208  2.4315062612988649   T   T   T
 23.6490450008489432  1.8313250087553097  8.0155094502983104   T   T   T
  7.5563193227575489  5.5779030055990386  6.5773074159886198   T   T   T
  7.6439485317992766  1.9493704236365805 19.2292223156667141   T   T   T
  2.9451006083121798  7.0375979459502744 13.3184253347519839   T   T   T
 14.1898098690538053  1.4343481701005771 -3.2217395360053458   T   T   T
 25.2999865843434932  9.6411003975104173  2.6491698754261890   T   T   T
 19.5119013880379342 17.0360506891779053  6.6803526025380737   T   T   T
  6.8521232146654292  8.2945094085628988  8.7692448281967117   T   T   T
 11.5633852331605933  9.8462083042961730 18.9764754942790326   T   T   T
 -0.0612662737889598  8.8292358514355449 11.4446418233989071   T   T   T
  4.1785458150363448 11.3686540107242919  3.1445244821161049   T   T   T
 17.4950967175491883  1.9101105000221452  2.3592209208152441   T   T   T
 13.0628046125745101  2.8346130715124356  8.1643707720814440   T   T   T
 10.1037521841162601  5.8699723758071460  8.6478303311042772   T   T   T
 16.2769044850445894  1.3417254869948165 18.5812794639420851   T   T   T
 23.9193946638988635  7.5303688135164784 14.9250552222280977   T   T   T
 -3.3365613528119518 12.7957523153375909 -2.6360997213231960   T   T   T
 11.6264245138357651 15.4394121109809248 10.9643247434870439   T   T   T
  3.3144182245247413 -1.5220869591128325 29.4154819887487768   T   T   T
 18.5142428435432507  8.3669739523438587 31.7880454771587928   T   T   T
 25.4542904425765428  0.2276449602715517 24.5544650514580276   T   T   T
 15.6459842391741013  9.3965710193805769 25.8544292399226343   T   T   T
  7.9301841936230719 -0.0690574621613134 34.1421659134801416   T   T   T
  1.5784602545491879  3.5777405447757209 33.8926011872889461   T   T   T
  7.1187749599464691 12.5905462400030146 31.0990360199484250   T   T   T
 18.7632870485920478  9.3988339198721924 29.0473590409665903   T   T   T
 13.9357421869294278  4.0590844773228598 17.9043101557467565   T   T   T
  4.5350421734565058 13.5281447590120116 14.1372463454710413   T   T   T
 10.3059020514370570 10.4231122891532841 28.2671825190463544   T   T   T
  1.4191025843866842  5.7794838834190569 41.1403371236497151   T   T   T
  6.1175736931234415 11.5883156715636062 28.5764930949408367   T   T   T
 19.3333051955491371  5.9436277410613823 31.1360816313503328   T   T   T
 24.6829359962880162 12.6150469359086657 22.8621033506076152   T   T   T
 15.4300113334703486  5.6099508011644543 24.9399800377437870   T   T   T
 10.9947896515125567 14.2835774368355999 37.3077880646607980   T   T   T
  1.9845320541206346  6.2752986543353817 44.3674853457533800   T   T   T
  7.5287072857693751  0.5202309909877260 28.8072284924179804   T   T   T
 20.4670944202246119  6.8040649144395449 28.1629862326566638   T   T   T
 21.9690612120529778 12.4087909188554235 24.9749004570929323   T   T   T
  8.2213208704885492  5.2892077678213552 24.0053848210685850   T   T   T
  5.9223587571932725 10.8537325796084296 35.1787184609086978   T   T   T
 14.5417095467506332  5.3837566893329516 42.5082214443788615   T   T   T
  7.7134075051984281 -6.8203825077574116 29.5141210041510824   T   T   T
 18.4573144053380602  4.2388891975713863 29.3028375826845888   T   T   T
 25.8866353355184984 -0.2389177064730910 20.4633472982630984   T   T   T
 11.3891130192195345  8.5583964805060440 22.8303107038514526   T   T   T
 16.3739553356986534 -0.7577587699552127 36.5709039009444865   T   T   T
  0.8485031665129136 10.5695290030118798 36.2571179867636602   T   T   T
  5.1482858222750272 15.8564573385349128 28.9098077345783970   T   T   T
 18.8351660267767542  2.4738271893354580 22.2441627755778342   T   T   T
 22.6646675505410968  9.2338082427508930 24.2483721078850252   T   T   T
  7.8276875734179452  0.3529428517782796 22.1822092626922824   T   T   T
  9.4619448966858126 12.2613607429295470 36.7431539677874355   T   T   T
 -6.1856571416825181  2.4620343166529230 33.5430803735315521   T   T   T
  5.8891986322709045  2.2701997032314436 24.1124243779332730   T   T   T
 18.9681593119666587  9.5568727586556292 23.1795281340650199   T   T   T
 24.2830515493022432  0.2028376066885715 35.2696791023887357   T   T   T
  8.2804391114761025  9.9434282191581467 38.9222582404204189   T   T   T
 11.8322772025506548 -0.1448851481961216 25.0791272848093598   T   T   T
 21.0483735257637861 13.1355745064113805 22.6222775048530345   T   T   T
  3.9687246680012760  2.0364423033202841 17.9138074854252949   T   T   T
 14.8226713596163790  7.0121665775867630 20.6115695804480801   T   T   T
 17.3358945051528437  1.8048410968313722 30.7044420632454695   T   T   T
  3.9528774242690417  7.0609607339173506 29.0792172428116267   T   T   T
 13.1739024806790272  1.6722823065197057 28.6367334286046784   T   T   T
 23.4362055955267863  6.2091172997512336 25.5173821776394973   T   T   T
  1.9153691419785632  2.2985025621577906 22.1621317508948614   T   T   T
 15.6707582483325520  8.6401666792380283 22.6000147239802871   T   T   T
 27.2511225852422712  3.0407314301799162 30.6793138837022212   T   T   T
  5.3580096473409018 19.1730668872409140 36.5519876322514108   T   T   T
 10.5989241900990780  4.6913794542626377 30.8325798499144277   T   T   T
  2.1086290048729897  9.9162297111577296 28.9960438123842827   T   T   T
 11.7716738862971528  0.9287630977923175 22.5917752538689527   T   T   T
 14.6468550594095941 12.4193577605789862 22.0459177965037938   T   T   T
 18.5294251789301896  3.6838341428879962 36.3196085326341773   T   T   T
  9.0330666290958259 12.7535621769259819 40.4176502276544340   T   T   T
 10.5775072070634266  1.0031795970328594 30.4118322681467248   T   T   T
 -0.3285482144202487  9.1135310176911126 28.1885794089082822   T   T   T
  5.4798168868908794  4.5140997692193618 22.3066709664721152   T   T   T
 17.8530734247154257 12.1500318068547166 22.7437897174864467   T   T   T
 22.0947840657444559  2.4628556559829682 35.1006456957706945   T   T   T
  3.2555534615389616 18.2515704822965681 25.6540238644892931   T   T   T
 13.2157398096189489  2.7178319969123326 31.5695183511244188   T   T   T
 -1.8590389549418103  8.9294658618205354 29.8412545361655503   T   T   T
  3.0061741643952264 12.1463758530502908 25.2231261110675113   T   T   T
 12.2587453159932060  6.0721984007092038 22.6260902162979747   T   T   T
 20.8194580163240346  3.3419146040750789 39.4532283932618100   T   T   T
 -4.3678167337182012  5.5411346858119659 33.7688260188314899   T   T   T
 13.4000333099926792  4.8314319552067468 28.6126551060411245   T   T   T
 27.7866528599010962  8.3883279898067649 24.4303619677683912   T   T   T
  9.1559131400863834  6.8839424344450268 26.4934468328585311   T   T   T
 17.8695625806989327 -3.3771427878746811 25.9377438686344348   T   T   T
 23.5245590023269315 11.7674782963280826 30.9407730156046057   T   T   T
  9.3518292162562151 -1.1355934000024805 26.5463658913066887   T   T   T
  4.3712912199471763  0.3461455856840152 31.7433776798296599   T   T   T
  3.0246021651082158  0.9397884169232723 35.3709861786807807   T   T   T
  3.3321073684114788  0.4640394036364373 23.8814876810311532   T   T   T
 20.5719189282213932 13.6665876433000903 28.7350336449687909   T   T   T
 25.5098303003898295  6.7770532706177793 21.8947042716494735   T   T   T
  8.6813491010129908 12.1313942301632665 24.2887108268518546   T   T   T
 12.2422399713658319  4.7733459532611304 39.8039757059527375   T   T   T
  0.5485921822220448 12.6978825213378883 33.9513350040500512   T   T   T
  4.8815302585188132  8.6913887519329691 31.4664959078043687   T   T   T
 19.8377154839359733 14.2926406895098204 31.4404629759406831   T   T   T
 30.0150955949562217 13.6910946937261606 19.1795846573934696   T   T   T
 12.1073214510297618 16.7136593718835975 18.3240403382989179   T   T   T
 16.5368029880953884  7.0994917079284159 28.4675403581185087   T   T   T
 -0.7457867167668949 12.1607167028191334 28.0078952081342258   T   T   T
  4.5671997642010149  5.7157366926432465 31.8568424018290770   T   T   T
 18.5221734902197070 16.3353576336733219 27.8321450051884156   T   T   T
 22.8308477661108640  4.6072492075695015 22.2074031825321150   T   T   T
 10.9356375613629542 12.1184971000487174 22.0772676290242345   T   T   T
 20.2381551337182870  8.2586403145572049 36.0097012886398318   T   T   T
 -2.2770099669437234 13.8222984855027597 37.9507735878089107   T   T   T
  5.5626665982702814  4.7132674142648190 28.7113538159125099   T   T   T
 20.4176843956101663 -0.2999705416934956 18.2382485859379244   T   T   T
 26.8363813250317165  9.4917030571229581 18.5315815181010564   T   T   T
  9.0836613084005240  1.8087692396220401 24.8251243481286537   T   T   T
 13.0827101434770618  8.7289493830077802 34.1753624014247919   T   T   T
  5.7926129070989152  1.3011468497511245 35.8844920897957707   T   T   T
  7.3802585688420592  6.4718381202222623 32.3400433283394904   T   T   T
 11.8708158234122045 21.3903175187066950 25.7379597591744798   T   T   T
 23.3003139259889167  3.5989687278486997 28.4076240715674260   T   T   T
 15.4883749301821521 12.5304904695263879 24.8000749813373034   T   T   T
 13.3390520055910962  1.6528419623790693 37.4037531863906594   T   T   T
  9.7931341768234166 10.2511890017347973 34.0630406226734408   T   T   T
 23.9915378819455682  2.2810180665183277 31.8062314111997253   T   T   T
 14.4262427092188954  9.8904057363277751 30.2904197071302974   T   T   T
 21.2337077605651814  1.8157036223761822 19.8561574623175687   T   T   T
  4.9925096638040891  8.0133174543130643 21.7298076455393421   T   T   T
 10.8971145349382912  8.9807223869415260 37.7955960844956991   T   T   T
 13.6545935349396057 16.1485154777132074 41.1532751471512199   T   T   T
 25.0548926564184953  1.1348524842770267 28.2589115375114481   T   T   T
 11.6084171811652688 12.0253864876584515 31.3975892894590807   T   T   T
 17.9661916065330018  3.6620628878626933 25.8615559411029032   T   T   T
 -4.2455875136575996 20.6264447451710566 23.7105107532186281   T   T   T
  7.3267438648133085 -6.0253716930250070 34.5363362158863367   T   T   T
 25.7276010063714580  9.9444268011816916 31.9358886691901880   T   T   T
  1.3138408843874898  4.2127763759726760 28.1233794035005751   T   T   T
  8.6036321035921457  8.7507813877711804 23.9608610633533914   T   T   T
 22.5241539402988096  8.3611950665781798 21.4794624336874769   T   T   T
  2.1065451357802423 10.6261218941464328 22.4082939266614396   T   T   T
  7.5667329130154615  4.0126349297549693 37.6616360815610705   T   T   T
 21.7744992212696573  7.1760182248160262 37.7714564521817096   T   T   T
 -1.1475155886356132  4.8322000431392889 31.1004192076312123   T   T   T
 11.0426474520757942  8.8404823022805701 31.1685275196633036   T   T   T
 12.7636917999022153 -6.2681583318087775 28.6991860379726056   T   T   T
 -1.3457275153251227 16.6734704126596007 17.7989002099874689   T   T   T
  9.0212872944932450  1.7694589894397279 36.6706226653468121   T   T   T
 20.5737622143932626 15.6292480722700731 37.6132188943538495   T   T   T
 -3.4312664804981989  1.2498922173386871 25.6206441030056915   T   T   T
 18.1039579013487639  5.0385327342493635 22.2392800166515840   T   T   T
 15.0844706753239155  1.7672669705295974 24.3138588226493226   T   T   T
  5.4938139364586069 11.6216152339855903 22.9362109924318567   T   T   T
  9.7059901748341844  3.3653356427000558 27.9451105346178359   T   T   T
 17.1118463506816596 13.5318895386548803 27.9593128819474082   T   T   T
 22.4136851257640188  1.0336713316568154 22.3887117359401486   T   T   T
 13.3061064899102064 11.9171990256430753 28.4282842242584337   T   T   T
 15.1408980530548014  3.6087271182041945 21.7378368751345050   T   T   T
  5.7782855832363520  9.8263453829351946 25.1654963109249827   T   T   T
 11.0507083031667381  4.9737096622539871 36.5056574843555808   T   T   T
 14.6518760667044763  9.5461776190384313 37.7266926645357756   T   T   T
  4.3408409500123133 -0.5679727600636059  0.3153996150021423   T   T   T
 13.2926327320094035  6.7931869659568109 -0.4479167717810690   T   T   T
 17.1763435449373816  0.0248905395443266  5.8398856772417398   T   T   T
  4.3146598904710958  7.4866666932961294  6.1641189565923158   T   T   T
  8.8345995252550633  0.7896263429314462 12.2513123997960136   T   T   T
 21.6962694133659753  7.8953479442353602 11.9182470725688621   T   T   T
 23.3254822190893165 11.4558241972323671  6.5176467511549658   T   T   T
 10.7524346283183014  4.0231268860348983  5.6046239514875360   T   T   T
 14.9586759055531022 11.1932445761825221 12.0145777135162728   T   T   T
  2.4930016874708021  4.1718032595187742 11.6605117505066307   T   T   T
  5.7219620190633131 12.1691994171768485 -0.0040761261528037   T   T   T
 15.5322653974568503  3.7914203990478392 -0.0940941178294711   T   T   T
  4.1109460135392313  0.2538392302179510  6.1566540449457126   T   T   T
 17.2360220998279630  7.5841760312651862  5.9918334705754699   T   T   T
 21.3618376891763191  0.5946790984977555 12.1397275961430431   T   T   T
  8.7499492700298447  7.9331927841142047 11.5092845945401248   T   T   T
 13.7801749858330016  4.8108643336820984 -0.8822820599248919   T   T   T
  1.2753476926548788  6.2257234074345069  0.4107798361592294   T   T   T
 22.9684389535655313  3.9335448323914917  5.4193425067939218   T   T   T
 10.6279881945597392 11.4458997222168719  6.1269288310951167   T   T   T
 14.9815057297788670  4.2789146389296553 11.7709464824674193   T   T   T
  2.6822942160639172 11.1726104601227618 12.2406913793728549   T   T   T
  6.1713186613794848  4.2577492947055200  2.4007135756463889   T   T   T
 17.6292303429289134 12.4125411832414265  1.5563401593970845   T   T   T
  6.0953599818519999  4.5628015973519105 17.9362208762454856   T   T   T
 15.3851712606648281 10.4468189613699245 19.0408378975535406   T   T   T
 20.7558691229229311  3.2422009829902221 31.2832997356526690   T   T   T
  7.9649536384227719 10.3357603319493947 31.4869582164405770   T   T   T
 12.2744348234927116  3.2411863847666860 25.4155062238941554   T   T   T
 25.2370417811278074 10.6658859112126514 25.7170579915239692   T   T   T
  1.3980187539866624  6.9788439602169161 31.3991779957002031   T   T   T
 14.1520273329899702 14.1543507520560823 31.0742117235136348   T   T   T
 18.5645121394156121  7.2084641475603322 25.4379620347520863   T   T   T
  5.8843162551169499 14.1919039388612163 25.3723413303386103   T   T   T
 11.7235169023457786  7.0697194676328872 18.3588405351109003   T   T   T
 22.9986359828740419 13.9529396882651078 19.5543350495323232   T   T   T
  7.5242237765204587  2.7964185933011674 31.0828769210161582   T   T   T
 20.7132227774441802 10.8364074129843111 31.1451139102089520   T   T   T
 24.8766118397623046  3.1154433243417539 25.1861925397614215   T   T   T
 12.4307933853952477 10.5433761539529307 25.1905283005482694   T   T   T
 17.5837661917343269  4.1943938491817301 18.6382552316735861   T   T   T
  4.1410587137241333 11.4184726979174762 18.4116044348512737   T   T   T
  1.2670080817140605 -0.3754052497482898 31.8111048086924448   T   T   T
 14.1832438278601334  6.9152753763467674 31.4998363157855259   T   T   T
 18.5248849664939570 14.6349611732558280 25.0522621573897766   T   T   T
  6.2270094585746083  6.5102430901769885 25.4363220026385655   T   T   T
  9.6344573104141542 13.8723384346682188 19.1120520409633308   T   T   T
 24.0181937497293276  8.4737265495428531 18.9473224007765033   T   T   T
  4.3719091366479725  0.6471039477576273  8.1534977450941817   T   T   T
 17.3738231572979842  7.8086805098271981  8.1265031622140942   T   T   T
 21.5847397174718338  0.7279637210775273 14.1810867451094822   T   T   T
  9.1027824543607494  8.2325243578541034 13.6075598577786163   T   T   T
 12.5265599886870280  0.4504762890598623  2.1432356881653583   T   T   T
  2.0182543832440443  7.3585019684052355  2.0396900695671349   T   T   T
 22.3404034276646755  2.1274686809314742 11.2027856077571997   T   T   T
  8.9948507977687537  9.5547406883812052 10.3128427285263662   T   T   T
 13.2583698556608045  1.9417852480200442 16.4514913960553493   T   T   T
 -0.4516203045304386  5.0066855385125990 18.6076066303636480   T   T   T
  5.0067085306381154  1.8968940046617886  5.0615227157921936   T   T   T
 18.3490506091918562  9.0512686985399675  5.1086964244753776   T   T   T
 22.6083837645979102  6.1051314515513759 11.2216050111682115   T   T   T
  9.9496842959565601 13.4502137305360172 11.3218711220265043   T   T   T
 13.6038551657028179  2.9190832089953598 19.8094700128461589   T   T   T
  1.1804309777724731 16.4841559993991105 17.3818295078991660   T   T   T
  5.2755069195355411  5.8969337960069952  5.3791866016242960   T   T   T
 18.1547005717498280 12.9506874816462201  5.1963978252781811   T   T   T
  6.7815716128525123  0.9863421776239463 11.5554908343843845   T   T   T
 19.8705160853425227  7.8787571514604382 10.9020314299869288   T   T   T
 21.1550193818277350 -0.2603603424045990 20.7614898964482428   T   T   T
 10.7210764126021356  8.2315302945110247 16.9432471150300792   T   T   T
 15.1589616632512030 -0.1724918087652464  5.4121984522875275   T   T   T
  2.4171224913470795  7.8001586341899731  5.4676266650160112   T   T   T
  2.3940394372705165  3.9678376676262332  7.2920415371161029   T   T   T
 14.8345796088228070 10.8678449813632056  7.1731693476958620   T   T   T
 19.6018186083384620  4.0226396396768758 13.3163876697258150   T   T   T
  6.7330758965679358 11.8446576787942348 13.5385229651302588   T   T   T
 10.0466504656802673  3.8631198860580720  1.3189643989988789   T   T   T
 24.2700046963465326 11.7431074821552457  1.3864049098484241   T   T   T
 23.4739694147049534  4.2385696123831433  7.4923850997858850   T   T   T
 10.8319803448157277 11.2994446890382250  8.2150322593278720   T   T   T
 14.9037517719859505  4.1787155829677216 13.8553504013784465   T   T   T
  2.5231606760347929 11.0890905119355523 14.2145571809906226   T   T   T
  4.8815469340463213  2.8767529312699156  1.7477367912359394   T   T   T
 19.2881546499199885 13.1832314992457569  0.3677591374119970   T   T   T
  3.9088808911285922 12.8118004514491304 11.8773539668477461   T   T   T
 16.1847788551318175  5.8030004373684561 11.2565646735685103   T   T   T
 18.3165285266786384 11.5774552561469015 18.2675138476646488   T   T   T
  3.2302238530408447  2.3108350253855026 20.0695106839426458   T   T   T
 11.5919999712856008 13.2736067572452647  5.7760133382429855   T   T   T
 23.9871650640141780  5.4693641627989473  4.4139174636209750   T   T   T
  3.6122914985668411  2.5619020716748788 10.9007504788670886   T   T   T
 15.9125345051336211  9.5135145190880337 11.8347769817088615   T   T   T
 21.1813623554795711  1.9775189877163226 17.1663760332668964   T   T   T
  6.1956684867129201  7.5355847536689540 19.8608824738408813   T   T   T
 11.6683063181712487  2.3637005438713357  4.9798157242365679   T   T   T
 24.4498965629208556  9.6949590175318860  5.9981177975479243   T   T   T
  0.4377821834150341  3.8777010176873952 11.4922020552822808   T   T   T
 12.8628677202606205 11.0383634088902589 11.3584143304239671   T   T   T
 16.8909853314176033  5.5501409722652824 20.1160333532299127   T   T   T
  2.4602432926932365 12.0895220001889250 19.2844952071139204   T   T   T
  8.8109465209724611  4.1158852834585700  5.2273570058086989   T   T   T
 21.4885104977719337 11.3539720373080364  5.4019240385014617   T   T   T
  0.5690924385606365  0.4918306621096400 13.3514283006665480   T   T   T
 13.1783692175303084  7.4866680178433924 13.9439859412615963   T   T   T
 16.2303664999482322 -0.5934427043655190  1.6266228491502530   T   T   T
  5.7050473637493324  5.9092243775538407  1.1332369154555380   T   T   T
  8.5547758294216258  0.4817811324656642  7.6012167846976979   T   T   T
 21.3190146303555252  7.6195994214374716  7.1926862900317650   T   T   T
 28.6502010715443163 -0.8718216392924031  2.0562249227641636   T   T   T
 13.1444881595048297  7.5413993042579115  1.4615582358958714   T   T   T
 17.4053499057225736  0.5894491438927473  7.7759117495724528   T   T   T
  4.3367498549607451  7.4330566585622204  8.1069247255939914   T   T   T
  8.9498173519352715  0.7329150873114427 14.2890602111210399   T   T   T
 21.3968192954620307  7.7961223282010623 13.9210256776108974   T   T   T
 22.9415159018215107  9.4562781572005008 11.3621695904384623   T   T   T
  9.9634442459578541  2.1807307994701790 11.0935298412446492   T   T   T
 12.1617157214705891  4.7184465476138859 20.2577389593866677   T   T   T
  2.4698034485770601  0.8422260702860173 18.8342226678434628   T   T   T