Li P  S  Cl
 1.0000000000000000
    20.5609999999999999    0.0000000000000000    0.0000000000000013
     0.0000000000000033   20.5609999999999999    0.0000000000000013
     0.0000000000000000    0.0000000000000000   20.5609999999999999
 Li  P   S   Cl 
 191  32 160  32
Selective dynamics
Cartesian
  4.8194816655730532  3.4937326010922982  2.3657089794261328   T   T   T
  4.6152319597048663  6.8793317931868359  8.7376354561019447   T   T   T
  7.7081402643112691 10.2777835053102837  2.2789168956648047   T   T   T
  5.8080035491014863  3.2531823530884005  8.4807428649864693   T   T   T
  1.8695599599232267  4.9010538748966521  7.2515808908878761   T   T   T
  1.4167115275309268  4.6133170368386720  2.8611366441566517   T   T   T
  8.3376368105289611  5.2062442277691074  7.0623947593577041   T   T   T
  7.3419665160470915  8.6554333163380885  4.9396978563057816   T   T   T
  7.7374068924977442  2.2260993776068871  5.9109200570966491   T   T   T
  5.5944072944528083  7.2134061046520559  2.2430279605490075   T   T   T
  1.0309634317441594  2.6694039455477054  4.7073378289073391   T   T   T
  3.5228227397100249  7.6250994880256604  5.4665270920442737   T   T   T
  8.6395620682530385  5.5094777266672015  3.3988634267604443   T   T   T
  8.8359693849231480  2.6344357753353194 10.4865437560649095   T   T   T
  4.3923206825641490  1.9097914033889212  4.6491630306823266   T   T   T
  1.2039134238807796  7.8405358682853068  9.6169465806675891   T   T   T
 10.2585708958052226  2.8053710678458699  7.4976389288023020   T   T   T
  7.6720106781649040  7.9917390158615182  0.3493164879068915   T   T   T
  2.6502805562596694  9.7465096270385736  7.2886370348785752   T   T   T
  2.3536853218336256  2.2256050649980912  0.3609586010420424   T   T   T
  2.2065069426377715  0.4965683545592059  2.7538958284117618   T   T   T
  0.2063035759886851  6.8056212518963237  6.6617505224793492   T   T   T
  7.8694400220400711  0.5700841481539628  8.3350353386846674   T   T   T
  9.8735328099517776  7.9507835532789191  2.3137610368115404   T   T   T
  4.2614542988928097  4.5027427601436685 12.8920445381419952   T   T   T
  0.6115948177545950  7.8410357133772077 18.3405700332661468   T   T   T
  5.7493839922579264  8.6185607583217418 12.6279503717420809   T   T   T
  9.9039183969376303  2.2023871249798366 18.5260225408603922   T   T   T
  3.2442533295674960  9.9626599430091787 17.8873199507061109   T   T   T
  1.7513322317629731  0.5959368661033244 12.7155430574605948   T   T   T
  5.7750722436375073  0.5444916914659009 17.7295498280666344   T   T   T
  8.5023623648759070 10.4240828378699675 12.3954197361421148   T   T   T
  7.5255001319986548  2.8592099263502777 15.6490249281721354   T   T   T
  7.8572810634520636  5.8275048400321445 13.1063921442744249   T   T   T
  2.6062637815143002  3.0573090429938410 15.0797667378916529   T   T   T
  2.8388712624809265  7.4499077236822808 15.6741493786707071   T   T   T
  8.5816823972059346  8.2209625693273551 15.0737319606422577   T   T   T
  5.5094721568537137  4.0412043067097816 18.9179644384684451   T   T   T
  3.3492828067424911  2.9398017654675384 10.2554036321179503   T   T   T
  2.7716115389088309  5.2630629837997107 18.3563255969144912   T   T   T
  8.8620432051181890  4.7451806582319689 17.6004839121000209   T   T   T
  8.1789108346472492  7.8429173088215069 10.6375244514115668   T   T   T
  3.2995974797860450  7.4488862475150892 20.2911652216117631   T   T   T
  4.9610561316213966  1.8264008178855888 13.5345556460529686   T   T   T
  8.1524340262122141 -2.0383862160510295 10.6848504480992474   T   T   T
  5.1809030295602412  7.4496907413691718 18.3120798082052509   T   T   T
  7.7750457513346456  2.2920752604129988 20.1834445471975634   T   T   T
 10.3724124761615588  7.0134510236308953 13.0924772430174610   T   T   T
  1.8358490284694917 12.6710780710847999  0.4115570535964518   T   T   T
  2.7012707319412126 18.3768728320051409  5.4780737947168356   T   T   T
  9.4184988840459809 19.2359593177455324  2.5708661346497035   T   T   T
  7.5063555435548972 10.2130763302862118  7.6828222513554589   T   T   T
  4.8742648171986716 17.4022425946661627  8.2563882109362758   T   T   T
  2.5616203771665043 10.3854627675757563  2.8627936466437856   T   T   T
  8.4370770016700618 12.0601536645646945  9.8861973225681403   T   T   T
  7.0545360383273836 18.2931905505410199  5.2283722268601682   T   T   T
  5.3309722442980449 12.0069736357162338  6.7081756568992335   T   T   T
  9.2083161658060213 16.2849057542798690  2.8792429752036575   T   T   T
  3.4956598207206815 14.5989481830782122  2.0546976309085925   T   T   T
  2.8660130214998714 15.3633161483592495  8.5324716711290698   T   T   T
  6.0434132570871810 19.8750691930393302  2.4754140270792360   T   T   T
 10.1425409574935301 12.3007595990157164  7.8629515429619499   T   T   T
  4.5796284369065097 12.0698197811763404  3.3348876766567246   T   T   T
  0.1763514707058310 18.2417574482696523  8.1194772535667052   T   T   T
  7.0715192505336608 14.6940881645646595  9.3127832885067079   T   T   T
  7.5975702500220734 17.9255579220437653  0.5366347783046476   T   T   T
  3.5051424113092979 20.0958232040948417  7.2576777847980729   T   T   T
 -0.5224529561055609 11.0453503427939399 -2.3010348365914339   T   T   T
  2.4836937107625618 13.9019759317808074  4.6775704207964264   T   T   T
  2.3406230709943352 18.7197519567506419  9.6791458371588917   T   T   T
  7.9224256286167982 14.2162283512711376  5.8510778919401139   T   T   T
  5.9015283996482450 16.0286516094986879  2.8334151430428829   T   T   T
  0.2285048777533212 13.0477349003900311 13.3297756748962861   T   T   T
  2.4938556290190230 20.4471919483147033 18.5637225753912034   T   T   T
  5.4876306584340711 18.7404474156030290 12.8488859889154146   T   T   T
  7.3444014890966649 13.2418066472367801 20.5170396794702867   T   T   T
  0.9392458832798778 18.0794747212869495 20.1250269309165901   T   T   T
  2.1966288874809141 14.7429125942066683 14.5719204451297166   T   T   T
  9.5337025293342510 14.2640997522024513 17.1789456251976524   T   T   T
  6.9994013703653941 18.9765709329918266 15.3941823089253873   T   T   T
  7.0413535413517199 15.3487531489268161 18.5699732516845444   T   T   T
  7.9395232462458605 16.2455377198926811 14.0934422374125639   T   T   T
  3.0704096282905993 11.3593028807864069 14.8969447358682405   T   T   T
  2.4117020038419783 15.6163883524734892 18.5105350661904424   T   T   T
 10.1278492635502442 17.9899631308599552 13.4237086876052665   T   T   T
  7.4318740846247575 10.5322963225983983 18.4220220453754990   T   T   T
  2.4310163159301945 14.3802829351832226 11.1004408766285483   T   T   T
  0.7491986275943487 18.3645655680903204 16.3814040132814966   T   T   T
  7.3523292878252056 12.2232278357331055 15.6335458398059028   T   T   T
  4.2019986288458151 18.0010959553505003 19.7437531458615680   T   T   T
  5.0109159503501068 13.2148082191739391 12.8919471855986707   T   T   T
  1.8618455118764590 11.2105848598433244 11.0497523250898819   T   T   T
 -0.1321488277544290 12.5352300168075264 24.4894420783764879   T   T   T
  5.3133859573722635 12.5238052279052177 17.4535019249441383   T   T   T
  8.6852241819223082 20.4016049324099740 12.2513747508281075   T   T   T
 12.5506722860449500  4.1317075044719580  3.8006281774988944   T   T   T
 13.4340790536616037  5.1705396645468573  8.3385512081321309   T   T   T
 19.2410160551875116  9.9166348268329685  1.9494238992890891   T   T   T
 20.3153382417948194  2.0228990051079272  8.4847417379494026   T   T   T
 11.1190453190726526  6.5126674125201234  6.3536910341400015   T   T   T
 12.3625849073919003 -0.1187846742249363  1.9280076384285985   T   T   T
 21.3710496670392551  3.7292229757446149 12.5484655067562567   T   T   T
 19.7368557584216617  6.4411827175059857  2.2917536070113771   T   T   T
 18.1665053845180857  4.0692133023773538  5.5704031412572874   T   T   T
 16.0612848383305824  9.9106283723849824  2.9416823916825736   T   T   T
 15.2908126082309810  2.7711210960181201  2.0343501258604779   T   T   T
 13.2863353123929269  7.6248128741820667  5.1820082913143839   T   T   T
 17.8838771484997210  7.2842371830507195  4.4819071275555240   T   T   T
 18.3764232443611952  1.7662588442579699 10.5599282626766566   T   T   T
 13.9301806373725867  1.0775502905643428  4.8623829609117797   T   T   T
 13.4036330006778570  9.6868633849233827  7.3841297201238447   T   T   T
 17.5970148055962454  0.6790937907633675  6.8198589073330691   T   T   T
 15.7437639018793565  6.8946345882858600  1.7252203960032289   T   T   T
 14.7544745609558756  7.4870060502484455  9.4941811246809511   T   T   T
 12.6153047931445812  2.6294577954104281  0.2380051353432567   T   T   T
 10.3203752559702497  1.8269859412817595  1.8791912277392291   T   T   T
 11.1461354800072492  8.2859300490211414  9.0766986305779636   T   T   T
 17.4123137368935623  4.9719321913752541  8.3461387998180090   T   T   T
 18.2587626681402924  7.5591498833874713  0.0772896266964035   T   T   T
 14.5022880155513292  2.7782747854981040 13.7363949989872385   T   T   T
 13.2646337017552494  9.5560414166502685 16.1682917347798778   T   T   T
 20.1930749582448996  6.9899246010743532 13.2234924678206109   T   T   T
 19.6055635683084724  1.5556483626398854 18.5347435745650486   T   T   T
 11.2849298843170303  7.9643692959689218 20.1570634880337067   T   T   T
 12.1710847803153861  0.7153848654845892 11.4961036665604972   T   T   T
 16.7007683504266353  2.7168492592342566 19.7590561274849037   T   T   T
 18.5414901857897654  9.3802771447375459 10.8366458284858247   T   T   T
 18.3140419541098289  4.7636978598145197 17.7673177430480820   T   T   T
 17.6277118169034459  5.8636193067293165 11.5624887612705276   T   T   T
 10.7198098141760774  3.2366864545022342 14.1263702652658267   T   T   T
 12.4043308446261165  5.7716621827365406 16.1842780340771384   T   T   T
 18.0873969613596692  5.9644325861867715 14.9616533648733157   T   T   T
 20.3156823649609848  2.8401310293472646 15.8914121024247876   T   T   T
 12.7953193997631089  1.0969416821946085 14.8394776674122646   T   T   T
 12.5118352394041157 10.2036736465940070 19.1073519479161291   T   T   T
 17.4435860899889796  0.1865752482434369 17.3061703345232232   T   T   T
 17.6787547822154814  9.8987999377483327 13.4193671171175062   T   T   T
 10.9335122983550370  7.6164371555392290 17.0570897884100781   T   T   T
 13.6531369250656684  3.2205794961864744 10.8913762221528145   T   T   T
 15.8262067789882739  2.7999328743343388  8.5075147091167711   T   T   T
 14.7762231767016061  6.5545066491535540 18.5253156459269093   T   T   T
 16.4397008608624446  2.3036481870502983 15.6619312586440351   T   T   T
 15.7873760116660051  8.0654985961717305 12.5181705340142795   T   T   T
 12.4562191348934235 15.2410902993517254  2.3324612713024049   T   T   T
 11.6184345080210267 16.8362891090368265  5.5950938960261167   T   T   T
 18.8317924862537893 20.0322009901299722  2.6062460559101877   T   T   T
 19.9822473168798176 11.8480587602452196  8.3387142233806522   T   T   T
 14.5545596919509173 18.1707316178886984  5.6894427557542295   T   T   T
 12.4079887934256892 12.4475667672461263  0.2164203861693262   T   T   T
 17.3884136250085533 10.4953693042631180  6.7826487086243779   T   T   T
 19.6163622431265274 16.3724526995819346  2.8275321693105795   T   T   T
 18.8042340555344225 15.1138952675040379  6.7857149324799106   T   T   T
 15.8865169120684850 17.0948101221342341  1.5845440906468842   T   T   T
 15.0793536388851752 13.3397236723093986  1.3925291302019713   T   T   T
 15.0881753900613376 17.6928444122315653  8.5648372857529989   T   T   T
 15.9318565929856284 19.6825612941305153  2.5054228234552101   T   T   T
 15.8709979955537541 14.0989040265207102  7.9886465634426553   T   T   T
 10.7792585384838056 13.1958827455315308  3.4734809700047866   T   T   T
 13.5556388433269817 15.8000671232392538  8.3669725367688379   T   T   T
 17.5575796038405691 12.7639180349627068  9.7111654023370058   T   T   T
 24.6930951167560870 18.3185985521999939 -4.2152588192655589   T   T   T
 10.2766137188866828 17.8143870034050522  8.4135849902378013   T   T   T
 13.4557751425455994 10.8344915886121260  2.4129049975095338   T   T   T
 13.8983349148504818 12.3630772419702115  4.7051927778978664   T   T   T
 12.7652837765638978 19.9541867415803154  7.8097893258459194   T   T   T
 18.3256823824868142 13.3028270727967719  4.9622193971241249   T   T   T
 17.8460378284588792 18.2619617062799904  4.8724237429974675   T   T   T
 12.3801510037850395 13.1902365128042920 15.2537691808276747   T   T   T
 10.3658375079633043 18.0068422007439821 18.1310993289671707   T   T   T
 17.7666125433136024 19.1737353467275113 11.0068323984032013   T   T   T
 17.2466380720694872 10.1345181318973960 17.2132973839431749   T   T   T
 12.6714459232952379 17.1491662560374678 20.0628133102284067   T   T   T
 10.2571605870125548 14.2378644444090714 13.0899442054091502   T   T   T
 18.2059809428737012 12.7037413613042212 15.4409048173394847   T   T   T
 17.8687843255846985 16.8926149959326253 14.9195421223214453   T   T   T
 20.3930973383322147 13.6401993108525303 17.1778476874266417   T   T   T
 17.3435678461716840 20.2115091987542996 14.0845816474626719   T   T   T
 14.7908484097864790 12.8350144169470859 14.0972306684940936   T   T   T
 12.6338055156506837 20.0665695242864643 17.4972988225840922   T   T   T
 20.4091823943223645 18.4555700346176010 12.1468101072689105   T   T   T
 16.0898895062816827 13.3748734167759178 17.7017234410352913   T   T   T
 13.1685154970489045 12.7006202662837833 10.5256915235969331   T   T   T
 14.6441780033605351 17.1804594806425044 18.5347884920572206   T   T   T
 18.2789639027364288 12.9086232919885315 20.2013295665360459   T   T   T
 15.7838456107745770 17.5368607386702777 12.2696735054004726   T   T   T
 12.3486486551795327 17.0544376522865875 15.7192014592592759   T   T   T
 13.6158409995297394 15.1181940749619326 12.4312301536152106   T   T   T
 11.6785309763819480 10.6886681091444835 12.7540961476628691   T   T   T
 17.9456445720574322 18.3989766216005890 20.7368555459092683   T   T   T
 18.5975892054405385 15.1402532482657737 18.0015018332997627   T   T   T
 18.3283637720223673 15.8375477502764408 12.4084599894526342   T   T   T
 -0.0903531789215463 -0.1021480581683861  5.3071145599532388   T   T   T
  4.9230524701892913  0.4453867102806385  0.0917419419050273   T   T   T
  0.3035037554935393  5.2071134764120144  0.1257022354551771   T   T   T
  5.1912427576005227  5.0975802076643593  5.1109572048638112   T   T   T
  0.0637705616752821  0.0466004851392732 14.9053343133732152   T   T   T
  5.2023732981338009 -0.0264889354433759 10.1281097571467438   T   T   T
 -0.0007502288682108  5.1305320314082454 10.2435878427042404   T   T   T
  5.3825050548135023  5.4156210061753143 15.5162715864080720   T   T   T
 -0.4592620619170216 10.0407133797801631  5.0585324595651455   T   T   T
  4.6230281249403093 10.3342475403031653  0.3670232907105890   T   T   T
 -0.3991350198722365 15.6795179387269279 -0.1028726205829917   T   T   T
  5.0274267771907262 14.9462881536426924  5.2182880892811392   T   T   T
  0.3557850377416957 10.2676441795811044 15.7428350067674359   T   T   T
  5.1277577615287830  9.9436759395263774 10.2074754777435803   T   T   T
 -0.1277580700765993 15.2828268100931837 10.0065939892253404   T   T   T
  5.1887706199741572 15.4902445722700506 15.6976221041521597   T   T   T
 10.2550944593253153 -0.3194106695190610  5.3723418980063675   T   T   T
 15.3301908686250510  0.1227687366767723 -0.2544958084519806   T   T   T
 10.0037029406525129  4.9857984110761606 -0.1292457030731920   T   T   T
 15.3030678357859085  4.5990484129511469  5.0763007260902473   T   T   T
  9.9476526305404853  0.2549793140930900 15.5510133481129014   T   T   T
 15.2382346051514208  0.1893478338391540 10.4253830783625894   T   T   T
 10.6202233934305816  5.4097821963139179 10.3593972054506498   T   T   T
 15.3197024155210499  5.2285503371192457 15.5883783962425220   T   T   T
 10.4961810504424822  9.9263797696565792  5.2335882532048732   T   T   T
 15.5755355844264844 10.4210173889376581 -0.2949987127297397   T   T   T
 10.1660063564784906 15.5289884533909657 -0.0655110168397910   T   T   T
 15.5162031019855728 15.5607593557731256  4.8138804618160682   T   T   T
 10.3585600235099715 10.5594014610380178 15.7591992536632048   T   T   T
 15.5756295225524735 10.2819270947830645  9.9111551904697350   T   T   T
  9.9397441361892795 15.5618521522099673 10.5161167109873883   T   T   T
 15.3662650522522224 15.6186890048107720 15.4274904476479744   T   T   T
  1.3102238341569137  1.0193137806177059  6.4674892467830913   T   T   T
  0.5521896694923961  9.1001398340826647  3.5772349860873969   T   T   T
  9.3608143845164165  8.7726149641800948  6.6434000962218072   T   T   T
  9.1005976211349058  0.8236159842501602  4.0455603561706956   T   T   T
  6.1275993932506978  1.6789872129488954  1.1878162489280220   T   T   T
  4.2717482344897553  1.2931318499834956  8.9927517873747114   T   T   T
  6.2973588265270388  8.6713627516324134  9.2759463838312666   T   T   T
  3.7962471224290448  8.9326146628583594  1.6121534032821805   T   T   T
  1.3279588994156759  6.6246717182050423  1.2021181162569468   T   T   T
  8.7633029611563131  3.8051177960828237  1.2319638906156880   T   T   T
  9.2778941546678002  6.1393386486224024  8.9929032905752653   T   T   T
  1.1996410797140922  3.8786641392679910  9.0765162735926666   T   T   T
  6.0211810853153525  6.3319396742380745  6.4657862584051982   T   T   T
  6.3431429663180481  3.5520810949490551  4.1533437026800462   T   T   T
  3.8338409989305191  4.0186389955282680  6.1622037410877422   T   T   T
  4.1593547559052038  5.9591295999204297  3.6457313646371872   T   T   T
  2.5861427575278686  2.6319471321750147  2.8868485059908657   T   T   T
  2.5103090620359381  7.3990490881478959  7.3952977780886275   T   T   T
  7.6963829594087532  7.6036274806357751  2.7679152441145707   T   T   T
  7.9627653451834775  2.9383057289491825  8.2100154063245707   T   T   T
  1.1931271630920099  1.0497137357054960 16.3354991384578447   T   T   T
  1.5466105894264881  9.2255221493780244 14.5733058381990030   T   T   T
  9.1301992880372715  9.3442403518281587 16.9819523732606186   T   T   T
  8.7486388038410450  1.5128567163501287 14.4679400333645649   T   T   T
  6.4601624602928833  1.1527691925626320 11.3426319720621986   T   T   T
  4.1041406285048208  1.7569085500997419 18.9606802204127156   T   T   T
  5.9582785814211618  9.1584959408876951 19.8069703853423498   T   T   T
  3.8978531025801781  9.2537717427442310 11.4987002703152541   T   T   T
  1.3095687339844475  6.1156463953821198 11.4348286294250272   T   T   T
  9.4059033062757358  4.5067265945992432 11.7636805032142302   T   T   T
  8.9492890869975668  6.4503322140492099 19.4939987900511085   T   T   T
  1.2251894643776919  3.7819768881414664 19.4727852237797450   T   T   T
  6.7183581668334869  6.4758297381110781 16.5574172892635723   T   T   T
  6.4142768569849373  4.0874441127660495 14.1678846167092622   T   T   T
  4.2911585819142477  4.2882800284178924 16.7459870243574294   T   T   T
  4.1277773587806692  6.4537130446484303 14.2533588495230532   T   T   T
  2.9193141882495812  2.6258590371924200 12.9587840855292811   T   T   T
  2.8210516474926650  7.6379835137096270 18.0607640230484918   T   T   T
  8.0915652455885620  8.1989389438363105 12.8887703542688676   T   T   T
  7.6307841194382791  2.6442733487167271 17.9421497628545126   T   T   T
  0.6719263303605006 11.4886425601300051  5.9041602467318333   T   T   T
  0.9411368305552312 19.1666221704509567  4.0586534034756445   T   T   T
  9.0425059427812666 19.3185775575446428  6.8027165885415126   T   T   T
  9.2552054368401873 11.0447689600529504  4.0377850512785880   T   T   T
  5.8686897033221905 11.6713725802699031  1.3838786096962754   T   T   T
  3.9204852290047039 10.8801769802295141  8.8343610535845869   T   T   T
  6.3365711589017106 19.3625766781606217  8.9353893085198202   T   T   T
  3.6188207514040109 19.9040086185340996  1.1111274451899360   T   T   T
  1.0111094032219923 16.6086563385417918  1.0496585164159173   T   T   T
  9.2676758601686178 14.2096494769515278  1.3112733176526430   T   T   T
  8.4506759632550903 16.7795700551903835  9.3619941880591035   T   T   T
  1.0777192231797574 13.8050922433981693  9.2140233278149530   T   T   T
  6.3161973077882099 16.2628361445295440  6.0790248445429231   T   T   T
  6.1238815104466049 13.6508746620501213  4.1273581957160719   T   T   T
  3.8613185286606297 13.8629785686673515  6.6963212081341190   T   T   T
  3.8553966097867076 15.8285430122754018  3.8486020421740270   T   T   T
  2.2457343422103757 12.5898831367963115  2.5445168391883324   T   T   T
  2.5244409052627299 17.6909382947422174  7.6080758483608708   T   T   T
  7.3173295766045037 17.9162468636547914  2.7941243014888779   T   T   T
  7.7160590647549023 12.4553747673482782  7.6553952243382497   T   T   T
  1.4701488139166869 11.4931635525692695 16.8787441285324284   T   T   T
  1.2367213246876685 19.3058994301657378 13.9764977157604982   T   T   T
  9.0558563081650156 19.4125650413630453 16.8141897647928111   T   T   T
  9.4464903808996539 11.6626865403380755 14.2653801545822390   T   T   T
  6.5043562546323210 11.1362461573102713 11.2224983304866992   T   T   T
  3.7235873299854112 11.4735854360584213 19.4514560460873263   T   T   T
  6.2453916472180673 19.5951913279403271 19.7415336188997976   T   T   T
  3.9537311309111902 19.4749025821897348 11.2995920306083981   T   T   T
  1.1568435067142278 16.5823252638068936 11.0776055582818866   T   T   T
  8.4006577909985083 14.2934015624745818 11.3884973928005859   T   T   T
  8.7486916041382212 16.6433830016917099 19.5629206135612250   T   T   T
  0.6854438752282906 14.2460623669774780 19.3960998842397530   T   T   T
  6.3043984000546551 16.6510808205377927 16.8273495492375744   T   T   T
  6.5305053093774550 14.3170929849420343 14.5654402094327189   T   T   T
  3.7103140178330438 14.5033612841019757 16.6997295331315563   T   T   T
  4.2091210227133899 16.4160115478472548 14.1131426044027144   T   T   T
  2.5219812766981198 12.8711814861186813 12.9454409874294498   T   T   T
  2.4282410910094079 18.2127998576688412 18.0176612120634267   T   T   T
  7.9085067519561907 18.3695078737346620 12.8689511898658733   T   T   T
  7.4935649811535185 12.7386474603005198 18.2310911474097672   T   T   T
 11.6567908880176621  0.9142484292286654  6.3320049003925645   T   T   T
 11.5169051532082971  8.5008519767311732  4.0861464661393008   T   T   T
 19.1297242348526915  8.6561967076758979  6.2644923819386857   T   T   T
 19.5411738938595683  1.3430311574948908  4.3004947238702167   T   T   T
 16.7209986516867914  1.0109122313183603  1.0583026463224259   T   T   T
 14.0510459582314411  1.4104638720344462  9.2727010978972260   T   T   T
 16.2686029874355533  9.1833712182255756  8.4779946938952868   T   T   T
 14.3182913800922265  9.2137447480811279  0.7797594221113884   T   T   T
 11.2938646167369168  5.8911002219767186  1.0702925074057124   T   T   T
 19.6425421578639856  4.2570849744524910  1.5356019515882997   T   T   T
 19.6432620711095431  6.5273360316740439  9.1218272869726462   T   T   T
 11.6502349262716507  3.9607486526276552  9.3471333251011988   T   T   T
 16.5164309017399553  5.7385723840578464  6.3459972241065410   T   T   T
 16.5339481500919305  3.1522655966458126  4.2993934040668718   T   T   T
 13.8380074388339764  3.6977045396437309  6.2269936855845041   T   T   T
 14.4287912392292110  5.6968704380195927  3.5969854920630966   T   T   T
 12.9532668957235444  2.2028791086656332  2.4203409917878616   T   T   T
 12.7550625193679803  7.4180176026549853  7.7232919069489858   T   T   T
 17.7717263809819777  7.8576084672563171  2.2325972844811179   T   T   T
 18.1364607008548937  2.8134355032044902  7.8207323310492560   T   T   T
 11.1707478719955180  1.4969075034389088 16.7685166844654816   T   T   T
 11.4425534532406683  9.0925860052899008 14.6017613368841399   T   T   T
 19.6741831152291304  9.0020361061098022 16.9398614715960747   T   T   T
 19.7250568250585694  1.4250567424710825 13.7441492417916606   T   T   T
 16.3391035805422291  1.3391800115740720 11.6610026017620854   T   T   T
 14.1218155597571560  1.4343066970300811 19.3845156540556189   T   T   T
 16.4433353922334753  8.8640296721066179 19.0312699476879352   T   T   T
 14.3659512133649123  9.1117983756754839 11.1759781026253115   T   T   T
 11.6897741322224764  6.7974849375176785 11.2647667922167312   T   T   T
 19.1690878174830317  4.1447397381202196 11.3140779035872612   T   T   T
 19.8233363087546728  6.2040976259122749 19.1474198552726200   T   T   T
 11.2291869695545454  3.5951858464435613 19.1360118950087816   T   T   T
 16.7098258793368828  6.2392317018187304 16.8480167996323722   T   T   T
 16.3178145834216224  4.3108939172381424 14.0738334295762435   T   T   T
 14.3265400055967476  3.8230478638246770 16.4960989636397422   T   T   T
 14.2107577565393335  6.7606067239510379 14.9648202124989496   T   T   T
 12.6514642828600294  2.3997403317528723 12.9245251663315521   T   T   T
 12.8644794836752840  8.1163155455476179 18.1396989692929473   T   T   T
 18.0579270355989472  7.7139397295156407 12.6390214045366136   T   T   T
 17.8882261263013191  2.3588067958792656 17.4617149894950252   T   T   T
 11.5646239911674851 11.2888398967254631  6.4594987226329321   T   T   T
 11.3711070223300723 18.8973976985536254  4.3238005694833737   T   T   T
 19.2224890667802768 19.3607631967826777  6.4546417887480585   T   T   T
 18.5738532365224422 11.2755056581641409  3.9395274553026249   T   T   T
 16.6369384076689748 11.6063081598020510  1.0001765438109822   T   T   T
 14.3388419224191104 11.6576898534647810  9.0949604155841932   T   T   T
 16.5101732761483078 19.8278888192714291  9.0180384124550770   T   T   T
 14.0631846723023450 19.0889997657641999  0.7601874541562338   T   T   T
 10.9988904713391769 16.9621231693301553  1.1708447465406688   T   T   T
 18.7036377913379894 15.0086652877799889  0.9081496721902694   T   T   T
 19.6027652453584409 16.4470184556736641  8.4839737920618905   T   T   T
 11.2277452294317808 14.4513028417071236  9.2755744210054907   T   T   T
 16.5059560894374471 16.6230639901539377  6.3542849950790483   T   T   T
 16.7041570398423609 14.5299936358085322  3.4653835514132503   T   T   T
 14.3317944170532741 14.3998950007788551  6.0718190503879708   T   T   T
 14.2877077203143532 16.9121556206783978  3.7673983809456892   T   T   T
 13.0657298623792339 12.9895486526740882  2.5766975631775897   T   T   T
 12.9854293791086608 17.8131311919099247  7.4993397961610322   T   T   T
 17.7865756327548290 18.1141999885625609  2.2050253965831517   T   T   T
 17.6663281593044736 12.7377817950660841  7.4073429563859161   T   T   T
 11.3330016188982139 11.8724601512650292 16.9987465090817551   T   T   T
 11.3143592483419848 19.9639275736867319 14.0663269621733509   T   T   T
 19.2367114020704051 19.4959088087176298 16.0456620817689419   T   T   T
 19.7872974974292468 11.2878448056837737 14.4270987664015689   T   T   T
 17.0283172965745067 11.0660365133710172 11.1144854727798670   T   T   T
 14.4914360208433326 11.8619040776770692 18.9944457835613250   T   T   T
 16.4347287767252048 19.2711690098614099 18.9841265447117706   T   T   T
 14.0122108785346544 19.4635974219449110 11.3817814270682405   T   T   T
 11.0601238163455591 16.5884974894403356 11.9876956131657053   T   T   T
 18.9619753008095735 14.3080266179711906 11.0371526537363494   T   T   T
 19.3809291049110968 17.0275866297025473 19.0983151212176878   T   T   T
 11.6314991353013681 14.4774941524137564 19.5608896377540162   T   T   T
 16.4873767340630693 16.6084141315528839 16.8417330782608623   T   T   T
 16.5520164626008857 14.6189379237405284 14.0470320624111569   T   T   T
 14.0405732499652505 14.3363315466878269 16.3711282979915786   T   T   T
 14.4834649852508122 16.9647607641111264 14.1254383999150086   T   T   T
 12.5567896750996777 12.8272520836657442 12.8594475124353433   T   T   T
 12.4668188333680856 17.7161449014198595 17.8839596491703539   T   T   T
 17.9510614049861381 17.9724386177238955 12.8595745543971365   T   T   T
 18.3774818872025421 12.7017362894287640 17.9286894670087733   T   T   T
  0.4885610619638669  0.0227397641529148 -0.4678918411263476   T   T   T
  5.0640818127777694  5.6344985948340218 -0.2014761627568787   T   T   T
  4.9632458285492858 -0.6866285796336833  5.2924053559096471   T   T   T
  0.0977739162152227  5.0438940763329354  4.9723274807592679   T   T   T
 -0.5223013790118103 -0.5603899717933629 10.0462251099971436   T   T   T
  5.0531687313316711  4.9557725396248733 10.1419575566782463   T   T   T
  4.9580338562051143 -0.1216300345073417 15.3618077487403095   T   T   T
 -0.0750422070848883  5.0693923300106967 14.9900674245750221   T   T   T
 -0.4949953040618890 11.1254203002401990  0.0631029315961914   T   T   T
  4.8432337323555918 15.8531402381695283  0.6374537164741334   T   T   T
  4.6669952566664792 10.0754553549918420  5.3121472996467283   T   T   T
  0.0854865742866309 14.8540870819192676  4.6055659370221385   T   T   T
  0.5256256946135225 10.0530523492197670  9.3619363846967172   T   T   T
  4.8180126527587968 15.1776295117810438 10.0048490892848356   T   T   T
  4.8294449688325152 10.8551936450781117 15.8432137922415741   T   T   T
 -0.4338247263968992 14.9818882590465297 14.9729661609332165   T   T   T
 10.1213079415274212  0.2598647224940027  0.5420470262085051   T   T   T
 15.8834974035623233  4.9694374477807601 -0.0271105585822618   T   T   T
 15.8373846843322177 -0.1609505045961452  4.9355415533368596   T   T   T
 10.0781136105585567  4.9389645896826027  5.0533461776993560   T   T   T
  9.8808032408306836  0.3525970108499564 10.2965287066856135   T   T   T
 15.3357161203002885  4.7633755731308023 10.1583861491769358   T   T   T
 15.4100304329561340  0.4692840694494071 14.9265432457271228   T   T   T