Li P  S  Cl
 1.0000000000000000
    25.1819793006824639    0.0000000000000000    0.0000000000000015
    -0.0000000000000009   14.5388225279766061    0.0000000000000009
     0.0000000000000000    0.0000000000000000   37.2126966544236950
 Li  P   S   Cl 
 288  48 240  48
Selective dynamics
Cartesian
  1.5517023489459343  2.6496433683472866  5.3255659279735106   T   T   T
 12.5791697795971640 11.6281854729358294  8.3422604295492579   T   T   T
 18.5525659120636632  6.8028621559285316 13.1062907993102993   T   T   T
  5.2798151161848121  9.8275093285688655 12.7656057315371907   T   T   T
 10.5500033999524874  2.5783093289161494  3.2755400519652915   T   T   T
 20.4040662329503846  5.0273750443039100  1.0338589106384570   T   T   T
  4.1901670227879020  5.7617775552081145  8.3306115086427326   T   T   T
 11.3846250546324725  8.6174989885961963 11.1680752575457234   T   T   T
 20.6895603056084880  4.2712787270840069 12.0435949404330902   T   T   T
  8.8376559976998621 12.0621488717119369 12.6218121660050659   T   T   T
 13.3211518166752967  3.0727658166068901  1.6860987884862821   T   T   T
 25.1536768749957389 10.3759979373111193  2.9063704305541957   T   T   T
  4.2611850717322834  4.1404555427833056  5.6802542754894221   T   T   T
 18.4666360809628785  5.0527285944468154 10.8092623651570161   T   T   T
 14.8977219281763684  5.4219678928256476 21.5273255568884565   T   T   T
  4.6422807946588591 12.3358391149218072 14.7318566210205351   T   T   T
 12.5101655106337262  5.5189314844671937  2.4685200130153997   T   T   T
 24.3972957735408045 17.5978274664110010  2.5691125990548684   T   T   T
  1.7207101498521189 13.6233905214959279  7.9773334049111071   T   T   T
 13.7858793137462143 10.8351699277035074  1.0118101437365228   T   T   T
 16.9291051177338190  4.8235436089492030 14.2466350356294882   T   T   T
  6.0049816591198519 12.4807673238945753 10.9791037357638288   T   T   T
 17.0968288209608374  6.3634832061708151  2.8334230658369655   T   T   T
 24.0829835866486519 13.4394700692878395  2.3190856049531656   T   T   T
  2.7441594140188030  2.3730147101894250  8.6190450981791660   T   T   T
 13.8619384224780973 12.4944739311907540  4.9465762060806258   T   T   T
 19.1039127457814857  2.3007971076700251 14.3489140309715637   T   T   T
  6.3602748803813478 14.2853623681510022 13.5687457491280963   T   T   T
 12.1139657873015327  3.4113079416420846 -0.5316802804176651   T   T   T
 26.2180654626047982 12.0535420965880817  0.3482872327809919   T   T   T
  1.4181751326797694  5.9318350218382800  5.8982092012464999   T   T   T
 14.6889123658819241 13.4052929402663779  8.4202379903443045   T   T   T
 21.5590902812913328  5.6521180739961343  8.4661853070937916   T   T   T
  7.7156236817624269 10.3748206762638624 14.9192212726776674   T   T   T
  8.4948821453772485  8.6047012110387158  0.0783134489821461   T   T   T
 24.7173578246621375  9.5194849483431447 -0.1431604176271953   T   T   T
 24.6851828878519299 13.6293879644371252 11.9439699077300023   T   T   T
 13.8807427554299903  0.8530827873011879 25.0764576532450114   T   T   T
 20.3549991352863486 16.0579435956365373 -2.2445363842237112   T   T   T
  5.5896345223240864  4.2619775661533090 -3.3275997327084257   T   T   T
  6.3653421360482492 14.0615002938279368  7.1001691896817123   T   T   T
 20.2058473566308123  6.8919193408112047  5.3695293721025692   T   T   T
 18.8695968941250456 -1.2856516728760390 15.2100460134995252   T   T   T
  9.8590862395755057 10.2416595642062909 18.1890141627722244   T   T   T
  9.2195262825152824 -2.9544987508482272  2.0834154129234381   T   T   T
  5.6116705816143915  9.4088781253923841  2.1622352348845872   T   T   T
  8.5443103333225743  5.7246177485633618 14.4666505083596295   T   T   T
 24.5155152699967047  9.1460093707139372 10.9512162347958988   T   T   T
  1.2005858853485538 -0.9704322938010814 14.6859976363031564   T   T   T
 14.8970503616706953  7.9120441451511985 12.1480689923205727   T   T   T
 16.4856676057891107  4.0119959893361701  5.5470428508248180   T   T   T
  5.2857436802010271  2.7635641257118704 -0.2904410463551223   T   T   T
 10.5655034058886272  0.5502335893465540  6.5610066171662789   T   T   T
 19.3920683814929902  7.5152515573734728  8.4755811202839091   T   T   T
  2.3442749546483559  0.3127527089250316 18.8541958985281148   T   T   T
 14.0394350450146916  6.8121479805752649 14.5710358003373699   T   T   T
 16.4703392382614950 -1.4396643778687552  2.7010532890173011   T   T   T
  3.9117687603452462  6.2606422534815174 -0.4106736697412596   T   T   T
  7.6889998299958471  2.5211576674567739  5.9774732443133738   T   T   T
 23.2991655189715274  8.3816527008925448  6.7796178915638450   T   T   T
 -1.4952443336664030 16.3155762064660976 13.5724427923719482   T   T   T
 11.1804491088796638  3.8785179178669389 16.7208348612496067   T   T   T
 13.5675777964905642  9.4076038888775564  6.3587019777179217   T   T   T
  4.4593844940410836  6.4096236569392095  2.6958223163309492   T   T   T
  8.7069499178517002 16.6372136118256790  8.7465326933904333   T   T   T
 21.5824190952575137  9.9378923637202732  8.8737634808856374   T   T   T
 26.1275499535595870  3.0413892816881574 13.9469510460594730   T   T   T
 12.0610622225416133  6.0216214258586209 12.2739418706760102   T   T   T
 17.9747023446362775  1.5796772854312584  2.6922205701763491   T   T   T
  3.4413566474960184  9.9369811480696626  3.3508559167447554   T   T   T
  8.2147683344926197 -0.8623044459618111  4.7572228122359634   T   T   T
 20.3948182364876089 10.0611946976202304  6.0679878803826792   T   T   T
  0.1032286828583590 10.7370477835614864  7.9389400616633292   T   T   T
 13.7732668513477137  6.1574695372978274  6.0334297147568563   T   T   T
 18.0569715390791927 13.5722776559538758 12.0844227709235437   T   T   T
  4.9446344579221915  2.9696159752213300 13.9304636318556625   T   T   T
  8.1165415406507258  8.8499175235918095  4.9243502573272320   T   T   T
 19.0694793875355160  1.2912917301080096  8.6213582814817364   T   T   T
  1.2587432492666124 16.0255695436725603 11.0010020155494619   T   T   T
 14.6235831033829733  2.7006063518553294  8.6415314536827701   T   T   T
 13.0419846510777280 10.5435849492770792 14.6348676325840685   T   T   T
 10.7249120942411942  8.6018296547012270 14.1982082322363006   T   T   T
 12.0046663529753523 13.0154753541889008  2.6381233956280035   T   T   T
 22.3959350816570861 -2.4355751168084825 -0.7536294683953607   T   T   T
  4.0504187905997489 11.8228739190073036  9.1674972011421296   T   T   T
 16.7299141970982177  5.4113104253000532  8.2475083159264226   T   T   T
 17.8595259831855984 16.6339855548149025 12.0224446556289983   T   T   T
  4.8873199242454639  6.3143035352383263 13.0887144724831330   T   T   T
 10.8708716675294603  9.4675543271578242  2.5974384640637966   T   T   T
 23.3475785480958322  6.7523949415290758  3.5890504026608756   T   T   T
  4.8718183073294341 11.2079955615509235  6.7285060952816638   T   T   T
 13.7946126660542259  2.6834874366759185  5.1721416651305674   T   T   T
 21.3623620308904449 11.7766847146796110 12.7603665965785957   T   T   T
  8.9027060049063866  2.8685395951413750 13.3716944139450362   T   T   T
 16.4010073657379323  2.7778685286178302  0.5921667756645969   T   T   T
 25.8023541430632477  4.3223217395935434  8.4843161064558323   T   T   T
  2.0589752414970812  9.1666281470686002  7.4021938335417499   T   T   T
 16.6064073712233764 -2.9016095685711401  6.0722457042326523   T   T   T
 17.1862183837543938  9.7188615258689381 13.7706874914385526   T   T   T
  4.8776982397129505  8.4794973920107886 17.0546518452014730   T   T   T
  9.5874078892943899 14.1959181148210511  0.5292490396190916   T   T   T
 21.3867739684119798  3.1893091109746656  3.7004666397323480   T   T   T
  1.5585080192843841 12.1579294118270731  5.0572120274750931   T   T   T
 14.1903548124787946  6.1176416417407493  9.0506440896452727   T   T   T
 18.9857199301030377 10.4084432306607475 11.3692284003116164   T   T   T
  6.0933396135113922  3.0514128806364340 11.1061694300406621   T   T   T
  6.3461045880504399 12.2102230929084676 -2.3463265094131884   T   T   T
 20.7734262330886708  8.8838307195053758 -2.4701738161686007   T   T   T
 21.0279496196144464 13.3874851852341763  9.1845139809192204   T   T   T
  7.4994206607041658  5.5858962465393409  6.2762567617962617   T   T   T
 14.8274833973389200 14.3346220527811674 13.7843948621824754   T   T   T
 24.9726178971924924  5.5759551162787888 12.5744289695475899   T   T   T
  3.7464329239427521 14.9316187080608103 -1.0194605862767594   T   T   T
 15.8514175464925149 10.2603701494203641  8.8506526005408048   T   T   T
 22.6102634680799639  1.6175414800052479  8.8699899838593268   T   T   T
 10.7389185364925464  7.5558413061460632  6.8140740701861038   T   T   T
 12.3808799417397157 -1.7640857962258891 13.0408755587984011   T   T   T
 20.9008740839481533 10.2237508442520237 14.6596781124895550   T   T   T
  3.3205280428438262 -5.1106569411174698 -0.4980365401885935   T   T   T
 14.5482771557531478 14.8582160096383369  2.5349530293381570   T   T   T
 28.2513371145287735  0.6005063880129475 12.7417078471558600   T   T   T
  6.7362615697541868  7.8995915783968176  8.6231363514286397   T   T   T
 11.6248795809342749  1.1766708285012204 10.6973413711564760   T   T   T
 -0.2632736545164915 10.1202923635841167 13.2252768237183194   T   T   T
  4.8208678841186563 -1.4900988052076156  2.4580025147940878   T   T   T
 15.7229439518639715  9.2994257445354869  3.0624090340173948   T   T   T
 19.7991971610623452 -0.1782837388015515  5.3955109409858180   T   T   T
  9.2968433207457366  9.3771872792389175  8.6595324020849560   T   T   T
 12.8998197908815957  2.9167384274372319 13.3746182382284822   T   T   T
  2.2111849101100605  7.8562097288396027 14.0868935733530414   T   T   T
  2.5545944360457087  0.6416420258059755  1.8856441131815442   T   T   T
 15.6218939278625779  7.7779847066518863 -0.6269770727087005   T   T   T
 22.7557932181542668 15.0233476690979550  5.8913901162692692   T   T   T
  8.7017589808218307 -1.5045586046605870  8.5122034199210184   T   T   T
 11.2673234130260465 14.6835351353121730 14.2613325348231488   T   T   T
 -1.2454401358334430  7.3911063500708973 14.2977608204257720   T   T   T
  5.6244026052576936 16.7323846507513245  2.3929823824953718   T   T   T
 18.7203918546590771  8.9546439915594505  2.8289974706719798   T   T   T
 20.1972786942293752  2.7555017983667334  6.8710414043290378   T   T   T
  7.1880369598143474  5.7928732291548606 11.1721767301518486   T   T   T
 14.1308200336776828 -0.0233346073974546 10.4783893274008548   T   T   T
 27.6465373110487818  8.0725842481404442 11.3361339086404431   T   T   T
 -0.4403057173211027  5.5503880586882444  1.0892869646857739   T   T   T
 12.1735130725292109  9.8071691375234273 -0.8509376554437285   T   T   T
 12.0255890351230246  1.3028623947982942 29.1869270064839306   T   T   T
 24.8867384979777100  9.2281897387302259 29.4560257532323106   T   T   T
  3.6244181124724411  3.1234167281607212 25.6376511484823517   T   T   T
 16.8422165382569275  9.6048225294315515 24.4905270796649219   T   T   T
 16.8139305532482908 10.6129444006811617 37.3500034178696367   T   T   T
  9.6355848518309415 17.2282464179463979 36.9477153446964195   T   T   T
  6.4784791046303667  6.6455591638506775 22.6977915713453591   T   T   T
 24.5771336895916406 11.8856714280282887 28.8607092471059197   T   T   T
  1.2056069926598707  4.7788704805624027 22.1632197602648979   T   T   T
 15.2910204054834775 12.4445851918872599 22.9138634458900903   T   T   T
 18.5967938062402069 -1.5662129617700886 28.8856218715895210   T   T   T
  5.3999644078856930  8.0798779039318589 28.6332431907333813   T   T   T
  5.0234429271817760  1.2939752597363590 28.6347569088500116   T   T   T
 22.4816262749207141 12.7993070102737825 23.1765653108282201   T   T   T
  1.9051652713100680 -4.6540220158416776 18.7595363753473379   T   T   T
 15.7195875822631912 11.2863344620341621 26.6191652523417694   T   T   T
 23.0135244196223638  5.7245424170522083 30.3035476710253953   T   T   T
  6.7570146113796872  8.2638426077241718 34.7953265813855097   T   T   T
  8.8395933497027173 -1.9052978702062990 26.0935295993564651   T   T   T
 21.5105194181105048  9.4385185285527093 29.0592070671706217   T   T   T
  1.2659029663758292  5.0360200371170176 24.8604745286795108   T   T   T
 12.6291005350616601 11.8334018577114861 24.3470843291020849   T   T   T
 18.9113460447721735  7.6860343292628919 36.8443427180546763   T   T   T
  9.2996333332483569 11.4980378430890724 36.2672962861871966   T   T   T
 12.5293630149505262  1.6988014763636352 22.0825866341166410   T   T   T
 25.1375501088508813  9.5968523398215346 22.8135404756439470   T   T   T
 -1.9068688075532569  9.0594551246974717 18.2155244731275801   T   T   T
 15.5701682483117949  6.5327951422882862 18.0659481754710995   T   T   T
 20.3389780590301541  4.4773704170731907 35.0800070409329123   T   T   T
  9.2604539599673608 15.8667389617705901 31.5227895321507070   T   T   T
  9.1048544107877536  4.7294609462161494 31.1631466167672997   T   T   T
 24.0093857280067269  9.5759519340380272 32.5979824220178003   T   T   T
  4.4305051065492309  4.0898038106260728 22.0905625762098872   T   T   T
 14.1124682237119590  9.1422365762409576 25.8720867843328968   T   T   T
 18.3831052324711735 -0.7306936329066288 36.8509947510316920   T   T   T
  1.3856040877909341  7.2927437327006066 38.7992984464771453   T   T   T
  8.3583485018491714  5.5695888603351564 26.5085023985685169   T   T   T
 16.7826065311066301  3.7348321968712028 24.3652337283685902   T   T   T
 19.8969462077080337 12.2228371098150923 34.7942058373554417   T   T   T
 13.0183825473153671  1.5798155082002632 34.6508742704350112   T   T   T
 15.6454604666460266  4.9884276533428213 31.4133875078759388   T   T   T
  2.5337232416525253 -2.5897227762624548 30.8101300080746334   T   T   T
  7.4394081457105230  8.2276451822312318 25.0584648926223323   T   T   T
 19.7962210240590011 17.8858451799351137 19.0588187558888293   T   T   T
 17.4556235367574004  7.9410236051474863 33.1096698151617232   T   T   T
 10.6804656581678206 -1.0820730333870976 34.6775453274518952   T   T   T
 14.9204819596282672  7.2841320726369370 29.0007246663798384   T   T   T
  2.0947666987533839 13.9653610449534575 28.5266962339913839   T   T   T
  8.0821307698203313  3.7312422015472348 23.7102532361861051   T   T   T
 22.0647023435957124 19.3692231350526818 21.9967521411829736   T   T   T
 -0.4922618218231218  4.5158927816065733 33.7573240483081847   T   T   T
 13.7445118644046591 12.4173868364441198 34.9941436896359548   T   T   T
 19.0802334139002028  6.3589190225319436 30.7434394350862235   T   T   T
  5.9843247344864334 13.1544252818113385 28.8865971406682824   T   T   T
 11.2299431078150747  6.9880956084733779 24.6699717824378588   T   T   T
 21.3905660486013289 12.4874203042236402 26.1010175144326624   T   T   T
  2.1196147135682861  4.9349771835072733 34.5861832123653699   T   T   T
 17.3291230666653604  1.3434028219424770 33.7871739499650943   T   T   T
 17.1001303581532440  4.8639361656616549 28.7312909941500330   T   T   T
  2.5566708563974645 11.0225570786609772 26.8579180735181744   T   T   T
  5.5567753249997152  9.8638383023959797 20.8755948932058715   T   T   T
 20.2159723135873222  0.7811930887357892 26.4828319821118541   T   T   T
  0.8642804458883254  8.0955582353847859 35.0424241520282038   T   T   T
  9.2748211117886257  1.8120836629419648 28.4481285023306008   T   T   T
 17.3603084584598690  8.8657132863873294 29.0921453760198645   T   T   T
  2.6658349915699899  1.2493174207726310 30.8420489385617707   T   T   T
  8.9741902059246126  6.4142121024332317 21.6107531451305732   T   T   T
 18.9731622633888790 12.0128250672479240 23.8847488790116067   T   T   T
 28.0864423857635330  4.1654728252400544 38.4723512873505271   T   T   T
 14.3356958900257787 15.5413926915082001 36.9505509523016684   T   T   T
 19.9295498679377090  6.8344990624776800 27.1774156683475034   T   T   T
  5.4858109878071177 13.5733942968481927 31.7614332907358552   T   T   T
 12.2518331824763109 10.5256260902987826 32.0805202482029017   T   T   T
 21.0830881196861526  4.2013736448007499 29.4183753646057262   T   T   T
 -2.2521415893553822 15.4197550926450120 24.4372211715439001   T   T   T
 10.2238643105866522  7.4923633654823414 17.3690661160331778   T   T   T
 23.0783416106474206 14.6268074355588276 35.2521590699698635   T   T   T
  9.7599468084753198  5.7343968287832929 40.3250520899507663   T   T   T
 11.4346863596488486 11.6435635340890471 28.7798111700772061   T   T   T
 19.7302796943910153  4.7374998306804628 24.9035249249535191   T   T   T
  0.9949487771196073 16.1400540883196868 22.1061226946181328   T   T   T
 13.4338063087294426  3.2858918768551701 26.1182044480791973   T   T   T
 16.5320070836291109 10.8895979557997435 34.3073762771711586   T   T   T
  8.3148075113313613  1.2810549236975188 34.5637498687446652   T   T   T
  9.3441763009242766 12.1604862484161913 31.3637982703453631   T   T   T
 22.6622110454554928  0.7122666574931142 28.9497098447402657   T   T   T
  3.2529482302478843 11.3928403086136676 22.7340470825592966   T   T   T
 16.6606482875952935  1.7973372347877632 17.4906376696781223   T   T   T
 20.2819549970870483 14.2046058977974923 38.5752563802681010   T   T   T
  8.5470602416786079  4.7709131277384520 34.2951245846662047   T   T   T
  8.9138086367946805  8.3965536477415803 30.3281888397890391   T   T   T
 22.2789456366966689  2.3311817546380231 32.2519088387435886   T   T   T
  0.7546366167648957 12.2862701304068480 25.0005292802413415   T   T   T
 15.8212992718117995  1.6792200775509702 22.7419357077063964   T   T   T
 22.7622762751991630  9.5252548987929302 40.1037274321454333   T   T   T
 11.0561990997575634  4.3163979166537700 28.6638171614798587   T   T   T
  8.4670594281347498 10.4419570520386031 28.7571257067235599   T   T   T
 25.4404397971447693  1.7164071070208360 25.0686752467450198   T   T   T
  4.1168322462284115  9.1705997124477143 24.3857740813557236   T   T   T
 13.1847265921981549  9.5004632913114193 22.7202694853594096   T   T   T
 22.3001555145758061 12.0523021468126679 31.7227905428017678   T   T   T
  7.1986935755710970  5.0523777909096710 36.9793265352786662   T   T   T
 11.7701977988530224  8.7347775959898151 28.9628883332684026   T   T   T
 19.1819249742498599  0.9754133696706948 23.4589901325024428   T   T   T
  1.2239666988393276  8.3542508967077325 24.8172695108508101   T   T   T
 13.8563509468100872  5.3743561789225591 24.2499527981170893   T   T   T
 21.9870576036470311  7.0099415979124853 38.3641967503963102   T   T   T
  6.8330606666886782 -0.3474454664915060 37.6312051523990405   T   T   T
  3.2098887346146618  4.7321725610644307 30.6816511488577142   T   T   T
 17.9149020115782349 -1.5373179633607783 32.0361425423269282   T   T   T
 24.2252073365514562  4.1149072031348579 18.7814060962868155   T   T   T
  7.3261550111545022  1.0425997565555525 24.6810257527740546   T   T   T
  9.6287379919868634  8.4263845416176579 33.6103781540822766   T   T   T
 25.4344435120927486  3.0217625396619727 31.1770629118228833   T   T   T
  2.4373412496996902  6.6735029695748151 28.6795456249165284   T   T   T
 15.1703756718855463 12.2013331173268043 29.9318514777626206   T   T   T
 19.4091236129226559  7.5297390725232836 21.6323540461865527   T   T   T
  5.9831792133800930 12.5314737258504891 23.9259985629391316   T   T   T
 12.1496835033832049  3.1580961127972516 31.6164003420451856   T   T   T
 25.3376706322650449 -2.7111165701490036 34.9005598823126348   T   T   T
  3.4863215061975299  1.3363299388782661 23.0076417261776562   T   T   T
 15.8577107949375637 12.2825498290952630 18.7046852158695707   T   T   T
 27.3448272976664057  5.5363568244933363 18.1350642569277980   T   T   T
 12.3669272484759105 14.6041314949496730 18.9079429166900645   T   T   T
 16.1245257614509825  4.0925188881540802 35.0872719570158651   T   T   T
  3.3938277937604182 11.2107132918156296 34.2911268054461331   T   T   T
  5.5757989501544971  5.2982293363602135 28.9099286267407649   T   T   T
 18.8232337446993938  0.8324681164127340 30.1915548705715686   T   T   T
 23.1011526031591288  6.9305777009666691 24.6814122874508044   T   T   T
  8.7069923081160372 14.3393461806542284 21.6571639319176050   T   T   T
 11.5322336162656569  5.3537658645288086 34.0503688325070328   T   T   T
 -2.4914525180305960  4.2752262630347380 36.7984464201423123   T   T   T
  2.9707911910680220  8.5309850639904816 31.1741226296216887   T   T   T
 15.5153442143469906  1.0436164441461377 30.9207136190824876   T   T   T
 19.9165863361486188  8.4494869289072447 24.7250905008382240   T   T   T
 10.5384296262134711 -0.1271975743196850 24.2955371806035210   T   T   T
 13.6534365408961111  8.4194637776917389 34.4712083401706195   T   T   T
 -0.5473546873213192  3.1594234553510492 28.5601396546673314   T   T   T
  5.4164043971702176  6.9691204100852371 32.0263064478282971   T   T   T
 16.2336885023480662 15.5159149932156062 27.8865692733405481   T   T   T
 22.1349960720738324  8.2768641985924454 22.1055862521888464   T   T   T
  9.0257604390318562 11.6616706070480767 22.6445563867488247   T   T   T
 10.6730752701866987  6.1852102044009412 36.9371397605051612   T   T   T
 27.1727405646749318 14.4324561840404222 33.8346229600696873   T   T   T
  0.3923807141867552  1.0065289979662564 -0.6832780515750447   T   T   T
 13.6421975283517138  6.5675166269208134 -0.0165721977452078   T   T   T
 16.5919449465829203  0.3260911625882790  5.8667775181201165   T   T   T
  4.3562949746989936  7.9768157508159652  5.5575731676562095   T   T   T
  8.5363991791883347  0.6499271293492960 11.4673670425039784   T   T   T
 21.3435775439373714  7.7110467502679887 11.8118959444747258   T   T   T
 23.2495026967462408 11.8560456788096467  5.8108532886708169   T   T   T
 10.2016008938787319  4.2092875358986790  5.6322093030354896   T   T   T
 14.8422544762655235 11.2727017069477995 11.5081729891728877   T   T   T
  2.7252528391557798  4.5725396524554478 11.7844054479117251   T   T   T
  7.1169882078748916 10.3966540769617701 -0.5115433651983758   T   T   T
 19.3114732975361605  2.8369709353031189  0.6077049024397246   T   T   T
  4.2954285991882317  0.6133499924872452  5.4680133083370981   T   T   T
 16.9707243814202045  8.1917836401801658  5.9584317883961839   T   T   T
 21.3618497341414297  0.5824185826705166 11.8825591379298974   T   T   T
  8.6631220661840089  8.1591330297727609 11.6311239858983964   T   T   T
 11.5243416804105046  1.1153167806104505  0.0982233871245271   T   T   T
  0.1300820478847164  4.4391032368014001 -1.0448762756073933   T   T   T
 23.3468400746276430  4.5220030873608872  6.0333816468156742   T   T   T
 10.6351202271572873 11.3419069451065511  5.5858696034831850   T   T   T
 14.9879545322437568  4.3595952019412207 11.1734043000424279   T   T   T
  2.5119363131559487 11.7537406944986671 12.1090913839554659   T   T   T
  1.6022642815403401  2.9142052705341119 -0.5015432443276797   T   T   T
 19.9082233323397801 10.9066605923864124  0.3866073344765048   T   T   T
  7.9898093057345418  7.5333807399938095 19.0386997399350832   T   T   T
 19.0543797479164567  0.3730366110864851 18.3534149835322289   T   T   T
 25.3051942239520997  6.8772715376713576 31.9549207052092150   T   T   T
 12.5692840472225544 13.8357493683114150 31.6248414578443793   T   T   T
 16.7992223093612125  6.6641299837101613 25.6041826877172873   T   T   T
  4.1159157230848757 13.7827337282986910 25.5715868929588694   T   T   T
  6.1561188709235086 10.0884543163950013 31.5818416665957322   T   T   T
 18.5726097594804997  3.2774794894952355 32.0063200632794320   T   T   T
 23.0515918935921462 10.0754648491372798 25.6628666948633892   T   T   T
 10.5295702300750946  3.1435674888337499 25.5890129719895931   T   T   T
 13.2053497351174265  9.1404130212461965 17.3195333127928706   T   T   T
  1.7446917853201604  3.2675621153795480 20.0656806561033711   T   T   T
 12.3253113050572782  6.7032648681781053 31.4496785679237654   T   T   T
 25.0000217425144129 14.1868967137988626 31.8236123064906700   T   T   T
  4.5050017361388894  6.3019784668830630 25.5601315730324785   T   T   T
 16.9875535283243480 -0.5607583691693975 25.6208183482549181   T   T   T
 21.0633183363098269  6.1881103220348299 18.5010780481728716   T   T   T
  7.6683647379586581 -2.2169986490392555 18.7845849233831927   T   T   T
  6.1613874605547725  2.8039244811384680 31.6317855006513895   T   T   T
 19.0728932974139269 10.1919633205887372 31.4901671924846802   T   T   T
 22.9092151516089189  3.3799179023855723 25.8701070462997293   T   T   T
 10.6189643219709584 10.2058041004647606 25.5432914883823230   T   T   T
 13.8001301916886039  3.3963304131931529 17.6970032855605020   T   T   T
  3.6619749063517126 12.5803475617888552 19.4614823388683682   T   T   T
  4.2629980939486787  0.7184884758123911  7.5268550403582406   T   T   T
 16.8227539111421436  8.0185402470951033  7.9464941981304715   T   T   T
 21.2191001481651611  0.6997775687685078 13.8511235054493795   T   T   T
  8.6007658867140133  8.1995241373837970 13.7199989847495996   T   T   T
 12.2583085267666831  0.7722795820558376  2.2025405995598684   T   T   T
 -0.9271054842152150  8.0883636519932338  1.7638473151901162   T   T   T
 22.4394288447515322  2.1531333278341283 11.1833077236698699   T   T   T
  9.6060835230557711  9.9577998478438197 11.0207116248361316   T   T   T
 11.8162630667066786  1.4763692841648706 16.3889384944040195   T   T   T
  1.2983610388948617  8.4652303154481672 16.5867329609712968   T   T   T
  5.2560791014395045  2.2672768937394236  4.8541770310526111   T   T   T
 17.9859626815133851  9.7016945355597208  5.0952734766097301   T   T   T
 22.0422352944572637  5.9840552756405918 11.0030883555077956   T   T   T
  6.4305215424231541 15.1443224546386226 11.0744300853051421   T   T   T
 15.6399087231861937  4.3562618237622175 17.4933512044693842   T   T   T
 -0.5372304173551583 13.9601065353855809 19.5904600519083587   T   T   T
  5.3883218627520737  6.3959296577596074  4.8791359117523800   T   T   T
 17.6676953698885768 13.3054448585356688  5.0137888231389525   T   T   T
  9.5015188165651061  2.3066223019973990 10.7188048212743681   T   T   T
 19.2896750531080414  7.8043528941490869 11.0649504374429508   T   T   T
 23.2633968499532031  0.7684953730703895 18.9315999966237634   T   T   T
 13.7963337401198913  7.1726018332386579 17.0521105580602281   T   T   T
 14.7927101554459632  0.2867015624067449  4.9298957332155320   T   T   T
  2.3247593692300206  7.8780312786731965  4.9193733933121395   T   T   T
  2.4283579351505025  4.1883956981983168  6.9355947924089767   T   T   T
 14.5228844258354748 11.3725207910011186  7.2894855954928861   T   T   T
 18.6989246779053957  4.1433774434882347 12.8554002108128991   T   T   T
  6.6319041503561182 11.9517819759729065 13.3004283443676581   T   T   T
 10.6258138838144660  4.3260371206743118  1.2789071356614008   T   T   T
 23.9234884178182554 11.7523834595716892  1.0015771179067214   T   T   T
 23.3327595465545130  4.0843382201210563  7.9836315899991304   T   T   T
 10.3287505590879753 11.2568586418231504  7.5965202711447501   T   T   T
 14.6322121955921336  4.5088559773585875 13.2134378895625026   T   T   T
  2.4838678173656619 11.6491967746334737 14.3419248839645164   T   T   T
  5.1077588760459802  4.6399704117019986  1.0389580338828046   T   T   T
 18.4761169423383080 12.1994531950370799  1.2605632679570424   T   T   T
  3.1783783024703851 13.4754425227334913 11.2108588824098003   T   T   T
 16.1258891407550777  6.0340103877109197 10.5879930617364995   T   T   T
 17.7144320518979370 13.3771198535512390 17.5429531054707439   T   T   T
  7.9281366901089481  5.3342865384910274 18.5273655825558059   T   T   T
 11.4221180057144593 13.2519112920599369  5.0627128113669677   T   T   T
 24.1859837516368685  6.3586185060452953  5.6550283343767349   T   T   T
  3.6257609997035480  2.7856853225481188 11.4394051812145960   T   T   T
 15.7752100573527443 12.8116519641851774 10.5620411810011365   T   T   T
 19.2039062154354667  1.8307963233874760 16.7871587066283290   T   T   T
  5.3540737763142436 10.8634464439113962 16.4775511321075818   T   T   T
 11.4606097778000375  2.5041544361809467  5.5017117611363817   T   T   T
 24.3352341619559169 10.0680095694691332  5.1664981969920403   T   T   T
  0.8609949303367879  4.3096951368054937 11.0490248108236031   T   T   T
 16.0100549915321153  9.6332987963476420 11.2140654607840400   T   T   T
 14.4127293581741682  1.7852530593287226 19.0763307675869314   T   T   T
  2.2947554528257701 12.4139573643416021 17.9415646896287555   T   T   T
  8.5216596444825914  4.0635912739256499  4.2936312848200631   T   T   T
 21.4111521780014655 11.9120055685623676  4.6943099802838102   T   T   T
  0.6729338934098003  0.8918488915817429 13.2677076680740633   T   T   T
 12.7739854679223566  8.0211616451736845 13.0425285503131487   T   T   T
 16.4178803520534515  0.3611739117329378  1.3334974225091316   T   T   T
  3.6195764195209508  8.1626258906998110  1.3953522872249891   T   T   T
  8.4249453761827979  0.3760475019267890  7.2003521317714929   T   T   T
 21.0901803902545240  8.2050608443935786  7.3565204187105637   T   T   T
 25.2804875490929390  0.8599297297661154  1.5554282246908491   T   T   T
 13.1026334929342738  7.7495155164104217  1.5844304970882186   T   T   T
 16.6545335856288901  0.3603467038131871  7.8648416555254972   T   T   T
  4.2333029283891639  8.1076038690538468  7.6082580736583951   T   T   T
  8.9809091581606015  0.6415936543001817 13.4784110730905962   T   T   T
 21.3199581365123194  7.6878969757040139 13.9206291970768312   T   T   T
 22.2428644729151799  9.5223872520399375 11.1308493458201951   T   T   T
  9.3914052435971840 -1.1237073709835044 10.6206089102246697   T   T   T
 18.1441947498926766  5.6721347571896610 20.3898568410220697   T   T   T
  2.8951678970037560  1.6960236198408407 20.6874211023233201   T   T   T