Li P  S  Cl
 1.0000000000000000
    25.1819793006824639    0.0000000000000000    0.0000000000000015
    -0.0000000000000009   14.5388225279766061    0.0000000000000009
     0.0000000000000000    0.0000000000000000   37.2126966544236950
 Li  P   S   Cl 
 288  48 240  48
Selective dynamics
Cartesian
 -0.1597471960542749  5.9569817461630681 10.8421482673429068   T   T   T
 15.8516044542483421  9.8098898710513645  8.5026687682156759   T   T   T
 14.7467189311487825  7.8697831436995420 11.6197729872037741   T   T   T
  9.0969605624575038 10.0629017405283836 15.3330813066332947   T   T   T
  8.5184121600733462  4.4936164842867843 -2.6655275884101108   T   T   T
 17.2088075719654832  6.7699352724154220 -1.5519876929858891   T   T   T
  4.4626040916640823  5.2840625004549731  7.9270254533215931   T   T   T
 19.6767959669800163  9.5313583939863182 17.0154259890049708   T   T   T
 17.4911559231612443  5.4760532789068952 13.7707320678626033   T   T   T
 -3.4359542914412344  9.1294220942342257 14.1804859358250575   T   T   T
  9.8647988747571596  2.4192506529371780  3.0443168249453914   T   T   T
 22.8934073178664974  8.0294956510428808  5.5972962830208246   T   T   T
  9.0549056040048921  3.4581751259219904 12.5963293622191532   T   T   T
 14.7157617393603140  6.0963184098564120 14.0990875951737120   T   T   T
 17.7012490199273671  2.5141280345608434 12.9106071621367402   T   T   T
 11.4790009219506928  9.4092040117156319 13.1029060011174483   T   T   T
 12.6438717814434778  2.0580385132151289  1.8358530236750603   T   T   T
 30.0060000572989267 19.7443526958547011 -0.9687294224210664   T   T   T
  3.8675420866258134  2.3923061165861808  8.3831620987966957   T   T   T
 12.7352869827975663 10.3725881050602755  9.0031181471831552   T   T   T
 20.2300685527778796  5.1531312598735548 11.1274004629937870   T   T   T
  4.0428673540318334 12.7104016772289103 16.5767822191913332   T   T   T
 12.3432585802244859  4.5774193786201485  2.7002190031770010   T   T   T
 21.7928580170473971 11.7236302015571479 -0.1344027897746815   T   T   T
  0.4796144474189849  3.1115832602106219  8.3319678082896242   T   T   T
 16.2819052665132489 11.7301395302562721  5.5359860101497960   T   T   T
 22.9329164871616733  6.2470848525423257  8.3380009451169457   T   T   T
  6.5025015805948154 10.8270025111313650 16.4541877668737264   T   T   T
  9.7544354645580569  1.1255031210858939  0.1963937423506614   T   T   T
 24.3034688889996637  9.4709390276961756  0.4667358788607192   T   T   T
  3.6904325487448708  3.2909075227956350  4.7992965573500381   T   T   T
 13.9209905830922569  9.5628394636074709  5.7808568135928660   T   T   T
 28.4084575601900013  6.7505059339346269 12.2922996294357176   T   T   T
  3.6207956350873238 15.9783592862432595 16.6910605167546393   T   T   T
  8.3301255268339300  7.6187377747447469 -1.4695792317645566   T   T   T
 22.9096152434479485  9.5879694012001444  2.8558463870533051   T   T   T
 23.4326132995046486 16.0103902076985634 13.9312778036533356   T   T   T
 12.0499386893330787  6.5977004251618991 11.4607778156373836   T   T   T
  9.3576682617093621 12.4595332340084024  3.0996985412846398   T   T   T
  7.9268664260984982  7.7168390882233178 -8.9177049169827587   T   T   T
 12.4683104151111586 14.4331853916675250 15.5450963300253804   T   T   T
 20.2325092128070239  9.6705578975265549  6.5379114231702475   T   T   T
 26.6223101369417137 -2.3315887213852977 18.9720057853076547   T   T   T
 15.4502977415767511 13.6036362434159273 19.8519009019536554   T   T   T
 17.9205375800422644  4.4943219362583307  4.3715789304800152   T   T   T
  2.5118467480645550  2.4791774346339288  0.9716396947280160   T   T   T
  9.3927525748003404  2.4973993391157987  8.6134437433873892   T   T   T
 21.7416123534515044 12.1162520882137805 12.7806745204602112   T   T   T
  0.9527530179821515  2.7835518176978473 13.7122478954739080   T   T   T
 12.4767484897707508  7.8401334252744324 15.7884142069616704   T   T   T
 19.4471740139218348  2.6040177849118709  0.6923671279722806   T   T   T
  6.4181800900178327 11.6650207395514176 -8.1422207510709903   T   T   T
 10.3545988619219642  1.1532224485586855  5.7595265069239936   T   T   T
 23.2728936021757917  9.3181418276185664  8.5998898794313980   T   T   T
 -0.4765816867767110  0.4220943126555200 11.5683135073226833   T   T   T
 23.0969839722776200  4.6681836415537150 13.1821647557761867   T   T   T
 20.9693173889235744  2.9390871563748209  7.2022880978538266   T   T   T
  1.5274126110269943  2.1883254766601596  5.5577658264383318   T   T   T
 10.7346516321239900 -0.2116752682693059  8.7541365957116035   T   T   T
 24.4732408329771154  9.7131128590752631 12.7631437962660712   T   T   T
  9.6354468302582426 11.6616684294139130 12.9607326405863006   T   T   T
 10.0916089021041380  5.7413696604053541 13.5781929387825340   T   T   T
 17.3061306312194674 13.4875607992847026  2.4661345614838632   T   T   T
  1.7276170764162491  5.1021427557893722  5.3295766613365734   T   T   T
  5.6757090495501625 10.8742853711931939 10.8275023287392766   T   T   T
 17.4210931764236818  5.4259059616152410  7.4123192101509217   T   T   T
 18.6694858590771950 -1.0912945062914989 18.3846852326250811   T   T   T
  6.5933294881130493  3.4698837461488941 10.7628741995228214   T   T   T
 11.9921066508056775 -2.1952599439322129  0.7499983374692285   T   T   T
  5.1498540052411110  7.1206172932155267  2.9692939850797173   T   T   T
  7.8003275267645176 -1.1713717522317670  6.6029909325763931   T   T   T
 20.0966516461989819  8.7680796860358985  9.2455552430654002   T   T   T
  4.2998842216294024  9.9622394923474609  8.5246900527270313   T   T   T
 12.7162764428074322 -0.8287894681836890 11.1054471953220464   T   T   T
 21.0658308054728032 14.2341059935169927 17.8388493133684243   T   T   T
  8.4794604362542874  2.0272772319286076 20.9603723190822571   T   T   T
 11.9371016849119052  9.2986295396418441  0.1270784487128146   T   T   T
 22.7591221335872262 -1.9039249248236525  3.7092227363912698   T   T   T
  3.2801660450823817 12.5423596982043897  5.5182963946018662   T   T   T
 14.5628031119478987  2.6292819031331298  5.6187842311014613   T   T   T
 19.8297597520195907 18.9840840648913982 15.8219094677604666   T   T   T
  6.6767817150539370  9.4228676170049095 13.4564043011825891   T   T   T
  6.8851738079467451 15.2336995330655327  8.6113968119483157   T   T   T
 24.3621226381786968 -1.4896072978097721 -2.6409597396031339   T   T   T
  1.2529584844912387  9.0226863019917793 10.8230234532373704   T   T   T
 17.7358827764289835  2.6870708850971092  7.4810507357118547   T   T   T
 24.6001500996707492 22.1729190588006801 14.6935097731464523   T   T   T
  5.2206522972388072  2.5426232327430234 13.1092487878975188   T   T   T
 13.7172718876065431 13.3334178644315671  6.9451068947932741   T   T   T
 21.5726064208306063  5.6695845862528245  3.0396078058669134   T   T   T
  3.6984083133758459 12.9719733239555275  9.4005331454281595   T   T   T
 14.4317141539914253  5.7351363140009104  5.1416326782058528   T   T   T
 20.4437286345004026 17.3013170970730172 19.1913842909852619   T   T   T
  5.6717821157069004  4.7440388697600158 14.6997008805256897   T   T   T
 12.7390405517177623  8.1034266965265704 -3.0206400062756207   T   T   T
 24.9722921870130001  5.2612969538456076  3.0375318263996602   T   T   T
  2.8922665696438257  8.7952245304277064 13.6081059580374006   T   T   T
 12.6556945453830476 -1.9871132888507725 13.4308866030961536   T   T   T
 19.6837028870607362  7.2600253879841663 13.7774364607033206   T   T   T
  6.9905607649940826 -0.8593328185384166 13.2950494039453240   T   T   T
  6.0007242794154925 15.3622751345410045  3.2084007268439114   T   T   T
 22.5207927651591930  2.6087833888814771  3.4827354192104676   T   T   T
  0.5515576065245661 12.4418523814186077  8.0726921065193498   T   T   T
 13.7326263204074355  3.1829466262148225  8.0975793156686038   T   T   T
 19.4914795520916044 13.5143124007431226 13.5850234081948251   T   T   T
  5.9787805330357937  6.3124366817964299 11.9545352834352041   T   T   T
  8.5745617752279824  9.8904495702044031  1.0453920833408392   T   T   T
 24.6211176556303997  5.8417988504800311  0.3265057311647906   T   T   T
 20.4317892486243551 13.8664077053466031  5.8575003174318034   T   T   T
  7.6372577731417106  6.5524631898476713  8.2317075413637166   T   T   T
 14.3779298403007587 18.2462245186964935 17.9085346880491159   T   T   T
 22.9830495324128847  4.7493750462711013 16.9469483270791024   T   T   T
 -4.6848095615045500 14.7508940802714239 -2.8296048550364370   T   T   T
  9.6915779887201143  9.4002993534119490  3.6135590874241914   T   T   T
 21.5857040168608734 -1.7468825827135472  8.4177092856027080   T   T   T
 10.2370253644862554  7.7872708124347270  9.3389423133300404   T   T   T
 11.0455558671159544  2.8070728978425028 16.1037220027422237   T   T   T
 18.2755618179352730 11.2138294872631921 11.2549071388948398   T   T   T
 -0.7301671037165794 -1.2967351338695052  0.2434494974288225   T   T   T
 13.8120418552898983  5.4155577979315108  8.7572959763098801   T   T   T
 19.1976643465396783 -0.2463934832197399  8.8428968650544348   T   T   T
  8.7634913032417661 10.1835303360317422  9.1151029231259386   T   T   T
 16.9448804301112119  1.2404250554618654 16.6893574130214226   T   T   T
  7.9220986017600827 10.0862249349979898 21.1823500325177143   T   T   T
  4.1728733437047385 -1.6155998408119761  2.8861228685052782   T   T   T
 16.8993241395267084 -0.9909340969532584 -0.0041694049268196   T   T   T
 22.9401720228841732  0.7976404473481856  9.4634557722474995   T   T   T
 10.5813195924251602  7.4700632837812222  5.5347821664110590   T   T   T
 14.5164712194799588  1.1825711133761532 10.8534635665150176   T   T   T
  2.9068315967077987 -0.0375042664274809 12.5788319491711267   T   T   T
  2.8551424680344493 -5.0162698985940013  4.0205002674692993   T   T   T
 18.7682689033564500  6.9814123392879299  1.6153020389970263   T   T   T
 17.2318466620751707 10.2498354173628456 15.1247625692968803   T   T   T
  7.3087137316105792  9.2973622822555591  6.3265973226489152   T   T   T
 10.9791920893710984 15.9102831942444709 12.7402147296407886   T   T   T
 -5.3128199506262499  1.9909207195020604 14.2045123402466409   T   T   T
  1.5524307221753162  9.1427270474466429  7.2462466004841612   T   T   T
 20.5430780543723941  5.8424249421638104  7.1252970251628929   T   T   T
 23.3811598252712116  0.3343027518207379  6.4180708710845780   T   T   T
  7.6876842270432171  2.7580349223984095  6.5650600259148044   T   T   T
 15.5076434884774983 -0.6783501300602836 13.2429910544793241   T   T   T
 27.0558177939490356  5.7399251947683831 17.8381707564956464   T   T   T
  6.0019105476016801  3.4054513298075912 -2.7711427224197944   T   T   T
 14.1693690872819822 16.2173884523400957 -3.4388566682774049   T   T   T
  9.1904278041691594  1.4790311117471107 24.4068787032352077   T   T   T
 20.1065304843719304  6.5015373577143487 31.5674386455420439   T   T   T
 22.8197845328272209 -1.5682493970489908 21.8905004659978637   T   T   T
  9.2811036493005314  8.5006196260360980 24.2777448006895469   T   T   T
  7.5009015379713686  1.1812452521999146 34.1502589733354398   T   T   T
 -3.6144719013511146  8.1130752141090650 37.6261652336955734   T   T   T
  4.5534132427828409 19.5359567451468763 24.1803918844161316   T   T   T
 17.5864664168852762  7.8152117898375693 32.1311797947792570   T   T   T
 25.0290654269300532 13.9438931252597360 24.9547049805245393   T   T   T
 13.7456394032023628 16.3568134161446181 19.3343767496264611   T   T   T
 11.8624922511642019  8.7033016199250941 27.8362336450536354   T   T   T
  2.0198917401105874  8.6948455085404586 34.9323510659883851   T   T   T
  3.2230348906559936 17.3199163782981529 26.6279432852610540   T   T   T
 14.3509313750202399 10.5021513082233913 30.8758441429721167   T   T   T
 22.2694138412738596 15.2129171125914322 25.8118245892001887   T   T   T
 10.4924592872950520 11.8705685015694318 23.5051692778172843   T   T   T
 15.1592467532649060 15.9237747442074618 39.3474629547127535   T   T   T
  5.3586808155973937  8.4606013421739199 35.8890655992497329   T   T   T
  7.2556953520580549 -1.4303689059935014 31.8130427261630970   T   T   T
 19.9219894496990904  6.7726194555351462 28.2377524509652567   T   T   T
 21.9414119252248518 12.1111827245917567 24.9378004340951094   T   T   T
 12.2036950295888129  8.0491264455524050 23.3317107507569936   T   T   T
 13.9375469475113647 19.5846545056924342 33.9822818501276345   T   T   T
  3.9831049913658214 10.7840113140072731 37.6558519545045414   T   T   T
  3.7114548374675351 -1.7750562621108765 29.9400718499829708   T   T   T
 25.4886309205973696  6.8804396973479962 24.5461294724548402   T   T   T
 20.8792838494500224  0.6918469280369992 23.1853402506310218   T   T   T
 10.4660076481675279  7.8844040377699320 20.9823971253972914   T   T   T
 17.0579516422174819  1.3105040432608328 36.0224436077376993   T   T   T
  2.1267134394754055  4.6525296938342438 34.7080538732728883   T   T   T
  4.5209713949920287 15.8448208453351178 30.4221249089362615   T   T   T
 17.4151550072846426  5.3183429087313074 28.5817974539678765   T   T   T
 24.6627015130797353 14.5380583262222576 22.1154859243985911   T   T   T
  8.3600967031405382  5.8415632630277186 23.7672888553010146   T   T   T
 12.9013433342447676 14.5272857857425688 37.0626119323626284   T   T   T
  4.6379310022718627  8.1450908518401164 33.0167042143562099   T   T   T
  4.9210504564773707  4.5938604573222310 21.8707224761325136   T   T   T
 18.9674927312822312 10.2179121514165647 24.1813532502817523   T   T   T
 28.0816991710425050  1.3281602007426916 34.7225438915045856   T   T   T
  6.0426844723297908 11.5604093310787999 35.8687627948627892   T   T   T
 19.7431867225012958 -1.6305918531290287 28.4477805726905402   T   T   T
 26.9414656567821282 10.7684362001396678 30.9673355443329363   T   T   T
  0.0632267192587270 -2.1427466160344859 13.6264536326819936   T   T   T
 16.9690569119857209 11.5683036800650001 25.9412784959760039   T   T   T
 22.2554795561236922  4.4103143248721404 34.7959340505554735   T   T   T
  0.1416686733254061 16.7241253641254630 39.9899440792594731   T   T   T
 12.3116636065868317 -0.6289827441218703 25.2710114321612522   T   T   T
 26.3292079984950220 10.8899400350000644 28.5907600510894255   T   T   T
  1.9155293577061423  3.9863430983440287 23.2059487485726557   T   T   T
 15.8603793985246160  6.5811296700736772 17.6791256349350014   T   T   T
 19.9338596831278672 -2.8524455442966223 34.7955768680914019   T   T   T
  9.0230208939046772 10.0323738195601866 33.9567987250157586   T   T   T
  9.5580562713926494  1.7890258559777250 28.5558383695658158   T   T   T
 -1.0753611905917175 12.8627085434192896 30.0116953426823905   T   T   T
  6.0992579940671048  2.4082559823603016 22.8943200465209387   T   T   T
 14.4178903817155764 11.4350581682245824 23.7908299626672211   T   T   T
 22.2255842150591327  0.4950752693883264 37.2736549600798810   T   T   T
  9.7048403178438942 11.2613223675298997 36.6843363982798962   T   T   T
 10.9194710073376751  2.6463091987214233 31.7499397860251129   T   T   T
 -0.2945957240511192  8.2729109023551661 29.1322713479084570   T   T   T
  5.3086866749757657  7.2745664815471232 18.6934280571217428   T   T   T
 16.1022191170656903  8.6526061950999740 26.0154914854052457   T   T   T
 23.8405526709207294  2.8701912846889810 36.6826728580926442   T   T   T
  4.0362497163150817  6.0070619647878578 28.2234983617404147   T   T   T
 12.4248042523520486  5.3442489556948161 23.5118700885070169   T   T   T
 -2.3317993790120606 10.0811617089180707 28.7736875556101879   T   T   T
  4.6351112912670756 -2.7945381382283898 22.5582499718232619   T   T   T
 16.8577037018080738 12.2759516199138190 22.1797054718880631   T   T   T
 19.0320254340903787  2.0657292930852584 40.4032091964729148   T   T   T
  0.3194192265083891 11.1414971021747267 39.7042227487124819   T   T   T
 11.3669923236283985  4.1520405771184761 27.4058117366337264   T   T   T
 18.5188168034370939  9.2720963684659079 29.5998085601110184   T   T   T
  5.1619975599941226  4.5814412785007539 30.2830219347438359   T   T   T
 16.7664878224019098 -0.1970347832473041 28.9434505093855101   T   T   T
 21.5591800322814535  8.8928926416860481 24.6205437425982794   T   T   T
  9.1841719580662282 -0.6114010864395500 26.5198938393781383   T   T   T
 18.1977266362868058  4.1690128202685051 34.2352455185920661   T   T   T
 -0.9453978680895008  6.9808432203425630 34.3878731082634630   T   T   T
  7.4514414004231391  6.5302545328997583 31.6757221330755563   T   T   T
 17.5500491421240561 14.8701840757959438 32.2491720500420200   T   T   T
 21.4548282755094775  5.8225737370939221 22.0418798444698112   T   T   T
  7.9686638755183186 13.3066804990741829 23.5253113809368273   T   T   T
  8.8818510929365537  4.2691483734378526 37.0924470121404539   T   T   T
 -2.8093854550765642 10.3355499133653872 34.4712874005286380   T   T   T
  3.1959423743210729  8.8147012968103340 25.2135692300111280   T   T   T
 17.6537922079622938 12.1708053900242810 31.4671402810605514   T   T   T
 18.5560566286810342  7.2411884123051937 19.3838195320373003   T   T   T
 13.4220378206664588 17.2894050273671951 13.4404060842822197   T   T   T
 10.7304178596453514  5.1283155092789139 30.2254041834182736   T   T   T
 -0.3240159636456810  9.1019397819752381 31.9523848337888730   T   T   T
 12.6786528432498002  1.4478786240701405 29.9477481736977147   T   T   T
 15.2730024179827080 19.4445941615458509 25.0500399618164771   T   T   T
 22.0682961739600429  5.3741306719091000 26.1990602822426197   T   T   T
  8.0677426835852764 18.9558179071797639 18.1073121749133392   T   T   T
 16.9590770823579788  9.8118619712487494 39.7780866218749054   T   T   T
  6.6121607895727470 14.7623724711700923 28.7085353954074947   T   T   T
 -2.7266802156729697  2.0349332551025352 29.1729709029813975   T   T   T
 20.7186547833258032 -0.9858636611538745 31.3783375777148095   T   T   T
 23.1114924380622213  4.0994232969355409 23.8483768181829419   T   T   T
 11.5378548505827450  1.0038848737729336 22.5311536538924280   T   T   T
 12.8252046920982608 11.2912242560546918 40.6755158073679013   T   T   T
 11.4345371446458959  0.3754643137881538 34.5288698724569656   T   T   T
  7.4644939323387822  4.9554787863414544 28.3194285604984621   T   T   T
 18.8562346050791021 16.0837728791143277 29.1746913765198386   T   T   T
 23.6663311331236379  7.6556315803034414 26.2758515743825853   T   T   T
  8.3475618194710410 14.4634680532692776 17.7231942843372465   T   T   T
 15.8708115918450865  7.0431295179904989 39.8649664734804361   T   T   T
 -2.8590406395986809 16.7665366642518805 34.3101552760542887   T   T   T
 24.6075071123031996  4.5577145840966757 28.0356867772211196   T   T   T
 14.7868782862139074 11.3379168058258681 28.2705778766611040   T   T   T
 16.6001194104504251  0.8969727861437418 23.9765659604775969   T   T   T
  4.4576145425727463 14.0197713345741004 32.4058987009147046   T   T   T
  4.8264055974197051  8.4285914102724924 29.8210954268377613   T   T   T
 16.8028147039225111 17.9897765869124413 38.5402843671508748   T   T   T
 25.0758429638051048  1.0700525138372268 28.6728782753010236   T   T   T
 12.7699894033619898 11.7804822705336516 35.4191361210692293   T   T   T
 18.1291419078682488  4.2061806759108062 22.6283001683991287   T   T   T
  4.1406273210443665  8.1537866049711187 22.9917384375421960   T   T   T
  5.5853995626748443  2.0688049682892387 36.6608211223838509   T   T   T
 17.3568587051008585  4.9865474836186525 31.2162163040253944   T   T   T
  1.5612911339812741  3.7736190574590922 30.5657639791850215   T   T   T
 10.8332379342271654  8.3130676668099941 30.3132766368488440   T   T   T
 15.2208522495135963  2.0630704089328407 26.0641409983122934   T   T   T
  3.6587383476873758 12.0441639787046064 26.5383163250736693   T   T   T
 10.6541946204399132  5.8495517551256810 38.1608565856231365   T   T   T
 21.3078724362638354  4.4244550435484138 37.4281582293042447   T   T   T
 -1.4249787338142106  4.8394816717122771 31.2605043521861283   T   T   T
 12.1741696935069772 12.6270266482413049 29.4952085214330388   T   T   T
 18.1297810720546764  2.9543109868364748 26.3487600798845634   T   T   T
  6.1749783978476867 10.6453227285717311 24.8945129886102912   T   T   T
 11.5670212725197317  3.9173057212742344 36.3928461828700165   T   T   T
 18.3361742721399992  9.5456517316428293 37.0318617560035079   T   T   T
  2.9853109582386295  1.1504339770374823 23.9901039784733641   T   T   T
 16.2751059717407927  7.6736167969905562 23.0379015614800053   T   T   T
 15.0108362026450699  2.4587248414164571 22.8454306704214858   T   T   T
  0.1989571090267481 14.1735733839547251 15.7579157809184700   T   T   T
 13.7485646358924125  4.0948102105851305 29.2587508655671584   T   T   T
 21.1709193610454349  7.8535011678259936 34.5287632366617459   T   T   T
 24.9895712461150623  1.9215201780233453 32.3003995620842090   T   T   T
  9.9308257006621758 11.6019862351009522 29.6792467764426640   T   T   T
 11.6497030619547584 11.9170573759917051 18.2468558514397188   T   T   T
  1.9132530400483656 11.5745230507187511 23.6811512552450196   T   T   T
  3.1998382461597030 -2.4014207134212553 34.7174716603239517   T   T   T
 14.7329562368255935  8.7528673416847109 37.4708549956876880   T   T   T
  1.1795749759690775  0.0714862382871189 -1.1990741957964388   T   T   T
 13.6587914235253276  5.7801784169180834 -0.6251855585072799   T   T   T
 17.0084485237401744  0.5022043280488998  5.6648432218225011   T   T   T
  4.3135198598484008  7.6348950415485621  5.6011922457524594   T   T   T
  8.9432933035097673  0.5264556322759244 11.5654731397220143   T   T   T
 21.8664108381743141  7.3663893149289255 11.7157864544016306   T   T   T
 23.5375929593539119 11.5152932675859283  6.0624165725670736   T   T   T
 11.1503498883924426  4.1386817696849389  5.4491081050963688   T   T   T
 15.0832661189107586 11.5986592165318747 11.8896580524204509   T   T   T
  3.0254381345740349  3.9567402655861863 11.4418629938494565   T   T   T
  4.3944890537866028 14.2880383697442905 -0.0368400661721802   T   T   T
 15.1220631582603957  3.9682036670199405 -1.2662545678451795   T   T   T
  4.5622857026335293  0.3162295717209960  5.9105927522869335   T   T   T
 17.4496828549382599  8.1201730132173235  5.8839015708646913   T   T   T
 21.3664077514713924  0.2184943647161117 11.7941884644182853   T   T   T
  8.8098617288775962  8.0076013945963282 11.7330069901598417   T   T   T
 14.2883687600233795  2.3966625792145919 -0.0567207211834513   T   T   T
  1.7556491381840400  8.4705805254125508  1.7159638046396337   T   T   T
 23.3753925056393896  4.0828053857009481  5.8945382015235586   T   T   T
 10.7571581379999870 11.2938601550138458  6.0123408598094912   T   T   T
 15.4991877045932647  3.8941448429085499 11.2815231402413350   T   T   T
  2.6735946641502797 11.2113425358511645 11.8987515962446047   T   T   T
  2.5589537834729854  6.5491263551441268  0.5866798782130381   T   T   T
 15.3285808539821602 12.0465124378959914  1.3241409323681970   T   T   T
  4.8042361058008316  4.5631320218744360 17.8737584623444370   T   T   T
 17.1232697005034922 10.9981844191251419 19.1195984098974101   T   T   T
 20.6154245043329425  2.8211797923871265 31.5764174271611111   T   T   T
  8.0322018963234552 10.2101023643430118 31.4179424432778482   T   T   T
 12.4817686892744693  2.9059534337152071 25.3013118739725229   T   T   T
 25.1427921447822200 10.2426737860700570 25.6140105935496116   T   T   T
  1.7563098216656949  6.5618237072231054 31.5766671869923954   T   T   T
 14.3770583816073092 14.1142120905456281 31.2030195006860183   T   T   T
 18.5777507747472761  6.5547803415038741 25.5264343506592368   T   T   T
  6.0854270703609465 14.5853374437120191 25.7564848781855176   T   T   T
 10.3679412182277524  9.0819634084063452 18.2575248714668561   T   T   T
 23.8142282740963509 14.2953779133232164 19.2368547256365439   T   T   T
  7.8542462534501496  2.7500642308313363 31.5268502433564421   T   T   T
 20.5877791991597014 10.1013055470438253 31.7882925245801857   T   T   T
 25.1843657170627289  3.0389874483339039 25.3744933650967397   T   T   T
 12.5583020577329112 10.2128935695104701 25.3742620770645395   T   T   T
 16.7584336697160019  4.3425813798766493 19.5036176690658500   T   T   T
  4.8833584859554815 10.4005876063052920 19.4679732587552721   T   T   T
  1.4551825321078304 -0.4420532045028244 31.5443948754895622   T   T   T
 14.4564863986050760  6.8258703990359839 31.3345617385953759   T   T   T
 18.8374664849159821 13.9769010887680398 25.6765916632040287   T   T   T
  6.2925699661611363  6.7145997054142130 25.3301609951565680   T   T   T
 10.7458391309418300 15.0398903152991270 18.9945199088091421   T   T   T
 21.1688735791202305  6.2447864967315274 18.9527391009726642   T   T   T
  4.6355381372342856  0.1037088049707465  7.9895856352666152   T   T   T
 17.4346712022389347  8.1504490897881201  7.8675510215361353   T   T   T
 21.7293844396040896 -0.1142779546137814 13.8134936740460486   T   T   T
  8.7136994379531370  7.8384376594226994 13.8038042910543357   T   T   T
 14.8444510607828768  0.7162121223542968 -1.2986910607222164   T   T   T
 -0.2452292807488073  7.5860802243546726  1.8510838821553250   T   T   T
 22.3947615431829874  1.9036788207841142 11.4383256248630403   T   T   T
 10.0561708677918773  9.7161260947948325 11.3078153579034595   T   T   T
 13.3740458883880695  1.8274725860090217 16.9012928978629802   T   T   T
 -0.5614937141156393  7.7031778398902597 17.4775913025661183   T   T   T
  5.5958649643817964  1.9332264261513701  5.3337705364079087   T   T   T
 18.3611349614845096  9.6171362207559810  4.9287713671194275   T   T   T
 22.4723906345227959  5.5508898783438454 10.7991016836726921   T   T   T
 10.0267023632748060 13.3122097866565081 10.7129596127154478   T   T   T
 13.5174219761685119  6.3663627410281256 17.2674354891349893   T   T   T
  2.0348288388857863 13.8154847783238584 17.3683613937653618   T   T   T
  4.8405755634025258  5.8068327147912910  5.0058497101410842   T   T   T
 17.9480855539157638 13.4248080414021391  4.8171847753357060   T   T   T
  6.8901571787379163  0.7833013575116627 11.1864479040710272   T   T   T
 19.8492144650795019  7.5113915287152055 11.2932372135938195   T   T   T
 23.7679140084797851 -0.7464992982770410 17.3338358386947853   T   T   T
 12.0542666181324449  9.7899234297930029 17.3044183775232732   T   T   T
 14.9451057405553733  0.4736701719050933  4.9764951293741619   T   T   T
  2.2247993331874869  7.6236523878825206  5.4851129473724107   T   T   T
  2.5172874519873991  3.6335066069131878  7.0091913335376708   T   T   T
 14.7742782507031531 11.0658619282153499  7.2148981770869227   T   T   T
 19.1871323524509343  4.3302704689921052 13.5416255048846050   T   T   T
  7.3723807085596773 11.4549331019424923 14.2963408554524882   T   T   T
 10.8529590008965098  3.5313638671252456  1.2365889974851501   T   T   T
 23.2079127138253760 11.4923909438550584  1.7880258713345614   T   T   T
 23.1890344344394705  3.9242268903767648  7.9189343704879187   T   T   T
 10.8819881416910018 11.4325487308144265  8.1172500911711811   T   T   T
 15.3805166713012191  3.8095734637998717 13.4344219331659041   T   T   T
  2.6031363612828939 11.0676274287746246 13.9734172460151687   T   T   T
  4.5779218613790258  7.2244811359618355  0.4984513322724404   T   T   T
 15.0890771522724929 11.3799375243894634  3.2600329969199247   T   T   T
  4.4219068007412341 12.6849171389177933 11.4931385369494272   T   T   T
 16.7328601103519645  2.3331510873930901 10.8614791776455775   T   T   T
 20.1536980995766868 11.6904765729302138 18.2314596177403558   T   T   T
  6.6662369971678324  3.1900876161213532 20.4470892251328991   T   T   T
 11.3607878085674763 13.0438656115192515  5.1301946696431262   T   T   T
 24.3039785103632617  5.8422377456788483  5.3063481619623500   T   T   T
  4.1541762062036751  2.2002452859183528 10.9335278997242185   T   T   T
 16.1729779167500105 10.0427219350212340 11.2892474371056775   T   T   T
 20.7350002852474127  1.9858913833589262 16.5720531765634576   T   T   T
  6.3949192290749046 13.4218383397249639 16.8643856345926864   T   T   T
 12.1524206147345044  2.4711368517362766  4.4727671015918951   T   T   T
 24.3592135607226226  9.7625763642472929  5.2264318514228254   T   T   T
  0.8795964630297984  3.9151732411057529 10.9246247573506086   T   T   T
 13.0956382072541704 11.1727138179228849 11.2855526052228559   T   T   T
 16.8086494891907243  4.2174318186282278 17.3937106764803069   T   T   T
  4.3422136483467417 10.0888280306400411 17.4261552144514162   T   T   T
  9.2252611295158093  4.0055498066987232  4.9072161538906167   T   T   T
 21.4217284806395369 11.7188985867602646  5.4151471745508397   T   T   T
  0.6682189911555002  0.2825905180721317 13.5824002763406728   T   T   T
 12.7508192289481297  7.2881315467472128 13.4735320341884055   T   T   T
 17.4010955343922937  1.0420876521414772  1.1951939152347835   T   T   T
  1.4482187910587618 10.1467892429111277  0.5083439896174504   T   T   T
  8.7632397992646283  0.6971716218451598  7.4570765272041157   T   T   T
 21.5069199975856229  7.9314285557162076  7.6461440022874001   T   T   T
 24.9301264990276614  0.8235223776089233  0.3292492501491845   T   T   T
 13.5208712453501150  6.6775189142557476  1.3327624475210378   T   T   T
 16.9161690131439961  0.2352591884910990  7.7468241660017032   T   T   T
  4.8997008875662269  7.7654593517345187  7.5205252824764202   T   T   T
  8.9719006026811705  0.3482002551160653 13.4976752042333867   T   T   T
 22.1383075648212788  6.7934530356203622 13.9550070738502932   T   T   T
 22.6347864361562721  9.0624520382509512 11.0156576691217865   T   T   T
 10.1140448943074102  2.0889824410909763 10.7872182422849292   T   T   T
 12.6275251974997502  6.7047844099973100 19.1028305984705078   T   T   T
  2.0284139309248825  0.3276529652769199 19.4042268787206709   T   T   T