Li P  S  Cl
 1.0000000000000000
    25.1819793006824639    0.0000000000000000    0.0000000000000015
    -0.0000000000000009   14.5388225279766061    0.0000000000000009
     0.0000000000000000    0.0000000000000000   37.2126966544236950
 Li  P   S   Cl 
 286  48 240  48
Selective dynamics
Cartesian
  1.0487207164781622 -5.2516296026539280  9.5685651029961800   T   T   T
 24.2601131702201300  2.1966714102261982  7.9825763371614480   T   T   T
 16.2084117945019273  9.3939457124234274 12.7394909111011927   T   T   T
  5.9858912140339751 11.0862130204342435 11.6492572655656872   T   T   T
  8.2781006122591592  3.9850757836934911  0.6065561926181977   T   T   T
 24.4103889528224158  7.9401263787629643 -1.9652829368063285   T   T   T
  4.2806543091919806 -5.7107513269387029  9.6171541411402526   T   T   T
 13.5285901825584070  9.5939126530589789  5.1154058320137681   T   T   T
 15.9283845257725236  2.3304844550853656 13.7720149435604942   T   T   T
  8.0052917699217723 14.7474716903331746 19.7961727353134620   T   T   T
  7.7828673190018369  6.9809557186259772  6.2756290632603342   T   T   T
 20.1117875897272569  9.9639325283970166  2.3147988113236679   T   T   T
  0.5094276314052026  6.4811386803299831 12.4646054807641349   T   T   T
 10.2705336777727343 12.7655707913167937 -0.3875080556446763   T   T   T
 17.4814388033072348  2.4467282207387941 11.2048873017530255   T   T   T
  5.1680382068809143 13.2458608396454487 13.7571939451175744   T   T   T
  0.5089598466607066 12.7047404750391912 -3.2390581170317447   T   T   T
 29.1159716815828631 17.7129264417425993  1.4760342884376794   T   T   T
  0.5496147402464393  6.2152961757596650  7.9995091914020326   T   T   T
 19.2040280306826787 16.8640382391405623  7.5848979802103491   T   T   T
 18.2142620514064575  8.6807623265606502 14.2004162313490134   T   T   T
 -6.8742474267640388 13.7856728687187875  9.0315483175362168   T   T   T
  8.5442586590211533  4.5830018427029326  3.4252950589644291   T   T   T
 20.1685849415673388 17.2054023001799123  0.3505605770907839   T   T   T
 -1.2088813600198440 -2.5495299710880781  8.3059653697370983   T   T   T
 13.4384923508749363 15.6658374675620813 19.6764584656844264   T   T   T
 20.0333153670109070  5.5741870133069780 19.7131368076900095   T   T   T
  6.6650991095003116 11.3849745018956980 16.2044788014363341   T   T   T
 15.2506124796703606  3.6215342401557726  9.3822366177587071   T   T   T
 22.3853094947752780  9.6167723428994627  0.8889345361378083   T   T   T
 -3.2534762575284124 -5.9428751434225839 14.0756831141104310   T   T   T
 15.2152559797190143 16.7856362808283173  2.2241148303576295   T   T   T
 26.3550286188914384 12.2865745339234849 24.8742563587077861   T   T   T
 13.3626643612605402 13.6700080179675965  8.5987312409240726   T   T   T
  4.2513870487004253  8.7015288657930761 -1.1292496382556503   T   T   T
 16.6157917736361043 13.4549613103838617 -5.1783075688727402   T   T   T
 27.0409752749709398 12.6318770912781808  8.6791995511652900   T   T   T
 13.5787464917879515  0.5197486610550063 13.2883709590195309   T   T   T
 17.1174862851258496 27.5347664942943240 -1.1124361618585294   T   T   T
  4.5795014859133465  7.3006092504140980  3.1935166878740047   T   T   T
  6.8728729417572456 15.4255227922905078  9.7880399809980769   T   T   T
 18.8420673874934863  5.6050576404808634  5.7467424697882414   T   T   T
 23.6950125222463797 -1.8482686094238991 12.2359036173149605   T   T   T
 20.0552043323396418 16.2902665410309986 24.6086088299498300   T   T   T
 12.3857274886861166 -1.7476868317279046  5.5656216991036347   T   T   T
  7.7457783260604645  2.0662648451057026  3.3124141611613509   T   T   T
  5.6978119526267657 -9.9101193501453260  4.1835618776091392   T   T   T
 22.4143885874760969  4.9543060905993714 16.1743849888272457   T   T   T
 -2.6167725867264537  6.5649024421567441 18.8741810626841193   T   T   T
 10.3748706647690874  8.6394322949386613 11.9703339564183917   T   T   T
 12.2637825142191641  6.0403643870097907  6.7442274315485129   T   T   T
  2.3575287975649055  1.5014103683505797  8.3862543034121142   T   T   T
 18.1336897637071175 -0.7532809556951577 19.3552232093881535   T   T   T
 21.7053555155043725  1.3911365211922895 13.8193929785855527   T   T   T
 -3.9291669924580619 -11.7057529523175958 19.4370247939103606   T   T   T
 10.8067074598258426  1.1794463838425966 12.2975873336635235   T   T   T
 23.1153556437816121 -0.1981636631467293  0.0468387483221738   T   T   T
 10.8618430177521113 10.9436629530621765  2.3543305628142628   T   T   T
  8.7934722792536242 -1.4048694265484443  9.4138238382542987   T   T   T
 21.0667120220633421  5.2584450249146419 -0.3397742272415086   T   T   T
 -11.6820508519974045  9.3395585693371181  8.4833433174303909   T   T   T
 20.0475559738843927  4.2645540178087380 12.7854803242712336   T   T   T
 18.1345929735487772 14.0085600058798931  2.4357573421780110   T   T   T
 -1.8978495147737997  2.2769037100053322  2.9451024007566131   T   T   T
 11.3214915819982664 14.0369415893057585 16.4883622820552347   T   T   T
 18.6082647766789151  1.6553089509348697 15.4501478630269578   T   T   T
 22.2977037189455842 -1.3566478695516460 15.1791217481302763   T   T   T
  4.6179804402495641  6.0690878238805448 18.1502075469512789   T   T   T
  6.0112354867192197  2.5176453706152726 -3.3767994561102794   T   T   T
  0.1058827251368823  6.5807223843117306  3.3954736857026573   T   T   T
  2.5680043633583090  3.5943345158559024  6.2029216272640335   T   T   T
 21.5371345085962886  5.4032894140365855  2.5685753612146023   T   T   T
 -0.6363148132619814  9.1104549588842261  6.7764457607669097   T   T   T
 19.1026833513445027 10.7148796341832266 11.2280583482910075   T   T   T
 19.5960319446340776 10.3832003496487566 21.1426072077773348   T   T   T
  7.4210680354572922  3.0809311498699365 13.0100754554144427   T   T   T
  9.6187702695083903  8.4764814539400817 -1.2984634479374906   T   T   T
 21.6709865572113145 -0.7612748892387958  6.2085602156391149   T   T   T
 -3.7237547848413568 14.7893101999266285  9.4137657994333974   T   T   T
 14.9254434372784939 11.6915214073470182  5.3944230114518490   T   T   T
 22.4034662969528142  9.3187153127247839 11.3878930756155157   T   T   T
  5.7149813762945838  3.6456662737070920 20.8653947633050585   T   T   T
  6.9887769172486633  8.4133549291566325  0.4962955951228205   T   T   T
 25.7914523821154731 17.2413889908885736 -2.1546896303245391   T   T   T
  2.7195573222338170 10.4049148512786580  6.2524218695578853   T   T   T
 19.8330022129636845 -2.8826497883763786 13.6574588861289357   T   T   T
  2.9300024003417309 10.3886133886556493 13.9642973487271060   T   T   T
  3.3754868846579442  2.5872431757470333 11.8762438379594713   T   T   T
  4.5545605399230658 14.3266933787214263  3.5646796201008559   T   T   T
 22.6262107151696199  2.8239495482610777 -0.5755266610268081   T   T   T
  9.3995870654665286  7.7331238399198741  8.5390978409599185   T   T   T
 14.2205593475259278  6.6873898037445603  8.5503532698921223   T   T   T
 13.6908836685390050  7.3693274398080462 12.3830938879979193   T   T   T
 11.0259282757308696 -1.6146601311906776 11.8529223266154222   T   T   T
 10.5013899372932134  5.2605765737653334  1.5537927072123714   T   T   T
 20.0396994929941457  2.0808057748451629  2.9609858573898098   T   T   T
 -2.1949068166565104  5.2987776880972799 12.2397315904669526   T   T   T
 15.3763435070001471  4.0296634113708434  6.2021452983311089   T   T   T
 16.4210754748811141 19.4513309200030093 13.0353560096710321   T   T   T
  8.6177457391222081  1.4297724320136724 15.3929910935365495   T   T   T
 15.7685310266828100  7.6571411466980779 -0.8494783379385874   T   T   T
 19.2160419729760790  0.0379748619264851 -0.7365380405512983   T   T   T
  8.3114144654007500 13.9701834034243504  5.6519365931898777   T   T   T
 11.6161979444492545  4.6151650060241183  9.3913060917174533   T   T   T
 18.4571262849920998  8.8539046961212122  8.8842017570065437   T   T   T
  9.3788033783817379 -1.8002700918750238 14.3513053484721418   T   T   T
 12.2183029979839990  5.7879894127585478 -3.5331917184864392   T   T   T
 18.0211144608876808  3.8868186553972564  0.3621829357825940   T   T   T
 18.5943000998267038  5.7712224531662919  9.1706360912952096   T   T   T
  9.6587081130272665  1.3249565410905488  7.9876069701065973   T   T   T
  2.0324669429732580 19.3605613596463044 15.0865628676975483   T   T   T
 29.4166181064208345 11.1902252466329521 16.4199967741027990   T   T   T
  0.8595755008698248 12.1273556698579306  4.0420400433039863   T   T   T
 13.8595792609348205 11.7498388218010774  0.8935074447333582   T   T   T
 16.8357299566706544 13.0097042173012092 12.2815345443059005   T   T   T
  5.3239567819410212  7.5348952860308671  6.9116683004116721   T   T   T
  9.9575661825919308 -9.2682661412381719 12.5753673772898367   T   T   T
 19.6594050018019644  7.5675843581094178 17.6701810706994529   T   T   T
  2.0595243825254661 -5.9088147885188578  0.2860790431525879   T   T   T
 11.1767572680574201 15.6847907659502610  2.3877106514188879   T   T   T
 24.6248474642824533  1.9513096640012781 14.6082087133962855   T   T   T
 11.3056864797193946 -2.5995674843305001  8.1378224101800924   T   T   T
  1.7418466646650757  7.3076627878206244 16.8124914104948253   T   T   T
 11.5267780819455936  5.0332201585303782 -9.8057287301260061   T   T   T
 15.7961419377448422 12.0942342294103220  8.7155793366695224   T   T   T
 18.8723191708145634 -5.5107218719380144  6.0047391278341182   T   T   T
  6.0781172495177431 12.6815550612279786  7.3240952346775750   T   T   T
 16.3622499701400912 -3.1292035855082139 14.8961788088933087   T   T   T
 12.6117072898898606  2.6688001502059087  6.4388876556523327   T   T   T
 12.1896451784572193  0.3181651481570957 -3.4370299485622215   T   T   T
 25.5315524143691945  4.1083968225569629  0.5259346423388827   T   T   T
 18.3881175884200445 14.8222389370847694  5.6032674467659680   T   T   T
  6.9420083514704150  5.0426462340803759  9.0488500111494581   T   T   T
 11.4808068445057572  2.1540428362165644 15.2464102800416281   T   T   T
 -5.7036913444851471  4.8933610337414413 15.4699614609916232   T   T   T
  5.1160337470381467 15.6054686385212875  6.6119629557966615   T   T   T
  9.7135297764781754  8.4772282844878184 15.0168525252009406   T   T   T
 19.9875457321598304 -2.4288930391561423  7.5359216135659359   T   T   T
  7.3781796335345335  9.7209223525910069  9.1641431882238376   T   T   T
  8.4910674282169669 -9.1615487850271045 18.7642960037228796   T   T   T
 21.4756417450291650  8.1487079317989668  8.7950617319245872   T   T   T
  8.7996706415407182  3.4508891547781424 -3.4841295558792154   T   T   T
 27.2805991870921716  5.6458109676601467 -2.6152433999948026   T   T   T
 11.0042281574609326  2.2425931414430971 30.9973365412155779   T   T   T
 23.9632921394249223 15.8382646053795106 27.6090058596170529   T   T   T
  6.3220704804645784  5.4730084847358818 14.8757378690508659   T   T   T
 22.4550676208637441  6.4728130842868685 23.5237888894899818   T   T   T
 26.1225140989789395  1.9385096876280790 42.8796219001700791   T   T   T
  7.1966827813961407  1.3152661701842971 36.3198478497173340   T   T   T
 11.4645904914177237  1.5375979947509608 27.9940374293005263   T   T   T
 27.8095413614708278  6.2536155307286307 37.2569478265713485   T   T   T
  0.6034062729392262  8.8354029607946920 29.5665825740665618   T   T   T
 17.9720253620958630 11.7816011670721963 24.7796301276965920   T   T   T
 14.6253158466703219  5.8766447467978598 40.7251582293160652   T   T   T
 10.1502721647898326 11.9621176520860324 31.4757333707540177   T   T   T
 19.4055974822296662 -0.6541401738023969 29.2136862607038843   T   T   T
 26.0302749501775210 11.6186714782784435 28.9085777657247789   T   T   T
  5.4301417238600145 -1.4166936652423385 20.6647226150499250   T   T   T
 19.8562390093622128  7.2124492296848208 23.5852274635432551   T   T   T
 25.2952178786294226  3.9930741513035155 27.8921764694417718   T   T   T
  6.9471607621336329  6.6432234743715304 29.7250509375411234   T   T   T
 13.3101198489209942  4.1312004870479919 22.9424474098932407   T   T   T
 33.8184002856084902  9.6650516549267493 30.0890999187072907   T   T   T
 15.0198449867190096 -0.8894665223221510 24.2333019840023383   T   T   T
 14.8304071496598127 12.8024681034448520 21.6127055835589346   T   T   T
 19.5698076400610717  9.5910760852473338 34.5420365787505830   T   T   T
  1.9704511974813843 19.8672088561781486 24.8184889992868563   T   T   T
 15.5661373441040656  2.1689704369134946 22.4787649737019457   T   T   T
 22.8773126837715495  9.7095986984884384 32.5143849074346463   T   T   T
 -1.2454198771803799  1.9316878645703708 11.7781350172155541   T   T   T
 15.5650246727368806  3.2387757491707494 26.2624665562839361   T   T   T
 20.2071762037623444 -0.6026924904310205 23.6456439822255007   T   T   T
  6.7961029453542627 11.5677110250204755 37.1877063042340126   T   T   T
  0.9399172268411710 -1.0699077840367670 14.0120217377180030   T   T   T
 22.6837012843851795  7.3252805057649653 26.6885598236049120   T   T   T
  4.4464972079996459  4.4388507523885901 24.6397020764649213   T   T   T
 16.6122330407859948 19.9673298187411099 22.4630317023102393   T   T   T
 21.2121714574996147 -1.9867369154391459 40.4871422312513971   T   T   T
 17.7243783814553026  6.6187216693785693 40.2932984838629551   T   T   T
 12.1262916846140207  9.6692155541744746 14.4970111448427712   T   T   T
 15.5811692293003414 -4.3151545106640965 25.9845283183360145   T   T   T
 21.5444994959734188  7.2892761741492658 42.9954194286244160   T   T   T
 13.7698772959962508  3.7129426076506937 30.3866863139361136   T   T   T
 16.6620171098118988  5.9756780381611705 30.5685113537822879   T   T   T
  6.2346801869131960 -1.5663591006250877 28.3826019102767333   T   T   T
 15.2753074971251515 15.8133380381536170 17.4872495867499751   T   T   T
 22.3610483133955995 14.8597762497989692 21.9718727206778937   T   T   T
 21.9014631474360897  3.9482615306594711 28.2408885466419868   T   T   T
 10.4170609656333077 -6.5969470229808964 38.4530447248429539   T   T   T
 14.5628195194639609  6.1429640729859099 24.4935189698725608   T   T   T
  6.7633614523162544 20.4582803863414391 35.3804329653572154   T   T   T
  8.0919421886164820 11.6860169138664389 19.8585579519635047   T   T   T
 27.8701611087859717 13.8738355966910341 20.9842562875433636   T   T   T
  0.9389425800713582  1.8655629945598420 29.8187805248178854   T   T   T
 10.1835003531829464 19.9076251618608708 30.3629209867281666   T   T   T
 23.1235104814064272 12.5358415966218999 30.2478527070254195   T   T   T
  4.8606710112369029  9.8786348061703499 19.8371368039410747   T   T   T
  4.9664033937660443 10.3733595111495163 24.8210690564449585   T   T   T
 21.3926755206042998 13.6146635036173826 26.9281380416611604   T   T   T
 -9.2774234574041046  1.7694654979726583 36.3924917548381188   T   T   T
 14.5367877433926598 -2.2289598030053401 35.3632772496659982   T   T   T
 18.0482791281726520  9.9820894661492545 29.0841970148382494   T   T   T
  7.3421945935581814 14.2837463783109264 30.6517723446533914   T   T   T
 10.2782854729315698 18.3819623861754948 20.5943429633340074   T   T   T
 25.9024796530748986  2.3385197059167382 23.5349212202675133   T   T   T
  4.3867215180026902  9.2417013712009641 30.4819923060098823   T   T   T
 11.6740958772874723  3.2242452920547970 37.4801809941705386   T   T   T
 19.5202310020560361  7.1667864868520930 27.6541235726241368   T   T   T
  3.1694721864133961  0.1196170309410616 28.6709265514486944   T   T   T
  8.6749588414619083 11.6261100250850475 23.5758238811077732   T   T   T
 21.7782111670837324 17.4890230686427763 22.5977971142936802   T   T   T
 26.0999496287390755 -3.2699781093547262 37.2180836548050564   T   T   T
  8.2934791765736833 11.3288997673473091 40.7142087318664494   T   T   T
 18.0137786358910077  3.7236911430313016 24.3160636090266316   T   T   T
  7.0357142254707279 15.8494948725947182 28.6872840220708021   T   T   T
 13.7040541868689143  9.8887762189626969 29.6417247048357488   T   T   T
 15.3167373281177408 15.5033745528312643 29.4101689356979428   T   T   T
  6.8425060027768474 15.0921738415817686 22.5872620064787313   T   T   T
 10.8014059414056653  7.6153615606277505 18.3742432329162320   T   T   T
 19.9664603993268486 15.0002461749386029 33.7831707287806324   T   T   T
  0.2082149732367335  4.3616404410441802 42.4775449872985149   T   T   T
  9.7002558995060131 12.6176727749932098 26.6871471888055893   T   T   T
  0.7852572489473195 16.2675996690299556 19.8784014328794036   T   T   T
 14.4785656056414958  9.0935020455710180 17.8918354182259236   T   T   T
 15.7098308238587361  7.3727845788806086 28.4631109846400818   T   T   T
  4.7604376579834735  6.6312715955271901 22.4755660616173998   T   T   T
  7.9602470438521724  9.0294591169079403 25.5440865151790923   T   T   T
 26.4969183863546149  5.5104868222819636 21.8673503179816713   T   T   T
  0.9213664041986436 11.2662402823383268 20.9130447350749407   T   T   T
 22.5243940563318716 10.0197651724727415 22.5001079301574904   T   T   T
 21.4194561320404020  5.2485036129302207 34.3618761792548355   T   T   T
 11.7453228543604968  3.5208050180294981 41.1240857453189363   T   T   T
  8.1690227190280780 15.5175530515883366 25.5809170811711262   T   T   T
 24.1922215228416206 -0.3381763094967348 24.7283448545728000   T   T   T
  0.6968284937444459  8.5776106121025855 21.3176530524199919   T   T   T
  3.9294609777236000  1.8282895637053760 23.0654574965212475   T   T   T
 27.1041750855924803  9.4735870693435622 34.2078457788801416   T   T   T
 12.3211158904260021 10.4681049575108069 35.4326423571902609   T   T   T
 22.1966681226419738  9.3625585914924905 29.7087457172711353   T   T   T
 22.5398367135396356  1.3392999722565131 30.4536486197602692   T   T   T
  5.2567107127363455  8.2498903245938919 14.4763238487391313   T   T   T
 29.2746549671655956  1.4874836553622024 15.7392852454623462   T   T   T
 22.2182058781852092 13.2463214928304964 34.7613689962559533   T   T   T
 18.3637768575040354  5.2825038480673117 34.1853213104848663   T   T   T
 11.5555962294720072 12.0089260160900224 28.7318756656173875   T   T   T
 17.4014383842880633  1.7868373237665498 32.0724029611412362   T   T   T
  7.5335213533257717 22.2125915430302250 21.2810169234211841   T   T   T
  8.5105305807762441  4.5267808502808000 23.6412430900436803   T   T   T
 15.4650528013445552 -1.7443332123685156 29.2265006052523688   T   T   T
  6.3563749709453718  6.0617981102750305 39.0334527458011991   T   T   T
  2.9769787883563361  6.4083453024704760 31.2652198757128268   T   T   T
 17.1717651375558518  8.7168238318975000 32.4394896446790000   T   T   T
 16.3380911878739852  6.5358636008986277 17.4250320151751517   T   T   T
  9.4631900380034786  0.5901455989513259 22.0839907014882790   T   T   T
 13.2080434611976170  9.0211114370212684 37.3622246768495501   T   T   T
 21.2881756231832568  2.4820557581947225 34.1184222636562566   T   T   T
  4.1146787323579845 15.9538754477547258 31.5348658589021085   T   T   T
 12.0477122259702707  9.3592898419655270 32.2762107973407950   T   T   T
 20.8063109619230175 10.2321712403284728 25.1668279694410799   T   T   T
  6.0364447989775227 11.6616297334244052 22.9451317278177456   T   T   T
  2.8762613114810631 13.4406433685515516 34.9782474275319970   T   T   T
 33.5378522033585540 -4.3337494665311302 34.0058769573205950   T   T   T
  3.4533416587583941  8.1443909288653380 27.3484536740499564   T   T   T
 16.3251245051872900  9.9576449857307239 22.2149198648122663   T   T   T
 30.0702864088062469 13.3795719358866521 32.1025007472712787   T   T   T
 12.7260324283779660  4.3075744059436056 17.2925078338153995   T   T   T
 19.7573073732167259  7.1214311928198004 30.8370174487075808   T   T   T
 -2.7410856858351709  5.7571998901946531 45.3389146182905165   T   T   T
  9.7141123986358906  5.2450060498208497 35.4785750333423948   T   T   T
 12.5278135762828544  6.6265430105753254 20.5762759874202423   T   T   T
 25.4502349135041541  8.8294082626388004 13.7884553337978257   T   T   T
 13.6825351434224363  9.9156923106132524 23.0052679878523101   T   T   T
  9.5368579548645318  3.6049912658248613 28.5334741101239295   T   T   T
  4.9884959409741043 -2.9334207335006415 34.9985750752685902   T   T   T
  5.3591732942912156  9.3264361858695075 33.7872376612149310   T   T   T
 13.2587665781479345  6.5109219459960155 15.4128432970973570   T   T   T
 24.6594376116897678  8.9288478705168188 24.3220789418362102   T   T   T
  4.3650388904672646  5.7605318163038657 11.8817251366920491   T   T   T
 10.5325137678037244  8.4171882692799009 28.1366915644966191   T   T   T
 -1.8336444838945705  4.9389426193895245 30.9501639589926079   T   T   T
  5.6319046538788076  6.1554938731990676 32.0995612562033017   T   T   T
 17.6292821049895920 16.8367700493590249 29.0935709599948602   T   T   T
 11.4580195783999006  7.5815883394038046 23.7941212932178772   T   T   T
 11.4885292249041839 13.3179920295555192 24.0484236526135611   T   T   T
  4.3308342756409726  4.6330383020452945 28.5773483022915968   T   T   T
 25.6699201264766756 10.4808931119246402 31.9194395456643676   T   T   T
  1.1422313710839682  0.3403938151833589  0.7376514465024515   T   T   T
 12.3579776107277421  5.5881759237068485  0.1733385601062603   T   T   T
 15.5927167003428195  0.2580628659750848  6.7376925821129170   T   T   T
  2.9566419452789896  7.0189141258590277  6.0274604694729748   T   T   T
  7.1910718930181119 -0.1292063238857259 12.5689479934576944   T   T   T
 19.6095821252481102  7.2031483042004449 11.5318626439983571   T   T   T
 22.1208611533744062 10.6474017402508530  5.8093511763602548   T   T   T
  9.2916226981344003  3.8799677301341702  6.5711417026125893   T   T   T
 13.9440812532693723 10.7489859917986905 11.9786772550521228   T   T   T
  0.5986903845514939  3.8632747162821865 11.1127575419875360   T   T   T
  8.0856649714815632 14.0591258789816429  1.1026358198609167   T   T   T
 14.8361465697505857  4.7396285732138379  0.2745891776287113   T   T   T
  2.5487269969425976 -0.3008068007849294  5.5342306311711296   T   T   T
 15.8462410888390135  7.4583862448056957  5.9719169108660646   T   T   T
 20.1329572372163668  0.0640234893958667 12.0017777018932463   T   T   T
  7.2376429191069755  7.4976742735346997 12.2358995064308278   T   T   T
 13.7850649151118159  0.2827854008434597 -0.6876776033026050   T   T   T
 -1.3947634584475777  6.2338868525552273  0.4567405172943654   T   T   T
 21.6992764184592630  3.2889500063799160  5.7756879264494785   T   T   T
  9.5752288713878038 10.7835879414075997  5.9966899415544725   T   T   T
 13.5070068095987086  3.6468271231347451 12.2506577929486244   T   T   T
  0.7994789258269520 10.8446381380315131 11.6849081289217622   T   T   T
  2.7697963449298810  1.8719672884834198  0.2487699226525281   T   T   T
 20.6972909887358654 11.7429675991930011 -0.6020458225390831   T   T   T
  7.2291693276745361  8.7777587513237556 17.3888013286904766   T   T   T
 23.1317308138201980 -0.3205376942166300 18.6953967373217651   T   T   T
 25.3909493360929304  6.8110366910705666 31.7111466297533759   T   T   T
 13.1232906783653576 14.0904924405023735 30.9538296924251739   T   T   T
 17.3212944002736791  7.8458247222882687 25.4247561933262851   T   T   T
  4.7411133868376423 14.1187602420264184 25.6164388378723267   T   T   T
  6.7515936357891837 10.5218377770675175 31.5343629312902713   T   T   T
 19.5742875439626189  3.6607560963653643 31.1595090324463477   T   T   T
 23.8022184332397515 11.4199804581753668 26.0503688256582215   T   T   T
 11.0545311865812579  2.9602319995758899 24.7704960290598848   T   T   T
 16.4794222231846419 11.0889018567173103 19.4505623841960755   T   T   T
  0.5680229072606024  4.6378065209599573 18.0434064791248296   T   T   T
 13.5357552641656174  7.0254525965481358 30.8633044326081105   T   T   T
 26.2320844813633727 14.4511976752309970 31.7777378038735243   T   T   T
  5.1647095313208586  7.0135143977627923 25.6209773419681817   T   T   T
 17.7257005969993173  0.3518128376408224 25.8123733602124332   T   T   T
 17.7360359079932692  9.6534695775888082 18.4695451905506935   T   T   T
 10.9142355707704031  1.8275232601199429 18.4618776524535200   T   T   T
  7.2295545862265183  3.6752834149379758 31.1391445787456291   T   T   T
 19.8660441722970660 10.9897063283651306 31.7321846669851446   T   T   T
 23.7234184576717198  4.2366556687058727 25.3208395033398297   T   T   T
 11.3023293445470827 10.3960912052279717 25.5976837125242298   T   T   T
 15.2724561336353091  4.3795080669265127 19.4631431964296659   T   T   T
  3.6487806142549073 15.0201320356975678 18.2327863625744619   T   T   T
  3.5628465399421869 -0.5067423751911118  7.4377456891388185   T   T   T
 16.3377237623612501  7.7232304510025669  7.9761623614747963   T   T   T
 19.9113194500847897 -0.1188675910912899 13.9325819646061770   T   T   T
  7.3096438811735895  7.2940663504929821 14.3117492106891238   T   T   T
 13.2250284077179696  1.1454936183026452  1.1149464239693165   T   T   T
 -1.9740571644241010  7.4000703426924019  2.1484897428126546   T   T   T
 21.0544517008440835  1.7094907972150224 11.4747505761175770   T   T   T
  8.2848284237075784  9.1295891005023897 11.2968463521961073   T   T   T
 16.1470146140083273  0.9171348506337467 19.7346045278204762   T   T   T
 -1.4347841406492345  7.1861604409245645 14.5091998084702354   T   T   T
  3.1398263177675081  1.6628975590837212  4.7882216504983548   T   T   T
 16.5138655322879444  8.9291655476090028  4.8161262662056448   T   T   T
 20.7610064973246793  5.6364058817835723 10.6009862567648216   T   T   T
  8.3571997670226494 12.9121280063610904 11.6401510474081036   T   T   T
 15.3943646285206572  4.1630934703867117 17.5390211837731762   T   T   T
 -4.9560333582628751 16.2228588898465063 17.4067741946959949   T   T   T
  3.5675484858075741  5.3248806152123551  5.2053208446806867   T   T   T
 16.4969215393461255 13.4412247096310722  5.7219981862999614   T   T   T
  5.2582050818971897 -0.1088547760635959 11.8780726674553971   T   T   T
 17.6805832288703471  6.9009447062356877 11.2472304199699877   T   T   T
 21.6527359761844167  0.2326405711682015 17.0848385991836658   T   T   T
 16.0291411880589507 12.4011676458767752 17.9776650256816524   T   T   T
 13.4693859582112569  0.2787660826610656  6.3063178385255636   T   T   T
  0.8984690492569475  7.2411824121275599  5.8544945947625706   T   T   T
  0.9109727216200817  3.1998453802487017  7.4610450430209534   T   T   T
 13.6538767495482265 11.4631797864076077  7.5514569433177750   T   T   T
 18.1699063949412647  3.5321184777345009 14.0500821147311878   T   T   T
  5.1303203322846240 11.1390789476333723 14.2858416742747245   T   T   T
  9.9368394915592102  3.0763501942343661  2.0844687229921051   T   T   T
 22.1123682756124680 11.8813682098874871  1.0742019079303491   T   T   T
 21.8041576349169688  2.9584074542169838  7.8803898261007683   T   T   T
  9.7111920575150048 10.2314046170538937  8.0939842351171389   T   T   T
 13.3542934277465530  3.7599173546216789 14.4256718689335717   T   T   T
  0.6859441358320015 10.9918201124434241 13.7527167421885359   T   T   T
  5.9267977611566129  3.6958473008336035  2.2026779507532521   T   T   T
 19.0272938185376574 12.7209245187959112  0.4636844613761666   T   T   T
  1.5257776283750071 12.6447730828555507 10.9925773003934868   T   T   T
 14.5882315149999080  5.3356347545954206 11.4556011121280079   T   T   T
 20.0796789542447769  9.5729860255601906 15.7279035135211664   T   T   T
  6.3740939758695330  5.2535582097283919 19.4555861686920828   T   T   T
 10.1393435143518502 12.7342120904318179  5.7442823942262962   T   T   T
 22.4961038674951794  4.9245853942876243  4.9835421652976954   T   T   T
  1.2521678088381971  1.9669488106100426 10.8084386272072148   T   T   T
 14.3734765896211201  9.0054598772425720 10.9532981757384551   T   T   T
 20.2827938722515171 -0.6311812854566994 20.8733903231427860   T   T   T
  4.9445347748554074  2.8136278797461944 14.0295248878542029   T   T   T
 10.1924540638817618  2.3388864087525714  5.6262565138836100   T   T   T
 22.9878940311128943  8.8809518111440653  5.0502066909225451   T   T   T
 -1.1835216375746358  4.1199353295686372 10.1946697770210282   T   T   T
 11.9083264264789062 10.8305638447598120 11.8083972901030929   T   T   T
 21.9472540475113789 -1.5708776054068310 20.0640419913623163   T   T   T
 -0.8981486524013640  3.3343894531926965 17.1333021946643207   T   T   T
  7.4289118470150610  4.0225307722445844  6.0045887322528770   T   T   T
 20.2910672134551078 10.9351556368246712  4.7900078321859976   T   T   T
 -1.3994032469903348  0.1388372579199887 13.3748781045337157   T   T   T
 11.6050142905684446  7.4551372025838489 13.4460843801370125   T   T   T
 15.2860168460657135 -0.9820858389813689  0.0735954784294441   T   T   T
  4.4782646338544803  7.4013820364390899  0.8822570706421149   T   T   T
  7.5672567880320889  0.1921297130920028  7.8384933131845500   T   T   T
 19.8846621882809842  7.4720932514746270  7.3365257955480461   T   T   T
 24.6083708333532911  1.7090243369559179  0.7691038034777843   T   T   T
 12.5569545799611273  6.8188068397693185  1.9593161537441919   T   T   T
 15.6758032862510905 -0.0186657075943529  8.7906845144118488   T   T   T
  3.2988909234801156  7.0268727091504912  8.1182948893667977   T   T   T
  7.3265702175086256 -0.1713729214949809 14.5322135349690225   T   T   T
 20.1897270123073298  7.1105706671754518 13.3385862846433749   T   T   T
 20.2285305389265062  8.9836546116621250 10.6900344937692324   T   T   T
  8.3588498984487885  1.5434405116864724 11.8914343806970191   T   T   T
 10.4121677726004513 18.3506307869582344 17.8549306499545786   T   T   T
  8.2176270215330458  2.3223066085000683 20.5966567407998262   T   T   T
  3.9789735347617792  8.6096381130857651  4.9456269685865903   T   T   T
 16.7203669828397352  2.0220945474948082  6.7574684103121987   T   T   T