Li P  S  Cl
 1.0000000000000000
    25.1819793006824639    0.0000000000000000    0.0000000000000015
    -0.0000000000000009   14.5388225279766061    0.0000000000000009
     0.0000000000000000    0.0000000000000000   37.2126966544236950
 Li  P   S   Cl 
 287  48 240  48
Selective dynamics
Cartesian
  0.3010034805972622  4.1458747098250450  5.4298570274933988   T   T   T
 13.2381163822052930 11.7209067761281815  6.3221111482949439   T   T   T
 13.5468634804989314 -0.7262583648563351 12.5787286233274980   T   T   T
  2.8236621883019182 11.7251976570208463 14.3082871571537140   T   T   T
 15.0455750704903934 -1.0745987011456832 -2.7724596753050608   T   T   T
 23.4309169320559079  6.1132711996650038 -2.6777290075864895   T   T   T
 -0.7145592262368887  2.4894652842452900  8.4529876840365965   T   T   T
 14.8979973593322406  9.1097396957321131  5.6225440740111674   T   T   T
 21.2788199830936158 10.6939572691462068 17.7683485097876179   T   T   T
  3.8395696419495233  8.6353488163771885 12.3513616014801126   T   T   T
  7.9756881867877638  8.8916693421739197  9.0768126313953843   T   T   T
 22.4668982130046366 18.2551376860769388 -0.9652197239208743   T   T   T
  3.6308870784010860  3.6661436289356737  6.7982898708784498   T   T   T
 16.3142306301640225 11.0980504284729768  7.4662913030487372   T   T   T
 22.2168222217576457  6.1288203370277001 26.3070763107886343   T   T   T
  6.8646741994415708 10.6266307318340729 11.6282215914670033   T   T   T
  8.9249599684670837 15.0533368392255582  5.5675977053068717   T   T   T
 19.0444224019420751 16.1302838289624972  5.1328941286048453   T   T   T
  0.8256524164908922  1.6189356722319570  5.5901474101897906   T   T   T
  8.9237959171335763  6.1661485767080126  9.5287356694523169   T   T   T
 22.1784554769679367  0.4307456106844604 13.2286356524821151   T   T   T
  4.9461709934929674  8.8293028658821697 14.9095291871369486   T   T   T
 13.5485416409035189  6.7681447101969701  2.9472028443981730   T   T   T
 26.8245530711769433 12.7117689498688691 -2.4369721567485083   T   T   T
 -1.6588462224457143  5.3370732601762061 11.8233469352419043   T   T   T
 10.6004268068054035  8.9161688630768801  3.5412414929280529   T   T   T
 19.6507078425460548  1.5658025875215156 14.2259409807720463   T   T   T
  5.1625529628676841  8.7739908526636725 19.4629715722346006   T   T   T
 10.5766330102941311  5.8767337815156431  3.3944176080256150   T   T   T
 27.3898986085718406 10.9377563774570739  5.0848213620214535   T   T   T
  1.3932039903819520  4.9995336398095089  8.2778084312612634   T   T   T
 15.1997391403019115  8.8679681471427863  9.3581428240681461   T   T   T
 18.4025951027644972  1.3343871397701910 21.8053267527903643   T   T   T
  2.6502857280159278 15.0195079993654126 18.7563378728650605   T   T   T
  5.1603252642269597  7.3812619024328754  3.1101949635459372   T   T   T
 25.0501576616819577 15.7451250924151473 -3.2789682915840817   T   T   T
 20.1991739284453686 11.4564472253632985 14.0523061083142906   T   T   T
 10.7502018905871957  8.0944788641325331 11.5009283316717426   T   T   T
 15.5536647250941389  8.4104784829508716 -3.3523455214823801   T   T   T
 -1.0630421192564541  4.2320796838175987  1.7243539197296041   T   T   T
 11.5527599039797764 16.2807376832576658  8.1572305004747712   T   T   T
 18.8555689254284857 10.4742731272181580 11.3471243524775112   T   T   T
 23.7604674741203929  1.7390743750835789 14.9607824353211445   T   T   T
 16.8245786833001816  8.9011396043488489 13.8371989734954024   T   T   T
 14.7406987843829764  0.6001808619100930  3.4209794082319585   T   T   T
 -4.7559580289124490 18.6852030680769055 12.3990568050871168   T   T   T
  7.7641352022910075 -2.1128142677419626  8.9749171023547749   T   T   T
 18.5270490943525132  6.4415054958302296 16.2475823167069109   T   T   T
  3.3697505047659488  4.9707338532731811 12.4047077629064120   T   T   T
 11.3011656844444595 12.8999132995963386 11.5620372202680759   T   T   T
 18.8475966739855529  2.6272367825709355 -3.1999279778348337   T   T   T
  4.3489133906504049  4.9236048301709943  2.9061739680687753   T   T   T
  6.6017695072819338  1.3963313315707617  6.3612616890267510   T   T   T
 15.6058178102386229  6.6926197480811931 17.4383912698029704   T   T   T
 -0.8837193025036466 -1.2667827598243049 15.4182728149247623   T   T   T
 13.7244052709324862  7.9291774489225038 15.4506739667602595   T   T   T
 11.8566149026593752  0.1948338576341327 -3.3319345407233070   T   T   T
  4.6953125535010045  4.1496179163282765  0.4370394563845896   T   T   T
  8.0748771898410130  1.6227472105883967  8.8095919529589750   T   T   T
 21.8632716907132156  8.3857779468062148  7.0487196132548098   T   T   T
  0.5603034024732555 13.1280908237999583 20.6748602895158378   T   T   T
  9.1374401336466420  8.5251881898002395 13.7453234857240894   T   T   T
 20.3687518129790135 16.2736572313062844  8.4744222937357563   T   T   T
  1.9878495049247435  5.5149344121893424  0.1475670087082797   T   T   T
  8.9971306002806255 12.3016292019602567 13.6653465988908511   T   T   T
 19.4022242726828473  9.4011435573238309  8.1561288211650673   T   T   T
 18.3406805656302936 -3.5093414032241763 16.1013213882302146   T   T   T
 12.7135371913099391  6.2113001537912718 19.9762742109911073   T   T   T
 24.0158455400850173  0.5769914558916039  0.1726686793896190   T   T   T
  6.2007977450479359 11.8987142276976314  6.8107209006083318   T   T   T
  5.6399332630652550  0.7883850117812453  2.2887540071062702   T   T   T
 19.6124084265652066  5.5869861185184595  8.6032323801045312   T   T   T
  0.5592474301236708 12.1972355626044511  8.5442559653926260   T   T   T
 12.2573267986660444  3.9406852154571079  9.4750772396887140   T   T   T
 15.1789790765930537 15.9513650418106359 14.0714174114511543   T   T   T
  5.7364632835472209  1.3533110969065576 14.3238470809996823   T   T   T
  7.3993231105606130  9.3955430269267985  2.3707252865877591   T   T   T
 17.8585358762216586  6.2225582229986136  6.0111577296803063   T   T   T
 -1.2180846744635896  9.6328656456652340  8.6635696015489110   T   T   T
 14.9957124332076965  1.7425481285668223  9.2489281696211183   T   T   T
 29.8134812328438450  9.6914019180146838 22.9623621998949616   T   T   T
  1.3762293040708982  1.1338058528004336 14.4833269045948274   T   T   T
  8.2430589638044527 20.6851949071648100  0.2676014482694376   T   T   T
 22.5236417621281895  5.4974585480623741  7.3577525977585845   T   T   T
  2.0969024496112434 15.5107205165844242  8.4655460382224419   T   T   T
 13.8624437527913251  1.7637465593272836  6.1015599432863628   T   T   T
 15.6248457163233390 11.4366276455252383 13.7636452401537994   T   T   T
  5.3838598338590096  4.6838472077099294 14.9121974645382167   T   T   T
 11.7472220752137808  8.9113459664077439  8.2319400466131523   T   T   T
 24.1923989022922221  1.4410661493131880  2.5500943379782202   T   T   T
  4.1433994574562041 11.0234247688410569 10.5896681226199512   T   T   T
 13.3600633479990218  5.0393246501998847  6.5900308509096019   T   T   T
 19.8880190218185469  8.8993601766895090 14.3522958899907760   T   T   T
  6.9844297845217556  3.3262086741022059 12.3704660462266176   T   T   T
  7.5238052438936949 10.9481161767783099  0.3592547297232302   T   T   T
 27.0397897080118632  7.2325538177420006  2.6633783688320478   T   T   T
  5.2178083381207552 12.9093802816806260 14.0253082673999003   T   T   T
 17.4078941538204504  5.0192551181914888 10.6829825350010541   T   T   T
 19.6751201392282091 13.8710772968092542 11.5474575816314964   T   T   T
  3.2014595154643986  1.8661625958875443 12.6052929692446796   T   T   T
  7.0162719986529831  5.1177053716663625  6.4704967423587503   T   T   T
 21.0672178934217307  3.1978784816659540  1.7120454971338406   T   T   T
 -1.2464629441322514 12.0606971770765696 13.1425155308372297   T   T   T
 15.5766438769858233  4.4694068151769306  9.0985596332028429   T   T   T
 10.9436136124853647  7.5507974012440755 16.1511428320743171   T   T   T
  5.6268135759554934  0.0897406157850613  8.8824460443588116   T   T   T
  6.4324698203923862 13.5506534659155697 -3.1708598115768791   T   T   T
 18.0520984141978573 12.4484821708970905  1.0387278430136484   T   T   T
 24.0348720123885187 10.7200146656640491  2.5189868801410462   T   T   T
  9.7414650868722763  6.8881086550217061  7.3591715825410597   T   T   T
 11.2676905916062786  4.6750840996361660 13.6879683790456177   T   T   T
 25.2586359550857580  4.9843112913869962 15.4528449280437101   T   T   T
  6.9583081797510431 20.6180109367520679 -3.5421560963396916   T   T   T
 12.1896609272948044  5.8669351473611702 -3.3798976691205311   T   T   T
 20.6334828498507825 -1.9115658087532827  7.9827665432932164   T   T   T
  2.2022478792378424  8.7730860258202448  7.7101338930482957   T   T   T
  8.3864445966320904  4.0167508579410161 19.8651088151542936   T   T   T
 23.1243444799203459  9.4898552037459929 12.1860493010600806   T   T   T
 -3.1805872670161617 -0.3453587242782336  3.2607037539171921   T   T   T
 16.9366861361235905 10.4037821156366164 -0.8136834547151272   T   T   T
 20.8338928280760101  3.7427439694686893 16.5135847877898279   T   T   T
 10.9324177062103249  1.0547452537382034 11.9808811179300960   T   T   T
 -0.4571266483757704  9.3526371582716301 15.0931191959225028   T   T   T
  3.7740844946200083 -2.6051001684694617  2.4122828197595352   T   T   T
 18.9307405704428504  5.9855271105473387 -2.6973245427685071   T   T   T
 23.0145495314105624  0.1577336866123345  6.5227148321553026   T   T   T
  5.9655645244248419  8.4064553342443382  6.3901484035558926   T   T   T
 13.9408645703397411 -2.8484063278273513  9.4365366754883624   T   T   T
 -2.8774092651758023  7.6389629988312242 14.2327253907632834   T   T   T
 -0.4712813798296627 -3.0798718928088098  5.4622354054235354   T   T   T
 18.3146260185169609  7.8762061063439042  2.0831922596637504   T   T   T
 17.7126294420821608 14.8322839555690038  8.5613268985496145   T   T   T
 10.2960279769909526 15.1957589189425235 15.3734963927312176   T   T   T
 11.5988646220733234 11.8061298131851018 14.7880927370254334   T   T   T
  2.7419361226885561 11.2468451796142794 18.7336763972184563   T   T   T
 10.0255856818457652 13.1079409412511012  7.7328617576239047   T   T   T
 13.6630602827159535 10.2394949909883053 -1.7255279946117714   T   T   T
 19.3403774578521315 -1.5735769274473113  5.4364784416042742   T   T   T
  6.0160111258008389  5.4837512361173602  9.4177807030750937   T   T   T
  8.5267736567315033  5.0243378970531989 15.5606840205478534   T   T   T
 26.3605510951401456  7.3261438025271204 12.7941623408378717   T   T   T
  0.1442476485308660  3.1555171457009168 -0.6909166031182820   T   T   T
 11.2037733794152921 12.0082782415460017  1.1937767218510871   T   T   T
  6.7993887007624814  7.0016057549104955 28.3248029925102074   T   T   T
 26.2432555899591371 10.3697236385782148 30.6627488894209463   T   T   T
  2.0336660156715354  2.6415496150740925 26.0857456917231154   T   T   T
 17.3419313564622151 10.9752513254482409 23.6831637398137573   T   T   T
 22.3150875357978933  3.5077003295547526 31.4375642951662897   T   T   T
  1.1542737958892662 13.6549833292689762 37.7834822738159346   T   T   T
 12.9340579615761850  3.7082638289236818 31.5147791587293966   T   T   T
 25.2374638252092929 11.9951043842728211 28.3746323936776292   T   T   T
  3.1467200076474535  6.5895735461590688 22.2269973863143839   T   T   T
 23.7735188727097189  7.5342583834221433 21.6930298692141079   T   T   T
 11.6915970091845569 -1.8006448662825862 36.0799308225331998   T   T   T
  8.7446619047218537 12.8634712712634709 40.3267357450692572   T   T   T
 11.8359212735118771  5.6173371724174999 28.3397368083472330   T   T   T
 19.1820796054544722 14.9981970745524897 28.6995166904362193   T   T   T
 -1.8004738646431413  1.5041853083104160 19.1195076407877060   T   T   T
 13.6264208001599165  6.2424167004855198 12.9367267488828208   T   T   T
 15.0197158477438073 -0.9684577770489710 28.6501663901739150   T   T   T
  0.7019425146190333  4.3808138787047586 29.2911413555190165   T   T   T
 10.1670596795768962  5.4366588672814373 30.7732412696393318   T   T   T
 27.3343873984625461  9.0465252970240897 24.4714418117981936   T   T   T
  5.1247333530355803  5.0152639842551876 23.8760674196704628   T   T   T
 17.8996319468047176 12.3473587449555140 29.5881547810700596   T   T   T
 26.3530813718578294 -1.4177007200536786 40.2467927960314995   T   T   T
  5.6200912092441246  8.6285113006495919 31.6395724401086724   T   T   T
  9.7536119776783430  2.5067715932565555 28.9012099779857401   T   T   T
 22.7695818452023069  9.6140146355052210 28.1933448845940084   T   T   T
  1.2591285017343969  6.5722456625716292 18.4915483588046250   T   T   T
 18.3462019899493534 14.5027884785477319 17.9081973060340331   T   T   T
 22.3779361853339083  7.8015885176014699 38.8364354971215562   T   T   T
  2.9975100428299939 16.3552509727613966 40.3618438721147612   T   T   T
 10.3425152397231201  2.9596284459104067 32.5125471877776562   T   T   T
 23.5824772539419101 11.9404282995685094 31.8002975963895338   T   T   T
  4.6729231458303406 -2.1045135169597557 22.4017095426256709   T   T   T
 18.9867856842555405 10.7865527060598119 19.4050343195673776   T   T   T
 28.1687998866842868  8.9246663376070714 38.3012558535695717   T   T   T
  5.2262710527652043  2.8276212012397655 34.8463963192232029   T   T   T
 11.5412534073359261  6.7645861913899958 24.0440121609122315   T   T   T
 22.2204252938510507 -1.2167994678688396 26.1900193259840535   T   T   T
 31.4586565014593624  9.5996898048674204 34.3331648117358128   T   T   T
 16.1952617118536146  0.9601068356371469 36.6257648827006363   T   T   T
 18.0384983855598655  5.3283690029753314 28.2637475199844346   T   T   T
  3.5137662646965317 -1.9938499927772331 30.6715923249416349   T   T   T
  7.3899485241426239  6.9449174992936884 22.3940242362823092   T   T   T
 20.8045065758718977 15.7406006442971744 25.8629584326338495   T   T   T
 20.8110023268148971  5.8017360794117154 41.8140742865167567   T   T   T
  7.4957864322239605  3.4061007275576385 38.0328838053633120   T   T   T
 14.1830887217189474  5.1787801981794219 24.5099139986489689   T   T   T
  2.6532662465326138 15.5998228551349989 29.6833260262592873   T   T   T
 14.9976998526989700  3.9696577997281159 21.5351762048067350   T   T   T
 19.9624186660438205 12.4830200990027365 24.7209901845846183   T   T   T
 11.8217207853626647  7.7296157389334308 36.3252817848273395   T   T   T
 18.4041615616197944  9.4421351727065002 33.5105187073799584   T   T   T
 18.3524964555354870  7.9313084776329186 27.1989368860629526   T   T   T
  7.1779772801663970 14.5628664839946076 30.4309636107096679   T   T   T
  9.9454568176550406  8.1391242101864911 21.4306045268382945   T   T   T
 22.0808973244066529 12.4168570059743679 22.3685091065309436   T   T   T
  2.3462753001629495  9.4403705685544388 34.6435979583478968   T   T   T
 11.0790778896033046  5.4391623798753601 37.5997180938471871   T   T   T
 17.0518115408257600  6.5826393202118263 31.0872657626639040   T   T   T
  4.8950140670280788 18.4730599711766779 30.0998239186254217   T   T   T
  9.5071974237907355  6.1679218206670505 25.9031763862754616   T   T   T
 27.9967059807671887  3.0872621813361176 19.9817863013214243   T   T   T
  5.1845178592490404  6.2033884852445871 36.4425424514197829   T   T   T
 16.7144008186331909  4.5614017088286118 38.3379548051642303   T   T   T
 15.7330491592641923  8.1560232821333116 28.7398471470665768   T   T   T
  6.0468114799620176  0.5937972030828910 28.0426792382779873   T   T   T
 12.8854069972733765  9.7987747756157546 27.8029933270300766   T   T   T
 24.1750682883357015 15.1360743156422615 24.2222431134262131   T   T   T
 19.4291767557075872  8.2014848804628251 42.1081552929719862   T   T   T
 12.4088276703053371 15.9286053476193814 37.6058494849123832   T   T   T
 18.1273240895038477  9.4789916024200167 30.5262623820609491   T   T   T
  4.1366202397687255 15.6161908090281223 32.3522466527380743   T   T   T
  9.1031197712684584 10.5941240332134470 28.3467505957871886   T   T   T
 21.7342287594919021  3.1095623929321934 28.6002131142680973   T   T   T
 -0.3618789143738843 14.8432742924559271 11.6019710802402560   T   T   T
 17.7224386926015605 -1.4032514103200184 13.4856064751494245   T   T   T
 17.8921550088385182 11.9564509166782109 34.4827022013520263   T   T   T
  9.9336960660791078  8.9011448602353802 38.0645887985798197   T   T   T
 10.3075900522177069  8.5705185714131140 30.1730006372166208   T   T   T
 16.7931326947265056  1.2377252800731617 27.6811077761639091   T   T   T
 -0.0188563358533766  5.2581039913538987 23.2849476433371372   T   T   T
 17.7204975366188826  4.1685537198013556 22.8592064893800533   T   T   T
 23.4144795546821740  5.8787687932164507 29.9619452107894020   T   T   T
 -0.0588472770359534 -6.2126914765753156 43.7331887438804188   T   T   T
 11.0769510750481892 12.8772689418346999 28.6337620286955747   T   T   T
 21.6754154159121164  1.7589675355470424 22.9148681002867534   T   T   T
 -4.1424859905989218 13.2923223878303993 15.8991524991051101   T   T   T
 15.6238529929607441  0.8105954254369595 23.7246517493192925   T   T   T
 23.0731285334127030  9.2107683687364563 35.5244504117770532   T   T   T
  8.5602083543088341  4.3826450826635188 35.0101839283423715   T   T   T
 10.4518426363609844 12.3723630753025873 31.4483219095542239   T   T   T
 31.7054536261612299  1.5818267282611287 21.6248637985819094   T   T   T
  4.9091460251853487 12.8154389649467646 28.2855392266023138   T   T   T
 19.7383530120024098  3.9478825170421556 19.6085783108380056   T   T   T
 21.0464489454951220 11.2260396570109293 34.1144759989653892   T   T   T
  7.8084155707507570  4.3233640300087783 40.5286889322424173   T   T   T
 13.2246996089866382 11.8823542282219172 21.9438337964323225   T   T   T
 28.6569422425565250  1.0555176119252150 23.0206373823093280   T   T   T
  8.4303444495087181 16.5862912874264516 24.5292330730309196   T   T   T
 15.1169088246074139  2.5191454139197220 25.9143323073288485   T   T   T
 23.2880131895016298  9.0851336846529804 30.8596050206932055   T   T   T
 12.9832803694440440  2.3375460638721295 28.5150308581095793   T   T   T
 12.2809997774878479  9.9626052137724628 32.1299249804738309   T   T   T
 23.9282288748760159  1.3425779012309720 28.6829904953055070   T   T   T
  1.4904809174670375 12.7858601692155354 24.9250160302734685   T   T   T
 13.3422259407535773  2.3785618813150937 23.3161222745118941   T   T   T
 15.7112421562827880 12.0519245638377086 40.0445201625230709   T   T   T
 10.7299254555058106  2.8274724899304404 40.5422957518205038   T   T   T
  4.2004151612257106  8.9862524457836734 28.7565995895742326   T   T   T
 14.6111959565889791  8.0082076832191262 22.7210746547956077   T   T   T
 20.9135598491411443  6.9689342927205598 21.4616477194691520   T   T   T
 11.6650327382841628 -0.2028109659109528 25.6649932785443795   T   T   T
  8.8078277496484478 11.1350263280922697 33.7927973954830208   T   T   T
 16.0281886793734358 -0.0517644216823672 31.8402418713116440   T   T   T
  1.6630833353021302 10.3310533236924442 21.8864710621307132   T   T   T
 20.0789259626386567  7.2091579696402563 30.3206100477035854   T   T   T
 13.8878970290970170  9.8530902373566462 19.0825130997218402   T   T   T
  8.5543180913746308 14.0500561790762184 25.9961597821978714   T   T   T
 14.4651401585238375 -1.4122819003601008 37.6553646894574285   T   T   T
 26.5007020383711094  4.5066224650340851 34.3151062382001300   T   T   T
  4.0006869598929313  5.2978388001697851 27.5324375986962622   T   T   T
 16.7520908183242447 17.4594768904544040 29.7847405421934575   T   T   T
 21.4513472502563900  4.9537578778046312 23.7968783700536939   T   T   T
  7.9946324674615887 12.9678569198385709 23.8325180391096794   T   T   T
 14.2154370955724119  2.4237426813819658 34.8464205882271045   T   T   T
 -1.0318057205296791 12.3431756261743431 36.4545568511831704   T   T   T
  4.6399625031561200 10.8179530960369696 25.5166909461181071   T   T   T
 19.2212326219655694  0.3063074410930244 31.7173506273861996   T   T   T
 18.0282491786393280  8.6655245281880440 21.2270605930193881   T   T   T
 14.4960789218759114 14.9875356257036643 20.2595618640665549   T   T   T
 13.4913281305204311  9.3537020348144502 38.6065610864079503   T   T   T
  4.4871739843071365 -0.7462509501316110 36.6884806689577943   T   T   T
  9.3611626166878548  5.1474210643509348 22.9935624164112475   T   T   T
 25.5013990821828287  3.1916869385660318 21.5788660216276149   T   T   T
 20.8010892479089620  8.9447660300913050 24.3038659724531421   T   T   T
  8.5434482473399243  9.4588534924312420 24.1508228633031905   T   T   T
 13.5592870623878259 11.3381696196547495 29.9275110606574444   T   T   T
  2.3956085038717605  1.4922636888751257 36.8305209860690468   T   T   T
  3.6883147510132290  6.5835061851316139 31.8805868295669370   T   T   T
 14.6910572934544632  9.9180816608395901 25.2797989766566040   T   T   T
 24.2056376391669126  8.2906333632476965 24.6008365490418051   T   T   T
 10.5810615104697110 15.4524971010794872 22.0125049772890833   T   T   T
 22.9785340152213671 13.1147737199186381 29.7147672765309316   T   T   T
 17.9037499367336572 15.3328123713224223 39.4022425403802288   T   T   T
  0.8408959200633570 -6.1848319245379741  0.0098846710930129   T   T   T
 10.1670728677615365 10.0195965844147352 -1.4138133462631928   T   T   T
 15.9831265043645576 -0.5888572978385626  6.0572509917398980   T   T   T
  3.4692099345247800  6.8453094115120603  5.9983197069388261   T   T   T
  7.5014233279240372 -0.1237904363564533 12.0163938729759625   T   T   T
 20.0715576328487728  7.1007014053537398 11.7813760242477930   T   T   T
 21.6577270826054047 10.6092161326169823  5.5783895925510505   T   T   T
  9.9428118990216277  3.3483707483550535  6.2372629717043635   T   T   T
 13.3904672930374513  9.9713211484229092 12.3234429015026858   T   T   T
  0.6922779147102359  3.3400625727378217 11.5396307982692630   T   T   T
  4.9466980367272173 10.5743124234489514 -0.9789575710807266   T   T   T
 18.6639447093158743  3.1173465885885068 -0.8500450381950149   T   T   T
  3.4488493436257865 -0.6294841026758763  5.6290924877302935   T   T   T
 15.9420008568620606  6.5363912118213694  4.0883384289679237   T   T   T
 18.6726452830341501  1.9853346014595443 11.3942548945278794   T   T   T
  7.1892404664544909  7.0175642951700832 11.8166816832610451   T   T   T
 13.3716701549785917  3.8450348009506281  2.2742453438474262   T   T   T
 -0.3745385501388802  6.4186038892421324  0.2980157482509823   T   T   T
 22.2704869584540113  3.3802799248784288  5.5752790503622975   T   T   T
  9.4567122088925970 10.7053609302007295  6.0877389811813138   T   T   T
 13.6032061323517492  3.5531970310538274 12.1929527047123880   T   T   T
  0.9599139610047241 10.4252334934085411 11.6772056017615640   T   T   T
  8.9752260008795446  8.5170912902458014 -2.2194748453370181   T   T   T
 19.8783233598192908  9.9889172292672939 -0.0876354148108500   T   T   T
  7.4187184629611753  7.3649228649622653 18.4844896954869746   T   T   T
 22.7451599962565787 -1.6706972543469103 18.7247243030932076   T   T   T
 25.6856997753432985  7.3439160103665895 31.5517574992019441   T   T   T
 13.1204154387712340 14.6423557961024180 31.0469261738241755   T   T   T
 17.7208498804503058  7.2252855251948223 24.4941508157110022   T   T   T
  5.4012989051809264 14.6940845918604488 25.3153703081341455   T   T   T
  6.9212129993095948 11.1805929674443405 31.3614988328332771   T   T   T
 19.4026177623781351  3.7571033199627708 31.2308211694887099   T   T   T
 23.8317820026495077 11.1795960647879973 25.4932339266771457   T   T   T
 11.2291204757576715  3.5205777852414957 25.5317134391939646   T   T   T
 15.7847344458086738 10.8760774325790592 21.2672712947394409   T   T   T
  0.8687890563455606  2.7860147946096352 17.7494591536500153   T   T   T
 13.8615814372461070  7.4008978825895770 31.0404821416059988   T   T   T
 25.7296478189623024 14.4048650101748628 31.5199594173009849   T   T   T
  5.0739602168354745  7.5290521012839182 25.6897600359244080   T   T   T
 17.4296136244166853 -0.3488101111667467 25.3358619995691150   T   T   T
 20.5365504423964929  7.7328530517849634 17.8199205313001521   T   T   T
  8.9076142849282078  0.9960051535469722 18.3822361067974995   T   T   T
  7.2301740540732844  2.9198324795309283 31.9172987455989592   T   T   T
 19.9869269241394001 10.8232274801269064 31.2129559733929653   T   T   T
 23.8146450400947636  3.5935174890679695 25.5874638832381187   T   T   T
 11.1811363316927181 10.6045656666092860 24.9374589124996682   T   T   T
 16.2750971642222417  2.5906004193400705 19.3090605419570274   T   T   T
  5.2550707995718513 13.6448625099094976 19.9370607686370711   T   T   T
  3.3402938796867989 -0.8488357730399231  7.6790433824184028   T   T   T
 14.0675547957877871  6.8766835777573672  5.2572204850966724   T   T   T
 18.3158667848869463  3.1501678320593163 13.0675965045958300   T   T   T
  7.1501552122249699  6.8713849144751808 13.8150832041289444   T   T   T
 12.9070460766468891  1.9582731815259147  3.1338165822505553   T   T   T
 -0.9002726742096395  6.4275263597485024  2.3541295258392001   T   T   T
 20.6883632592256319  1.5838119372514929 11.1310959542351604   T   T   T
  8.4444772967553572  8.5670588351444259 11.3142441758405479   T   T   T
 14.2064100328839888  2.6339952887938334 19.5745831500934813   T   T   T
  0.4909652991613157  8.4949155546417856 17.1285296739494228   T   T   T
  4.2429800992764202  1.3316376810581518  5.1328451778139046   T   T   T
 17.0291204489204233  8.1677296928911787  4.7741086504884969   T   T   T
 20.7874924999018305  5.4465069685863154 10.4469666595574058   T   T   T
  8.3897122511174249 12.5873579507583848 11.3796827430258016   T   T   T
 13.4359800894192372  6.4287859242332051 17.8488419149099258   T   T   T
  3.1292549494729269 13.0464938681987732 20.3363272021201240   T   T   T
  4.5750783319978563  5.2498079856444884  5.4098746946532996   T   T   T
 16.9868641426017781 12.2348613625685161  5.5133207303464014   T   T   T
  5.4348932802420604 -0.1040449662082075 11.6801508972772989   T   T   T
 18.0521292650963154  7.1327515279546860 11.9381988689389988   T   T   T
 22.9358399797744177  5.5985251034589236 19.8848947666491931   T   T   T
 10.0978932159175265  6.1100444404317305 20.0363533663444038   T   T   T
 14.0349830909876498 -0.9108931290740853  5.1078350870342302   T   T   T
  1.7007762716395756  6.5181024443691005  5.0457509668848033   T   T   T
  1.3551206544956145  3.0208672389961029  7.2903788134614045   T   T   T
 14.1270652134680237 10.0646949694341288  7.5806794539694495   T   T   T
 20.0101227273718330 -0.5782077030282612 14.2079118166200917   T   T   T
  5.0650449995478466 10.4921802479292374 12.9845074670143550   T   T   T
  9.5004306526142255  4.3189277457813304  1.7938485909322262   T   T   T
 24.4383528213724048  9.7976630865915411  0.3310427655926281   T   T   T
 22.1844806502462291  2.9997261186323465  7.6946790428882608   T   T   T
  9.4643084229764760 10.7257036623599511  8.2544736978091837   T   T   T
 13.5841854909400759  4.1110882351083724 14.1357324596463627   T   T   T
  0.9439178155427799 10.6264760711942152 13.7189003540303922   T   T   T
  5.6635252661158200  3.3559271133661586  2.2283054896283288   T   T   T
 17.8685453919413924  9.9738499486700292  1.0203345194690143   T   T   T
  1.7619429111902902 12.2269622408581533 10.9027499823146581   T   T   T
 14.5185595288762919  5.0107996609191696 11.0624562514427094   T   T   T
 23.0506815437626678 11.2635630394348460 15.8428556701928080   T   T   T
  6.2552795313629854  5.0744180309189844 18.7078197442395364   T   T   T
 10.3665939647267411 12.5049773641991315  5.4568506767235307   T   T   T
 23.4284771573085457  5.0420845674482617  5.3721753533427128   T   T   T
  1.7357975024206234  1.7273305332944831 10.7519505751493440   T   T   T
 14.0859996366251998  8.1614626908680457 11.7703321308555697   T   T   T
 21.6379171701359176  2.6345448605398274 20.5349595474201507   T   T   T
  3.5837322877065518 11.0449859638659511 16.5208828564698145   T   T   T
 11.0220655521485256  1.6910098387925225  5.9263397523827974   T   T   T
 23.1957230711033375  9.5110064667431153  4.7546987476027791   T   T   T
 -1.2076719518900134  3.1512071700565705 10.9082958318167105   T   T   T
 11.3933923015938205 10.3190412872123431 11.6467450275982731   T   T   T
 18.7841400885110161  2.4190755091803182 17.3532898417220380   T   T   T
  5.5862260126650503 11.4364992647287274 17.2169662977760396   T   T   T
  8.0516535719522633  3.1358612951306220  5.4076890590175291   T   T   T
 19.9288894305930988 10.5117537780676749  4.6114209963022317   T   T   T
 -0.7636526722522249 -0.0559976898796593 13.5987167090419359   T   T   T
 11.4125696320056793  7.0785551295077402 13.9707565196996661   T   T   T
 16.4764495354862781 -0.6311759941737254  1.5050390956116431   T   T   T
  3.8867913648000529  6.5187351537247968  1.2965296807743336   T   T   T
  7.5495548364912315 -0.3324129849965880  7.5432524272378929   T   T   T
 20.0081928988865876  6.9664878184071135  6.7956238318225557   T   T   T
 23.9833728314162435 -1.0872759589375034  1.8920844065493545   T   T   T
 11.6902249209211160  7.4723052863933734  1.8158140997560350   T   T   T
 15.5681681745005438 -0.7060044462643171  8.1131336031634689   T   T   T
  3.5354482940647594  6.7531026465029971  7.9953813655085657   T   T   T
  7.7171981567754857 -0.1825268539374565 14.0240510707482606   T   T   T
 20.4495953010431180  6.3102072713656643 13.6638121627182745   T   T   T
 20.8132939813032074  9.0017809095668078 11.5092674687343930   T   T   T
  8.4439050897890944  1.4970366059693498 11.5086611173315116   T   T   T
 12.9356314023900492  8.4661265440271727 17.5857352654432866   T   T   T
  1.6526207727171969  1.3031337413751529 16.7351746243150892   T   T   T
  3.8782735201481149  8.8232420701143397  5.0682115843629862   T   T   T