Li P  S  Cl
 1.0000000000000000
    25.1819793006824639    0.0000000000000000    0.0000000000000015
    -0.0000000000000009   14.5388225279766061    0.0000000000000009
     0.0000000000000000    0.0000000000000000   37.2126966544236950
 Li  P   S   Cl 
 286  48 240  48
Selective dynamics
Cartesian
  4.2500737717430770  4.2547436110967682  7.2815506240343408   T   T   T
 16.1485950455902625 10.4126038059319015  8.6822563902691403   T   T   T
 16.7209441086619535  5.3355726610396372 14.5891082349135761   T   T   T
  0.4193569846251484  9.9051357978630072 14.5631820088488553   T   T   T
 10.2776318115609016  2.2751027716969872  2.8405167008788990   T   T   T
 22.5208757363815764 11.1167575702222479 -0.8738219499183466   T   T   T
  1.8161435636732464  2.0764113452030881  8.7850024939879621   T   T   T
 11.1935723744763447 12.9428817683599000 13.2027322361276145   T   T   T
 17.1107229182126162  2.3138263732508553 12.6160605823698226   T   T   T
  5.7998655689058873 11.5075681251949611 16.2541741748649251   T   T   T
 11.8634337082960304  4.9934190340846634  2.6707983187738651   T   T   T
 18.3923117712765034 16.4227827848397752  8.2968989122627477   T   T   T
  0.8090823559780196  5.4685272201305510  9.2619690233136645   T   T   T
 14.8212115971588041 13.8855853839852834  8.9475855293102811   T   T   T
 19.1755436947943707  3.6431514494249186 10.9157534667304255   T   T   T
  7.4211870417722885 13.4810235825522220 14.3681430407311570   T   T   T
 11.7862986866876955  4.2759030168145467 -0.5672036612867138   T   T   T
 21.0190521319215406 13.9392634571060974  5.4391256454135748   T   T   T
 -0.5317484588217953  3.4312166758366298  8.0351909800708530   T   T   T
 13.0343821841333831 10.0178169960712573  6.9323650003921875   T   T   T
 23.8731520900500485  1.8695737276181674 11.3534468041645642   T   T   T
  6.9856061053658607 11.7902805351118545 11.5012784976657958   T   T   T
  7.3068978363852688  3.1914813191190694  1.4846638200460802   T   T   T
 22.3848500191307096  9.0316055166402371  1.4601336308667079   T   T   T
 -1.4024062271265580  3.5752467474037029 15.6334311145642371   T   T   T
 12.4666400788660088 12.2998150138108606  9.3086546022432763   T   T   T
 17.5094276686522576  6.3537378684765278 12.3140887778241179   T   T   T
  8.1473270550010426 10.5263908148305347 14.1938847139614115   T   T   T
  8.6887856835731814  5.7161486837705660  3.3365071138329969   T   T   T
 21.9363943795612002  9.7363255998122291  8.6431748980197067   T   T   T
  1.3631549306462392  3.3289755701080099  5.6668607462888314   T   T   T
 13.7054008278000374 13.1030989396418995  5.8478454641504314   T   T   T
 21.1082363440746477  2.6612322411508145 13.5952837096045354   T   T   T
  3.7550320575349714 13.2959167871471244 13.4667214723274213   T   T   T
  9.2782507383736874  7.7408825624400146 -2.0562019141375676   T   T   T
 20.8072884525774313 15.1978927335187315  1.1840182983425358   T   T   T
 26.5452483489683289 16.2556148036882604 13.7695990193081226   T   T   T
 14.2292919668018314  6.8216921157996975 14.5964868448587826   T   T   T
 14.8351604632466536 16.6646635148264579 -0.2574971974658403   T   T   T
  3.7619644174325440  7.2623021716187699 -2.4045170380500358   T   T   T
  7.0631093416935071 17.0866781209310652  5.9828302384255956   T   T   T
 18.9775373287661964  8.4662317820597437  8.5247300227564775   T   T   T
 23.0535867949737394  5.4978764810822014 18.3684405125012447   T   T   T
 11.0475459143403416  9.7799997721267040 12.7344965851430789   T   T   T
 15.4071058073366807 -0.8053836513371596  3.3041488882424819   T   T   T
 -0.1888553963306297 11.2505031504049171  3.5565943759018377   T   T   T
  9.6966653690757934 -0.7797940996513170  8.2972450062460137   T   T   T
 22.4491254415101338 -0.1166153466485781  8.4196187341266810   T   T   T
  3.5209306185547771  0.1637341397579622 16.9070316809177434   T   T   T
 11.5559827151401517  5.8646915599797502 12.6333911603036082   T   T   T
 17.0067344175714155  3.1287870372325197  2.9276242654629394   T   T   T
  2.7144087496490625  9.3729440998177189  3.5152837014878142   T   T   T
  7.5842180987224603  2.5609434740129391  8.7391108203934493   T   T   T
 23.3926335267179937  6.3071863062226710 12.2604497147680433   T   T   T
 -7.6586343876551748 -1.0101307471864351 12.3781726825637080   T   T   T
 13.5913911725749319  7.9628873760405900 11.5834525509615904   T   T   T
 17.9665577714721465 -0.4310998939228139  2.4266269567313334   T   T   T
  5.4421755985829519  7.6697820403543391  3.2174176765167180   T   T   T
  9.0098356511327573  0.1095754643516599  5.0009614791331538   T   T   T
 19.7686404653479642 10.6763632370969042  6.7138267389842339   T   T   T
 -4.3517458933194613 15.7298738095686730 18.8240520114060068   T   T   T
 10.2699819110242689  7.2955296242853915 14.6512291350984984   T   T   T
 16.5293730040763123 11.7064491135174293  6.5669381703112988   T   T   T
  3.3621470534702573  6.1796823383815713  3.8540788978490377   T   T   T
 10.3697990916581553 16.3671722505492383  7.6381241347942135   T   T   T
 22.1326465866338182  8.5102366172603467  5.2746386910979322   T   T   T
 22.5188553998861991  0.6120106060047495 15.6815768770163633   T   T   T
 12.8650030323447968  9.5484360853455783 14.7299887645166017   T   T   T
 16.6071789155358545  4.6250062081885153 -0.8482992385145395   T   T   T
  2.9150434532599929  8.5879485878902990 -0.2475077278915656   T   T   T
  6.3740396903639978 -0.6033627921995113  7.9152809335169776   T   T   T
 22.0660896343733981  6.9309215008479192  8.6469199985352247   T   T   T
  0.9918360285544388 12.6807465343250136  6.3267118372834785   T   T   T
 13.9991441911785977  2.0761550653634853  8.7776044614211859   T   T   T
 20.8631323556594950 12.7283229762821080 13.1450715785397403   T   T   T
  4.6430581331009506  6.3018295232740984 12.8895123623613870   T   T   T
  9.5344544612292008  9.2797089013865488  0.4920875849847186   T   T   T
 20.4130578545242685  3.7002634361532754  1.1943781498808819   T   T   T
  0.6735683134299061  9.6426364584568702  7.3507456666768505   T   T   T
 13.3593866414117617  4.3014029512813918  5.3921309675643796   T   T   T
 19.2602112960330416 10.1642478890325378 15.3688869796301564   T   T   T
  3.4864003504079961  3.3868673964047207 14.2972801014843149   T   T   T
  8.0198161793770364 11.1968198509566506  0.6818743098013853   T   T   T
 14.8038366998396960  9.1043476328082598  3.1151417599585010   T   T   T
 -0.9511469709958495 13.0609347348276472 13.7266385084356433   T   T   T
 12.4633648240498722  5.1827175171044431  8.7788304172002327   T   T   T
 20.0685554427507213  5.4148637283796557  7.2689832267329368   T   T   T
  6.3766450933130949  5.3710469420444715 11.2810317042482584   T   T   T
  6.7614678058473547 11.1007091311684007  3.0449636564154523   T   T   T
 23.4103573207674813  5.9276001294937632  2.8646487336264350   T   T   T
  3.8800770069443842 10.1906036806169773  9.1060139945774203   T   T   T
 16.4289063407492506  4.2424506985487289  6.6149606705012216   T   T   T
 16.8064985763607879 12.5199771209875195 14.8676525466280918   T   T   T
  7.8932182549048617  3.9701375516379609 14.1261963109761730   T   T   T
  9.4383218797830146  9.5862861449248804  3.0284269197631004   T   T   T
 22.3284510499558095  2.8654546320364527  3.3681010513929861   T   T   T
  0.4310680108497854 12.7936292820501123  9.6758670129412021   T   T   T
 16.0232281505323826  4.5096481409494569  9.1630313338032607   T   T   T
 21.7927858777316743 11.5180215773785122 16.6963222916669096   T   T   T
  5.0327463573315878  3.1041344301300540 11.0858249696120659   T   T   T
 11.3497373884905688 11.7440290623597292  3.6335600363325322   T   T   T
 20.7422099218203329  6.0199015707652634  3.0690059509941796   T   T   T
  4.5114446249877647  9.8039656218609323 13.3565085364498533   T   T   T
 14.1719566583500551  6.7470548894929907  7.2519186864336556   T   T   T
 17.1046698150068295 10.3126086651224504 13.2708342908872652   T   T   T
  5.4306709178322192  1.8439617064526668 13.8573840806356774   T   T   T
 11.1471481307758786 11.0786741954309207 -0.8615677513076743   T   T   T
 24.2064756560269885  5.6709666040257405  0.0426756601240954   T   T   T
 19.3280003034292136 13.7465032085221281  7.8492518878535273   T   T   T
  7.1454076626091005  6.0989937037023392  6.2400547900124455   T   T   T
 11.5215643620692081 15.0009773076983137 16.0586084734886256   T   T   T
 28.7984868789123070 13.3549793302068665  9.2392671873484300   T   T   T
  4.2134875286707150 11.7181884021685150 -0.8032530351875071   T   T   T
 13.2074705208907623  7.2415817506027036 -3.0840755936346027   T   T   T
  6.7942526147735256  9.8225399141334471  8.4074744984236780   T   T   T
 12.0369291800619482  2.6895049014151868 14.4659552800052769   T   T   T
 22.8253770951788368  7.6992602495951976 14.9680262885187165   T   T   T
  2.2602855001702080  2.4381843447852765  2.5880524052894707   T   T   T
 15.6276625569419174  6.0512358110615310  2.5732163273179669   T   T   T
 19.4392493962655450 -3.4867263223189613 11.4463930758405130   T   T   T
 10.4199289721701778  7.9737421934099784  6.6120873555517763   T   T   T
 14.2611701978117438  1.3954380920501621 13.1530198251442290   T   T   T
 -4.7043243306919091  5.5860300534520091 13.8835379191271073   T   T   T
  5.5308071644321908  1.0805250722952706  3.6427414324734690   T   T   T
 17.2864977797646091  7.9705181811739392 -0.3905128669693887   T   T   T
 19.8594165488235959  2.1904276892614556  5.3873167832451383   T   T   T
  9.6761466807321899  9.1155638930857457  9.3029162853722021   T   T   T
 14.0224998511688685 -1.1446625720583568 14.8675894531689998   T   T   T
 -1.9858110479567208 10.0221871988021647 12.7500724471357660   T   T   T
  3.4748107946245099 -1.5509426325172457  2.4498557185011443   T   T   T
 16.5173696520667619 10.5220669579477146  0.3200035302534186   T   T   T
 18.3501642591791736 21.4609332421968233  2.0679758787853157   T   T   T
  7.8668125237212285  6.5177251397241482  9.4143315004711123   T   T   T
  9.7891357435477264 12.1323704558233985 18.1164374315325887   T   T   T
  1.4053513140810996  7.0317396227634923 13.3596250641651206   T   T   T
  3.6398930816099089 11.7208243960465914  5.8976334663199887   T   T   T
 17.1767655588360313 10.0146393352669136  2.7798987105988493   T   T   T
 21.6659944140925873  2.5015827058396267  8.7984365459192624   T   T   T
  7.5119498766794326  8.8825480849730170  5.9058166698830385   T   T   T
 11.2265202739580197  1.1338036061139118 11.5405912687319105   T   T   T
 25.7841687047329629  8.6034847476971272 11.2771160313262442   T   T   T
  1.3058010943814269  6.3731688760338683  6.4304700917686723   T   T   T
 16.5442873936200030 13.8687532334770509  0.2694549197249569   T   T   T
  5.5792945014149167  0.9809503339891591 31.1768143540578677   T   T   T
 20.8807785374608699  6.6021325526401204 29.7741273980441292   T   T   T
 21.7111701391127667 -5.0551412932091360 19.0935715831774502   T   T   T
 10.4121231820837234  5.2415148441971970 26.4158839763250555   T   T   T
 13.1993635518270622 -0.7095280827778735 36.2491588018371118   T   T   T
  0.1076293905447544  7.1914773877106706 34.6030848179731976   T   T   T
  7.6169515851444229 11.9755186737467412 28.6994050581433378   T   T   T
 14.5449579282510921 11.5087138385568686 22.4581221706767771   T   T   T
 24.3466147992464599 11.8105136415616592 25.2210234128278721   T   T   T
 10.2224284380674195  7.9421114852619379 26.1660558943219392   T   T   T
 13.5832841742574413 12.2329999185030900 34.1490044179563341   T   T   T
  4.1249800784586848  4.2266654480715493 36.6709270161627785   T   T   T
  8.6553390907312959 14.4986596327080939 30.3260844547120989   T   T   T
 16.6856547876242587  4.7271817605345188 28.7972737190806782   T   T   T
 21.8376065217815025 11.3499100738579983 24.3374757259649002   T   T   T
  5.0745802410746652  5.9017239826439809 15.3253097704206915   T   T   T
 13.7988169833700098 10.8425716616355032 31.5566712111200438   T   T   T
  2.3137914657220131  6.0471366209042934 38.1860084891930569   T   T   T
  6.9237421559791104  1.0420394606045980 28.3543738939764083   T   T   T
 18.3035310502455744  7.5610300703922082 27.4719074345875072   T   T   T
 25.0275224516329899 11.9389923727898513 21.1778557855555860   T   T   T
 10.1923343732345106  8.5096969769537729 23.0063474950212026   T   T   T
 18.5519117701464396 15.8684890001139394 37.4833428419479304   T   T   T
  2.5049663421817665  9.7046735823002628 33.6873575686740310   T   T   T
  4.7168630579892739 -1.5402795534043221 28.6024036010815692   T   T   T
 19.3646030903980630  3.6761249548485004 28.1204014176125199   T   T   T
 22.8094733680404929  0.8540316105199197 22.7511902294851254   T   T   T
 14.0328068513521895  8.7715648839287681 22.8177340584365034   T   T   T
 17.6583714301559382 -2.2297393848215208 35.6461729897278019   T   T   T
  5.7608368467719426  7.6051911491719970 31.9022087243507677   T   T   T
  6.1056551908788164 12.3920829064214750 31.7391118635719280   T   T   T
 18.0160512128643049  7.4683349942812276 30.7198561118449156   T   T   T
 25.4026427445417369 14.5438445485168906 24.0568017482378984   T   T   T
 10.4419863004961648  4.3515070015400372 23.7326388005222917   T   T   T
 14.2280971771706124 16.5408079538328749 39.8829804928875546   T   T   T
  1.3564360268612592  4.5256270787336463 34.0784179902764350   T   T   T
  2.4104584581006918  3.3036220475173463 22.6791190577170205   T   T   T
 15.9423023819024667 11.2008410737672790 25.1399409515178895   T   T   T
 19.0515067176909696  3.7778659026033345 35.6140937336493977   T   T   T
  6.5171618254910770 10.3053564212339062 34.9821580535714958   T   T   T
 14.4589941799222981  1.2194325374220749 28.2339564880692215   T   T   T
 23.6491024765579496  9.7601959193697923 28.1517959975368548   T   T   T
  3.3514558623604387  2.9300461829055449 26.0260010481874993   T   T   T
 18.9488744251468617  2.9510135228398666 24.2011744478176283   T   T   T
 17.3330193029483155  0.2779879417670544 34.3570358533451525   T   T   T
  8.7491289209624643 12.5491804012369528 34.8684040918309535   T   T   T
 15.0134840408103809  2.7593153292625607 30.5608056564071227   T   T   T
 27.4833271979192162  9.1919224725690185 27.7372998928205128   T   T   T
  4.3832522754743453  5.0083840913964774 23.9249906416196580   T   T   T
 16.2400988607596659  8.0437633745188535 24.7168530222697171   T   T   T
 23.7868749964080166  0.8389221840449829 32.8983257683959920   T   T   T
  8.8809393180980400  5.9781125397595378 37.6217778450894542   T   T   T
 12.0146676525110845  3.8936196464417532 31.4413685141875554   T   T   T
  0.3552755675324214 11.4188465231552883 29.5166651304464338   T   T   T
  6.8581820630550814  2.4620120370699161 24.7023606097230761   T   T   T
 12.6576698278550044 13.5873083564067016 19.5816801225007033   T   T   T
 21.2501564935220628  5.5703537160627841 33.5282350850304169   T   T   T
 15.1731738788597834  9.2640529599783470 28.4706665922125097   T   T   T
 10.9595982046445695  1.9005017948783283 28.4336228381899581   T   T   T
  0.0055120582492550  7.0298906194457791 28.5518655695235921   T   T   T
  3.6727171802599692  0.3894662751654804 23.4266148134637930   T   T   T
 17.0067498006570261  8.0725980520082032 22.1648123305215883   T   T   T
 21.0519625222546622  6.6361128444889204 36.5380594866188773   T   T   T
 11.2354599966819677 10.7798813139600007 33.3077358121170732   T   T   T
 13.4406776339034764  4.7804587783052748 28.5616959743940164   T   T   T
  2.6179721164360181  8.9390365179686491 30.1715662445526540   T   T   T
  6.4096643561435478  2.8433695110681616 22.0024803556232449   T   T   T
 15.0400853444510307  9.5991837402023421 18.5405632459382339   T   T   T
 22.2511015562867982  3.5891420262397178 36.2205897057334454   T   T   T
  5.2337409781247244  9.9114011695882915 38.2410602478178703   T   T   T
 12.2716839741937314  1.3628307531448620 31.3350651741882551   T   T   T
 24.7244010700179047  8.5442708180757023 31.6705006072858311   T   T   T
  8.3742367797060044  6.2768555827354708 31.7045163267124757   T   T   T
 17.1116078042747404 -2.0590281123536029 28.7534864940679000   T   T   T
 23.4014935348631212  8.0329641953413180 22.7378691458726330   T   T   T
 11.0034079037313806  1.1801378824387865 22.7978607014014294   T   T   T
 15.0087631937617889  4.2734444393533559 34.0573275494357546   T   T   T
  1.5654454870084913  1.2912763152466882 35.6149773264286722   T   T   T
  8.0365863883884572  7.7452408085973934 29.5020159355723024   T   T   T
 21.6197543831552608 12.9963930383188035 29.6062831386835974   T   T   T
 20.6350655260388862  7.3370625234231461 23.2263609174113448   T   T   T
 11.9658323829323656 12.7018807564099703 22.2526241246061609   T   T   T
 16.6608609068709583  6.0886173666986076 33.5129891391865016   T   T   T
 -0.2228621965283743 11.8285873990118127 33.5031262280697462   T   T   T
 19.7619913264414464 10.7778516314785264 28.1464489268112743   T   T   T
 22.5095521812101751  4.1539411842310852 21.9664698273131158   T   T   T
  9.8364396953291600 13.3403351891380062 26.1765298161662550   T   T   T
 18.7737756975592376  4.4154565052366754 31.4483629674288458   T   T   T
  3.8191030307522595 14.5583616393991413 34.0675940529336003   T   T   T
  4.2756051392445826  4.5818677976082398 28.7798482002253699   T   T   T
 18.6444240223513020 14.4161565792995496 31.6663191485292046   T   T   T
 25.3878893343458216  5.5037427138400057 24.2925381260919018   T   T   T
  9.9151537776846652 11.2719549122154987 23.6309013593409212   T   T   T
 14.4053750566659957  7.1374866687558791 37.3230623659615475   T   T   T
  6.6539953226468480 14.2076609260137019 37.7120877674233412   T   T   T
  7.7333622220770666  4.7103609471311580 28.7748694285905025   T   T   T
 21.9334565865294380 -0.3674847320522445 26.1444877830037967   T   T   T
 22.3623786155351425  4.1295716000980773 24.8768149528718716   T   T   T
 12.8648838278969180 -0.9629242794558667 24.9145068457386927   T   T   T
 15.3506868928562952  8.6019505353989345 34.4728151578618167   T   T   T
  1.3260133189785901  2.3486817555954747 31.7024674869212646   T   T   T
  5.0919046321287462  7.0780485986725248 28.6212673898529104   T   T   T
 18.9295270589529423 14.9507689875246186 28.1700973692769203   T   T   T
 22.1985540788741744  7.3550093386762638 25.6357857557364532   T   T   T
  8.3952734380016967 14.4157669341998833 23.7618320680744226   T   T   T
  9.8418450162129609  1.9410400083384016 37.1637191800949864   T   T   T
 -0.3912779345564179 13.2450773805318001 36.0925334541829841   T   T   T
 27.6945299868142101  1.2967948449664857 29.3223625007417041   T   T   T
 10.9865051843234021 11.9251434583145368 30.4972389253618879   T   T   T
 17.5106197734190374  0.7279648155256249 22.4150661662407948   T   T   T
  6.3207795919972467 11.2418434717763738 24.1726645921410466   T   T   T
  5.5804833469652566  7.4012950564256865 37.2139957919470135   T   T   T
 16.5545783551051713 11.3172216071320122 33.7605230069331554   T   T   T
 24.9383533241553010  0.5575574689883659 27.9212988189157691   T   T   T
 12.9395398716887620  6.2800260696312709 24.7103296445813818   T   T   T
 15.7456635368520175  4.3266729692866424 24.4939939718546036   T   T   T
  2.6377719741745307  7.9264022998719268 24.2633258632481841   T   T   T
  5.9833356347937281  4.6679945100783495 32.2861743331376090   T   T   T
 19.4372795371938309  8.6730433626298300 34.3970404949060367   T   T   T
  1.3990684155111450  3.8939542350095335 28.5556268059442822   T   T   T
 11.5862892578143111  7.8229223894506257 30.4319687053691865   T   T   T
 14.5243105846270577  1.6023505273336105 23.5682212948137106   T   T   T
  6.2866278375521514  8.3798499268374833 23.4378897682246361   T   T   T
 14.6617653690844580  1.0530265650429307 34.0141712920662940   T   T   T
 22.7006998369296085  8.2711905903185290 34.5371243552441172   T   T   T
 -1.2977405994469711  0.0271455797297365 30.1094658271159048   T   T   T
 13.3394944412240140 12.0078832880842654 28.4549558508583793   T   T   T
 18.5941487616838543 -3.5683438389159368 22.3729418507115767   T   T   T
  3.1659942817888056 10.6412749697584985 22.5377155789238763   T   T   T
 10.4584676829393732 -0.8745953486630954 37.8899793952588908   T   T   T
 21.5399134456101038 12.6540354869700238 33.2703415658768904   T   T   T
 -1.8367226719993954  3.3105685341458990 28.4974704411786099   T   T   T
 18.6861904133561012 11.3223661710161529 31.1961819747697966   T   T   T
 17.1687360748653006  3.9780701080416598 21.4322957760687842   T   T   T
  3.2448909892568212 11.5275761901811009 25.2673926783540175   T   T   T
 10.4262398334751385  0.3312936168073282 34.8302360053219786   T   T   T
 20.8839088779782358 14.0888479942868017 35.4973390068270334   T   T   T
 24.4131169306528690  4.2821295422940997 31.5083209913044371   T   T   T
 11.6892698206412042  8.7263278081964444 28.1456635767398886   T   T   T
 16.9454022152995734  1.4407262488016075 25.7077319992511555   T   T   T
  5.0191487058611610  8.5609813421324930 26.3722928289299539   T   T   T
  7.1768365481145180  0.6459587109885477 34.4968165016864390   T   T   T
 19.2692602950026100 10.8869462133176462 37.0106304256407128   T   T   T
  2.5348657174333606 -0.1199167218989857  0.3895127420092579   T   T   T
 11.6317772249569131  7.9539007895827627 -0.0829767337575111   T   T   T
 16.4436359173585913  0.6603889564810714  5.6609493130253679   T   T   T
  4.0964421096486028  8.0316202316729495  6.5620801625859038   T   T   T
  7.8256272966793263  0.7579698806411036 11.8969887970098060   T   T   T
 20.6333380940682645  8.2536853890786048 11.7735855443800119   T   T   T
 22.8523464672195118 11.6951107961223499  5.8052286501831114   T   T   T
 10.2549863596135626  4.5937655236122668  5.8929276223704230   T   T   T
 14.4103412204274797 11.2482578082951541 11.8934301385908796   T   T   T
  1.3213766870380952  4.2580889973805585 11.9368197558432634   T   T   T
  7.5465715833010556  8.6555219680800093  1.6107183553902253   T   T   T
 18.6826377129444694  5.8437771861490644 -0.2844491947776030   T   T   T
  3.8430627591620961  0.8886137380775653  5.9942312070039954   T   T   T
 16.6505300398486611  7.8524714948743686  5.6751408410816904   T   T   T
 20.3379315556143254  0.7651901393649737 11.6773438457406158   T   T   T
  7.8027844486274045  8.2245572589948104 12.3418446175180794   T   T   T
 12.3187828564668393  1.9832193736313513 -0.4307961770912651   T   T   T
  0.4810941966458124  9.4188879464764561  0.7236323743127575   T   T   T
 22.5502446438269786  4.5843298503815042  5.7951008487846156   T   T   T
 10.1839092417662282 11.3011875891928497  6.0570480973038778   T   T   T
 14.2079179722369027  4.0469099767164636 11.7703402167841613   T   T   T
  1.7248241021839474 11.3331589268833568 12.1109600193898057   T   T   T
  4.3665613004491588  0.9548303722417172 -0.1704176848979183   T   T   T
 19.1902408011567545 13.4935561025146775  0.2982866590062770   T   T   T
  5.2909456832213015  3.9852623791167172 18.4024811803755313   T   T   T
 18.2331008411782705 10.8503596309741042 18.3362523200535819   T   T   T
 21.1163998411012344  2.1177426535449855 31.1847840469226725   T   T   T
  8.4307060219328278 10.0696367222521239 31.4881492666768921   T   T   T
 12.7613384874140010  3.0046219802411867 25.4642253859125951   T   T   T
 25.5427272317938616  9.4043419367276684 25.3974172756928240   T   T   T
  2.3243324105388088  5.9063173647826863 31.7712578013130660   T   T   T
 15.1283603973846699 13.6121868871306617 31.1625482873678905   T   T   T
 19.1054486002235890  5.8524997325984245 25.0920588799240534   T   T   T
  6.3677520023198948 13.4819720450314904 25.5891103514524794   T   T   T
 12.0288060828251098 10.0408758284681170 19.9129315337418475   T   T   T
 23.4170003872349071 17.0486573851735841 19.0916143335085984   T   T   T
  8.7699689613411795  2.5388089536552076 31.7759435788089668   T   T   T
 21.3516242579849944  9.5212954624200279 31.1872312415813226   T   T   T
 25.6001468804600734  2.5370105852995071 25.5986618284072875   T   T   T
 12.6637317044011457 10.0218626514643603 25.5950263902710127   T   T   T
 16.8384122098866769  5.5085426836518607 18.5761824034574907   T   T   T
  4.1916862079976065 12.5164178747287842 19.2000176095149051   T   T   T
  2.2881688929807606 -1.1166277126864608 31.0427419204600739   T   T   T
 14.8514869926647677  6.5109036206864559 31.1917493479867396   T   T   T
 18.9575090491175544 13.3481770642993745 25.1728776408308939   T   T   T
  6.6581721872436086  5.8903571822319618 25.8735820530030409   T   T   T
 11.4558054248143204 16.7051728696232615 18.9933985392015963   T   T   T
 24.4203921696411115  8.7545626604611080 18.6291586603216537   T   T   T
  4.3398432296840541  0.8490969732679000  8.1151172403248886   T   T   T
 16.7290964366062909  7.8898298716944124  7.7207632961573269   T   T   T
 20.0838799741052796  0.6341431821516390 13.7326365336062288   T   T   T
  7.9249055815527853  8.2520353139843508 14.4171614887327433   T   T   T
 12.1606143536532567  1.0751748156587848  1.5548036796077991   T   T   T
 -0.6688612123903726  7.7512431050924873  1.4293610690867877   T   T   T
 21.5716302350405940  2.3351639524004750 11.3410210047107789   T   T   T
  8.7141818965029039  9.9851904902757980 11.4390534160474502   T   T   T
 14.0660881197666612  0.5560684690583099 17.6481135659687460   T   T   T
  1.3720316590958983  6.8183877206922627 17.5483417001653059   T   T   T
  4.7033074147454821  2.5446371638844676  5.2791049691020495   T   T   T
 17.4239579743481912  9.7743790226587883  5.1263490719189111   T   T   T
 21.4572862954305563  6.5270084272026487 10.9699831141343562   T   T   T
  8.7400929139928056 13.3884261030675269 11.4789315453493490   T   T   T
 14.2367906717045987  5.6020315374256056 16.8658149344704853   T   T   T
  1.0967505019304236 13.6935508205360996 19.7231285765308826   T   T   T
  4.8786323438240462  6.2208537554875996  5.6790943616476239   T   T   T
 17.3334218091475591 13.5282737962770838  4.9121504679574741   T   T   T
  5.7646342604060576  0.8007257566960155 11.3685988138772807   T   T   T
 18.6556317774109530  8.4261737373162511 11.0430198290389932   T   T   T
 22.2936114874924911  3.0966400053637835 17.4434093646982653   T   T   T
 10.8675681878520667 11.7351263274399571 20.4709277826004765   T   T   T
 14.3780020738386423  0.6366070598174081  5.0518588160814710   T   T   T
  2.1706479172918280  8.2857962989952902  5.8570458788226976   T   T   T
  1.7965313592911853  4.2810282920315030  7.8430085639293425   T   T   T
 14.3749333383422897 11.6777689903704704  7.6615163023201855   T   T   T
 18.5408778041493463  4.2945605691618978 13.0087694715651416   T   T   T
  5.9533274918897279 11.6422620079886023 13.8466967944962622   T   T   T
  9.6642202766232881  4.0913510098736703  1.4366788692990415   T   T   T
 24.6350853454028211 11.2837023452909087  0.8596004950966050   T   T   T
 22.2694054059824253  4.7580219404571737  7.9012576709704190   T   T   T
 10.2526269993039723 11.3699610271475606  8.0756196042390869   T   T   T
 14.4768615471277613  3.7153241337166700 13.7791987253549486   T   T   T
  1.8374229310935521 11.5908138718856399 14.1786958406553811   T   T   T
  4.4067597571960127  2.4086415085090107  1.4635422811676526   T   T   T
 17.7769770801892264 12.0590527189583305  1.3060633880616397   T   T   T
  2.3880743390310073 13.1988300485656325 11.3908456698556666   T   T   T
 15.0527731112704828  5.8426707781336455 11.2005244938171664   T   T   T
 19.0894657951041253 13.6861060556902885 17.1301040437411238   T   T   T
  8.4186498345482725  5.6546267001096675 19.4699926978193680   T   T   T
 11.0532120850558275 13.2692117965833170  5.4512171345790312   T   T   T
 23.2318616824273008  6.3595289942996960  4.9747399833604584   T   T   T
  2.1972687515166811  2.4638505265037085 11.5638046411563131   T   T   T
 15.3201882219189880  9.6736295348669934 10.9674693822822213   T   T   T
 18.9224848394091651  1.7051503899222977 20.4820734738181258   T   T   T
  7.7394732138055060 12.9953840986058431 16.8653464042738719   T   T   T
 11.2796040011397789  3.0320070798631695  5.0062833793133477   T   T   T
 23.9751844620200103  9.9491146772283443  5.4937628937913461   T   T   T
 -0.5612825494279539  4.3544284598350558 11.3639619553867686   T   T   T
 12.3669793425259336 11.1962804557492390 11.4210153018448963   T   T   T
 17.7614390265135427  6.1421437815009226 20.2939320718573519   T   T   T
  3.8743413711354195 12.4483784508029167 17.2322960308864630   T   T   T
  8.1562566455642411  4.3988303979748427  5.1701678421399473   T   T   T
 21.2182831167112766 11.5845695440859551  4.6110027333887134   T   T   T
 -0.9015817858500194  0.9950614923170257 14.2879440321814766   T   T   T
 12.3346532180308976  7.7703658776384641 13.4090514562837146   T   T   T
 16.2551381969424042  0.9655234740333313  1.9921103774221487   T   T   T
  3.6671832351641132  7.5474664800384597  1.8443130072727465   T   T   T
  8.2607321771974238  0.9413865040849485  7.2750588172399784   T   T   T
 20.7985311962949027  8.3456556265353470  7.3729022844556296   T   T   T
 25.9695414539877092  1.1466658047393916  0.7076910009658096   T   T   T
 12.6114134070817379  7.0549011736423113  1.6134743299015777   T   T   T
 16.4965712205443467  0.7538340954098247  7.7550836605996611   T   T   T
  4.2735230073579444  7.8728203026258372  8.5692860735597236   T   T   T
  7.8842898411682105  1.2260841625113688 13.9122554913458281   T   T   T
 20.7169485489357825  8.4285208853271065 13.7948336796594244   T   T   T
 21.6319585740474025  9.9867454241054787 10.9945021966950289   T   T   T
  8.9133956136904526  2.2408067865010142 10.9333942898687049   T   T   T
 13.3041292466603398  8.9273912549354399 16.9693967462033051   T   T   T
  0.5237805749007854  0.0406860589378683 17.9713975678878306   T   T   T
  5.2439330944985985  9.5770174911664654  5.6904760037628135   T   T   T
 17.3797740234909526  2.4623296386689928  5.2109723562712924   T   T   T