Li P  S  Cl
 1.0000000000000000
    25.1819793006824639    0.0000000000000000    0.0000000000000015
    -0.0000000000000009   14.5388225279766061    0.0000000000000009
     0.0000000000000000    0.0000000000000000   37.2126966544236950
 Li  P   S   Cl 
 286  48 240  48
Selective dynamics
Cartesian
  4.1775070091844491  2.4194371478200054  9.9547000252462112   T   T   T
 11.0363835931289014  5.1738313632221784 12.0857977514004666   T   T   T
 23.0363203573913466 -0.7271475727993969  8.1983073855735569   T   T   T
  7.0893289174957221 13.9231644981700757  8.6918480183620108   T   T   T
  9.2639826291086216 -4.8603844637335705 -0.4589020797852011   T   T   T
 23.2009508423136879  9.7040773735408639 -0.5026311585855224   T   T   T
 -0.4477839578948921  8.6312459900143352 14.8794748553384064   T   T   T
 14.7179167277668110  9.5056778801999595  5.3710212089415998   T   T   T
 13.2071373052322656 -6.0369896920926784 18.4516969573123397   T   T   T
  7.2264950612879604 22.6008184234717788 14.0773469311560238   T   T   T
  7.2179042016654034  0.0615169649713785 12.2038013157685619   T   T   T
 15.9421130586876671 16.6092381462153256 -3.2500785292874625   T   T   T
  4.6982417829878447 -2.1000422881753211  7.6257028360831320   T   T   T
 20.1685093406206661 10.2833702351474212 15.5708295135321730   T   T   T
 19.1839815804744944  5.0197464522214306 24.2759527006398912   T   T   T
  0.2098541604520087 15.2223530630667252 16.1834989189094394   T   T   T
  1.5735724279785410  3.8109249136860290 -3.8143770735807760   T   T   T
 19.1007528718623192 16.1332615560744301  7.4688776946519297   T   T   T
  3.7586504471748396  5.1440436662535447 10.3364569839297538   T   T   T
 21.6790846927121166  9.3189456619845430  8.5168620987479198   T   T   T
 28.1108260472447071  5.1068454934274499 15.2808959004649925   T   T   T
  9.7409671608446065 10.7896274728631241 18.3706001249504425   T   T   T
  9.5161020854605383  0.7071784146185591  4.9060228372727002   T   T   T
 20.9079188470229198 16.3566004542820451  5.1993238937459605   T   T   T
 -1.9085139201329331  7.1314941602156114  6.2801326799942547   T   T   T
 14.0494910618610991 -0.2578545241286858 18.4604011240422068   T   T   T
 18.6045093581450232 -0.1528390831505890 18.4564292581944507   T   T   T
  6.2530863000480190 17.2832288838099544 21.7705965356968605   T   T   T
 13.8210905411443825  2.2079407745138537  6.3677302777304421   T   T   T
 25.9013344040437872 11.6292399777319559 -1.8059774393206836   T   T   T
 -0.0427763193167181  8.7226622200908093 11.5963402359397545   T   T   T
 19.0165672101975645  9.0041805168560991  7.0824712247861390   T   T   T
 15.3973923625596214 16.0797972453144311 14.3985021341011503   T   T   T
  7.6134900966079950 13.2289055195408700 17.9392452369213551   T   T   T
 13.2444718063746905 11.2252953080606854 -0.6091402930169477   T   T   T
 20.9251016011234228 12.5093057372587779  1.1310389048075666   T   T   T
 22.3354353253748599 11.4956129009887267 13.7237216780389559   T   T   T
  9.2646666301193576  3.7029089841053375 20.1590576530434404   T   T   T
 16.4449276472651675 10.1900238857706693  2.0186149403132867   T   T   T
 -0.4303805923220342  0.2669183147078401 -0.2616305746909781   T   T   T
  2.9729037267072491  9.1652335104330724 13.8921043150542332   T   T   T
 20.3525668611917609  7.0275078522404391  9.7731972220343994   T   T   T
 16.4985372398784094  5.1261562860045284 15.9488273990504812   T   T   T
  7.7302175943133316 10.6204347558643057 10.4722625933437161   T   T   T
 26.9371480354316830  1.8055427084269962  2.9397594336612154   T   T   T
 -1.6527604846620016 -1.1389001474501972 -6.4696896970655642   T   T   T
  3.3009021288393114  2.8292712175519230 13.1475781538516756   T   T   T
  6.5092171861428012  0.0310314236156896  3.4004574724478833   T   T   T
 -6.7818007333647143 -5.7378925274157293 20.1290189751369262   T   T   T
 26.9987128671156569  8.2740319900028343 19.8961510853508479   T   T   T
 20.0852262184879109 -0.9430051168624818  6.2708824675051371   T   T   T
  0.1421442952181478 10.2977766580346479  7.5491514081920572   T   T   T
 11.0701712462118920 -0.5127531764394087  7.4767952763311669   T   T   T
 21.0479808126083299  3.4988709776402018 18.3186940855782723   T   T   T
 -0.9215626268540685 -6.0621537319790511 18.4721914599272239   T   T   T
 20.8865796216565940  3.6796367281102822 11.2261011473418488   T   T   T
 18.9146922689729209 -1.9514319968245473 -3.7696858164531979   T   T   T
  9.9115962698013274  8.1264815032140163  4.5526732340911638   T   T   T
 13.0540715522395097 -4.2963989313691444  8.6528891809725774   T   T   T
 23.5580623018801063  6.1529008404828405  8.7213007778880502   T   T   T
 -4.0734248136827071 13.0677331285021090 15.9069622290577080   T   T   T
 14.5917131383266447  6.2633286298314470  8.2856992895121557   T   T   T
 13.6739673716778753 12.7611636069838976  7.5347069618403184   T   T   T
  2.3974681253124208  1.6353273088496276  7.8951024453400116   T   T   T
  7.9398676747683954 12.3920433748053771  6.6092688155587034   T   T   T
 20.9246860236927930  4.7609662347661033  7.6639484720937832   T   T   T
 29.0510634918049959 -1.4080997847901038 12.1789030299576559   T   T   T
 20.2477712644490708  7.8497498392569591 22.8048618669884036   T   T   T
 16.2197237594247099  0.1338442897458710 -9.2548452917150392   T   T   T
  6.5439662052068126 12.4279916822474057 -3.7244782543502399   T   T   T
  5.6783436106667677  3.1560146700198475 15.3233827474686048   T   T   T
 19.9618112855926171  4.7616256385791083  3.0507857932460882   T   T   T
  1.1961806958899666  9.1389094035344662  4.3847178193445719   T   T   T
 14.1640647824380270 -2.2441061624457261  5.0157070645072279   T   T   T
 18.2289107834151523 13.9773642731211876 13.9487191255382257   T   T   T
  8.4598000375152491  6.1641116213148530 18.0888531410946776   T   T   T
  9.8323426919561623 11.6210023257638291 -8.0696921776532555   T   T   T
 22.5977450917875302  2.1890908338524859 -3.4093588334286937   T   T   T
 -0.3097081626551528 10.9300242116051809 18.9094340836791552   T   T   T
 17.0405916753210889  3.8064193942187341  5.9083632555294496   T   T   T
 13.1119135732843279 16.9647699754009196 23.1661458222457242   T   T   T
  3.8486440961426367  0.4000304016999526 15.0495346612173702   T   T   T
  7.8360728404757616  7.3070938936655594  8.4193200472144589   T   T   T
 34.3975043674136316  2.3711177624317150 -3.1758460100880064   T   T   T
  1.5221818585817737 12.8922837670619455  5.8810071719646881   T   T   T
 13.2323192339349749  2.8620320088444338 19.6921652021322799   T   T   T
 15.3291321651157979 10.9154652992156453 14.2226163197254447   T   T   T
  9.9751203430109570  5.6871522048945389 22.2375423562496444   T   T   T
 15.4718285546532091  2.0420872966396928  0.2926611324824384   T   T   T
 23.4266893056522179  3.2484148978751097 -1.2462447725951147   T   T   T
  8.6907265233504969  8.9383038752294226 16.7895251816753692   T   T   T
 14.2804863422156298  5.2310756560391125  5.3602957064271877   T   T   T
 19.8766203348849331  7.3504567666208072 14.0837134785457589   T   T   T
  9.3215251368019487 11.1806601966556887 15.8343240866371247   T   T   T
 18.6047900604006244  9.5014049846448874 10.8859726190809489   T   T   T
 14.6283219135290885  1.0753051180501410  2.8544605994627812   T   T   T
  7.8439273016239968  5.9514513774543065  5.1187857851739187   T   T   T
 16.0865325913485293  2.9107193599736920  9.1360574201200766   T   T   T
 21.6102900888943807  1.8815905946332427 14.6410559147791233   T   T   T
 16.8922274492817905 -5.8078868186854651 16.7125941698866320   T   T   T
  7.1901965848610407  4.1132646707626064 11.0621021232441219   T   T   T
 29.9978969231276125  3.6220424446758348  3.5471872776090461   T   T   T
  1.1411684199899002 12.5324698895521411  8.7423263243916391   T   T   T
 13.1136359991008487  3.8913170102425392  8.5856889542390444   T   T   T
 10.7477165445363028 11.7451386706737555 10.2519034513418905   T   T   T
 12.6637787935934760  8.9842199209592302 12.7672839016521920   T   T   T
  5.1001527404016525  9.9050834300274353 -1.9804466350845451   T   T   T
 21.0189803986297363  5.8540611224849934 -2.3583448150070496   T   T   T
 25.0507740308612981 12.0206972482041685  2.3242698165875191   T   T   T
  6.1982140731464996  8.3918664014601312 16.9609517263207117   T   T   T
 22.1883275738381940 10.3241854611511545 22.4377950784570572   T   T   T
 24.1455161122596280  4.1536814964006412 12.7690944141694551   T   T   T
  3.4795625676117319  9.6337850696886616  8.1929064839346886   T   T   T
 11.5292399132992323  8.0095855425908500 -3.1875558512481339   T   T   T
 20.6792239286179509 -7.9697472730265231  5.5333677352640596   T   T   T
 19.4374537840334867  4.3307273931738877 13.9339046659446861   T   T   T
 25.3175101415864532 11.7061421731484980 15.3640532059743187   T   T   T
  4.8038172985527288  3.3314323612130079  7.6288501511378026   T   T   T
 15.9824221789460257  8.2574700835351962 -2.1760810958026062   T   T   T
 24.7270950331980615  0.0531758091169306 10.5645291572673177   T   T   T
 10.6886929649150701  8.3655786335380640  7.4402636198912830   T   T   T
 11.7561850256158102 -1.6223579317134016 21.2243528399335659   T   T   T
  2.0872147341758880 11.3847528322677416 17.4533947305700927   T   T   T
  2.4360866299915362 -3.0262268371745256  0.2840200535984859   T   T   T
 18.5023135743395528 10.3580228881264844 -0.3144767647984544   T   T   T
 26.3927493262644788  5.1637925183661890  9.3542148240837566   T   T   T
 10.7049764435655081  7.2772292005468247 15.7735141181611915   T   T   T
 17.2319877878047691 -11.8708992142793477 18.0013080069355915   T   T   T
  6.4862873899548310 10.4580765818193147 19.0021740526926095   T   T   T
  7.5463614193885027 -0.3760194574392507 -1.2290935002227508   T   T   T
 16.7081738501513826 11.9311768060279917  8.1052743171848416   T   T   T
 21.9349621236975665 16.4400688212660029  9.0980069171924836   T   T   T
  7.4418523947023045  9.4508069874107701  5.8350263058521934   T   T   T
 11.5401689292077592 -0.5286642556583101 24.2455084539412553   T   T   T
  4.8797962517166358  9.8515965509162555 22.3744969718490871   T   T   T
  7.5738149510193828 16.7318429345964219  7.0875147720259850   T   T   T
 19.7681649470857508  9.6814272868633999  2.9583170590060246   T   T   T
 24.0318292064411168  1.1036320863457767  6.6522259394391510   T   T   T
 10.5957909666121388  5.7109754498069325  6.7830569881724294   T   T   T
 16.0008008301558249  6.1882618236096434 12.6575158577064730   T   T   T
 29.1527918502404475 10.6550400765930249  5.2724835177675224   T   T   T
  4.3763929861455448  1.3197174843655288 -1.9214119491521284   T   T   T
 16.0700439505124848  7.2771891140922156 -14.6378090720366316   T   T   T
 -0.4732625338671796 -0.6552882536650794 23.4796849736365303   T   T   T
  9.1947776440545415 12.3862705603544470 34.6068537007241375   T   T   T
 22.0263921252540769 -0.3566063896262685 25.7183384054518456   T   T   T
  8.3203458713463867 14.7873114793290874 25.3229536699242210   T   T   T
 17.9226787043837703 -1.1802001790229506 36.2970528735922144   T   T   T
  1.3335288105553531  6.1745487278696745 38.5150937538570801   T   T   T
 -1.2278309142137280  9.2275010328050922 29.2885768459627513   T   T   T
 19.4985296849431080  1.5332153182480142 27.9643265143884676   T   T   T
 25.6694807225994523 14.2066729947469224 20.1318358703550970   T   T   T
  7.7200987708834861  1.4306651248473115 17.6787950161633987   T   T   T
 10.3831961747966588 13.5681144501811826 37.8272204589167060   T   T   T
 -1.1533392959240487  7.1537646819533336 34.4789636670005777   T   T   T
  3.8883369867166411 16.5683364227317327 28.4147211345798958   T   T   T
 20.2149564653128095  6.0673536650590316 28.5504037680708649   T   T   T
 23.9753001931693532 17.2111765400017092 17.3407261822350058   T   T   T
 11.4206724502920700 15.3197197742183384 14.6169335808632894   T   T   T
 15.6161440330552956  8.7941347865315116 45.3671390548930091   T   T   T
 -1.0084310365347846  1.5565243794049186 28.9573222042911524   T   T   T
  7.5978050896413523  2.0098058353314987 29.0134891770420715   T   T   T
 22.4304854232088218  4.7642625292611687 29.7915801148058854   T   T   T
 26.2341608909604105 18.2875794639564617 18.6622704069127288   T   T   T
 16.1052625515333006  9.7171673548157553 26.9644274428244870   T   T   T
 19.4812688837183217 15.3419075788083656 39.1504636956549916   T   T   T
  3.0758550987683799  6.0553060591094763 35.2205660943726855   T   T   T
  4.7337575563525709 -0.9019674533433484 28.3903205989664293   T   T   T
 23.2811795782083664  5.9679593082422340 24.7938798027351197   T   T   T
 34.9140764036682114 -4.8054055145376209 24.1284960381551592   T   T   T
  8.1661857812534731 19.3545621461726114 15.6843858271092120   T   T   T
 20.3472438827614965 -0.3479383903650306 29.9249029429251934   T   T   T
  5.9895853248267539  4.0852924838619691 34.8458151412616246   T   T   T
 11.7231562533546771  8.5275477215618203 37.2601836565830524   T   T   T
 26.9341088249812444 10.9284490613214018 29.9828788635555661   T   T   T
 21.2113131395008736 14.3768775502216908 22.5339230652139904   T   T   T
 12.3986449183599934  6.6317936062614891 29.6377411369646602   T   T   T
  8.8886980427527469  9.5474492430561746 34.4161692875717478   T   T   T
  7.2699159849123092  7.1775268575563649 30.1555083033795412   T   T   T
  1.1875954286532369  3.5876021931073652 27.9486705933776527   T   T   T
 18.9641590450739770 19.3786569842047172 20.5725445655335051   T   T   T
 19.1100766307084555  1.7728837603715262 34.0099652161750825   T   T   T
 11.5616587447288968 16.5555625756039433 36.0648086595204376   T   T   T
 10.5728939107278297  1.8961841718369361 30.5406026323529254   T   T   T
 22.6838054242458469 12.0166192729937507 28.2372431427023649   T   T   T
 10.8385378366098308  2.7740428361653517 17.8569340961826093   T   T   T
 14.0321485352605002 12.2890299386327939 23.8141891449314542   T   T   T
 18.4971710980908810  1.3023805716515706 31.6209512714989742   T   T   T
  8.4792395819492103  5.6364519316160777 33.9747459670062710   T   T   T
 14.5403361875400385  8.8608851613099056 24.3986870101604545   T   T   T
 29.3844139994100644 14.2658952009868383 31.1596437930231325   T   T   T
  5.5681020524871911 -4.1230154413828757 25.3584517716225974   T   T   T
  5.6126292723924296 11.5827404586655511 15.5510150890855794   T   T   T
 13.9877473572098445 -10.6196506481879567 30.0713325320509171   T   T   T
 13.9464221764506640  4.9877884475898782 34.0943739000922008   T   T   T
 14.6110312325394620  3.9913630974710377 26.4649761806822106   T   T   T
  0.7871054067107693 12.7914218476383752 28.3607925077226426   T   T   T
  7.5564408182974505  4.5950562889175046 24.7341781786638144   T   T   T
 24.0145254987917909 16.2223577473637519 21.7403695079097155   T   T   T
 24.5402711791882453  2.9784482517973507 31.4570797654168857   T   T   T
 13.7075716622237653  4.7624384264408723 36.7834803766410730   T   T   T
 19.6010367289632867  8.6371455457358159 28.3306070261307781   T   T   T
 -1.8355929805801716 10.7376189336926089 32.0389426763005289   T   T   T
  9.9356305165844514  2.6815480757345975 23.8114233814183933   T   T   T
 21.6416345326372692  7.8447973824729225 19.4129948198738980   T   T   T
 28.1434039094698605  5.7180372726154287 44.3531810167255642   T   T   T
 10.7628253083310756 19.3886732911208739 35.7850332822111241   T   T   T
  9.7931285926421285  4.9955310848646732 28.2075692010105890   T   T   T
 -2.8073648346273412 12.9720809059015512 35.8097464245232260   T   T   T
  2.4534844356161192  9.7082347492872589 25.5936150977619050   T   T   T
 13.3608051014574887  3.7669747698647336 15.5822373347133709   T   T   T
 16.6350679150702447  6.5613281555195764 28.7102408818788604   T   T   T
  9.6255830478390045 12.0546958037816712 39.7515986418935015   T   T   T
  9.1682965229962505  2.4799074130132466 37.0891075295566992   T   T   T
 17.2880139970765967 13.3118724865738809 31.7350782043163875   T   T   T
  4.5516147251268535  9.2975609686650493 31.9680521078969164   T   T   T
 17.4264109419893174  4.3232573578956215 30.2159012164921883   T   T   T
 21.5956022367421170  9.0469788466828884 25.6254311936365724   T   T   T
  7.1678855520687508  0.0372624879492262 22.5998374798992465   T   T   T
  9.8468559386549011  4.8332785758890209 40.1839265817936777   T   T   T
  3.4834081830731320  8.6261348390663635 39.9020055981566060   T   T   T
  5.3743664676696374  9.0657905933493428 28.1735242363808354   T   T   T
 18.7753834654052270 12.6555486432747077 27.9585402267904293   T   T   T
 28.0228498100897667  1.1618827618460932 17.1917156936045679   T   T   T
  9.0078729367560904 12.0830713513890533 23.5481069505432501   T   T   T
 11.7110611531019551 -0.5517917076106683 34.6638471931235372   T   T   T
 11.3266513559598252 16.4540920554055603 39.6308959011814750   T   T   T
  3.2813803952005842  7.0879421875392685 29.0031398011685546   T   T   T
 21.8581940407019673 19.6587570543375492 21.3196164592558652   T   T   T
 26.6914189368062225  6.6923719236499633 21.6583339757637567   T   T   T
 13.0068582879252030 13.7237524536047282 11.2963871013485591   T   T   T
 17.3497331731743927  4.8139045101184434 35.3743174740840658   T   T   T
  4.7158783424963655 12.7510015558546215 36.3424234030314821   T   T   T
  6.9705752262741694 -1.4959192754887474 29.8858541872627441   T   T   T
 16.6531836441970569 14.4999040943545658 20.8197841752906889   T   T   T
 24.9708878467464075  8.0846703054829341 24.4628383329944690   T   T   T
  5.2864329454742256  5.5442439742392677 28.7876659744206975   T   T   T
 12.7011841751280343  4.4369661153663955 39.6546073493449498   T   T   T
 -0.9447972171744570 18.5711910136198526 39.8225695302347233   T   T   T
  4.5131771504327878  6.1190173811116075 32.1476998567744019   T   T   T
 23.7794263708807350  8.5775527071723570 21.6427535300221585   T   T   T
  9.3653337174517670  0.6245533989692280 21.0965040470444407   T   T   T
 18.0127432743034817 12.9221991160645118 40.0797570593231711   T   T   T
  2.6260032138117984  2.9523261767840028 36.6184881971127894   T   T   T
  5.9302245823250237  1.6034997748299891 32.1342335090069895   T   T   T
 12.5513498310952389 17.0775537695281443 32.5415487279434004   T   T   T
 22.1619197839980799 11.7485473619005347 19.1208307576912588   T   T   T
  3.8830462930373031  6.2867026142732367 19.7164412465816135   T   T   T
 15.5236543052090621 -1.0318168812057085 34.4733056437698764   T   T   T
 -7.6003492242553961  7.3149815757239693 31.7575504935254891   T   T   T
 24.6294483244269742  1.7693313217939832 24.8450817709638123   T   T   T
 11.1275264102013871  9.2046228234036445 30.2471551311750524   T   T   T
 19.2783594872442379  6.6344742249730366 18.0969773771928040   T   T   T
  5.5751369679098710 12.6386733215167109 23.3424306811549620   T   T   T
 12.4327100361343259 10.4000735303936160 39.6001162696580593   T   T   T
 21.1593852268828826  7.3750797369160379 31.1559790182677538   T   T   T
 24.7274501874456760  6.2858121097215838 27.8819454294024958   T   T   T
 17.0449229942751970  9.4713538908598718 30.0904629411920723   T   T   T
 12.2528180395696573  9.3900198660609995 21.9321569833691719   T   T   T
  2.0110542856507458 10.6520710853212410 22.2202411808172116   T   T   T
 11.1160709508978623  5.0043674795677324 31.3698237994714688   T   T   T
 14.7149358740097327  6.8898838136057430 39.3263474064247802   T   T   T
 -5.4740396040346102  2.0513035771466690 21.5552096283846382   T   T   T
 12.7192880067553062  9.3713700850601498 28.0919393207633163   T   T   T
 17.8038466845916616 -2.3715605999834359 24.3823991126565254   T   T   T
  3.6211618485337165  5.1958763263413168 24.3904411440720672   T   T   T
 12.2542443797232163 -2.2603315017127774 31.5268415324866922   T   T   T
 20.6354219246359705  8.8318653495046711 34.4230522375745451   T   T   T
 -2.6024908200438772 13.2619103985823479 40.3526374110858583   T   T   T
 14.1613542795565959 12.1726976099939090 29.4585572619863321   T   T   T
 16.3687304806695622 -3.1620877824749378 18.1240039862368363   T   T   T
  2.2442223843041016 13.1357078659749913 25.3095524722090346   T   T   T
  1.3234073914684585 -0.0923390615653039 33.7487204929159290   T   T   T
 22.1164914619160839  7.2738385554969121 37.9442068575784077   T   T   T
  0.7408362895735954  5.2279991485807216 30.3660882192882973   T   T   T
 12.5753023130349870 16.3978679079223539 28.2365160312793222   T   T   T
 16.0239129454428095  1.6870039266321029 23.4540845899188071   T   T   T
  3.1441138539373537  8.1380249363595141 16.8791906670461742   T   T   T
  8.9490549062438216  5.5833657723832602 37.6046363835351798   T   T   T
 27.6836319979691510  9.6936565498722622 34.3413473573164865   T   T   T
 21.3829729187484645  2.6267996851362319 24.3770233166714014   T   T   T
 11.2572849171344949 13.2683049839600571 27.9691748688464124   T   T   T
 12.9282031357517972  5.4313809667714734 21.6127223210046537   T   T   T
  3.4030880558807191 13.8889426066888113 22.1543035825574037   T   T   T
  2.7796323749696148  2.4915100762336717 22.9617688395412536   T   T   T
 22.6036593801855759  9.2976374384104492 40.3009129246041411   T   T   T
 -3.5303680702283078  1.1307813378135112  0.4420262080692917   T   T   T
 14.0775592178631292  8.1131044180468361 -0.2393090165033820   T   T   T
 16.6949207711003567  0.0690565131645698  6.0131600171487003   T   T   T
  4.7682435799522702  7.3189768957456787  5.4787569435213239   T   T   T
 10.1871239765859958 -1.5779100287475170 12.6152688346861748   T   T   T
 22.4852846734327443  6.4398139542361754 11.6908331154008192   T   T   T
 23.1380226398824789 11.0325163483310362  5.6040771372425411   T   T   T
 10.8262185430899702  3.7002618199702355  5.4002666419189405   T   T   T
 15.6989898375573862  8.8801582004251856 11.3193888218001160   T   T   T
  2.4759846286125602  5.8785759103573580 12.4410773902231515   T   T   T
  2.2765637765582589 14.2580582914815324  0.8003905919923053   T   T   T
 20.6290256323082843  3.4131568979075015  0.0757249572453433   T   T   T
  4.6803908887814023  0.3043885895165096  5.8472678700898308   T   T   T
 17.2087316118257334  7.1578643287088601  5.4385441090455249   T   T   T
 22.2036871192407190 -0.0467975948030578 12.0037587756741839   T   T   T
  8.8193722347661421  7.8997374533305686 11.3184993951151238   T   T   T
 13.3221727368245251 -1.0233829356915509  0.2489235471628240   T   T   T
  0.8854398734710263  9.1049538406524793  0.5748038045116393   T   T   T
 22.8854727165516678  3.9124523627719388  5.4537889872685668   T   T   T
 10.9545470820206674 11.0518912556539455  5.5786340798677623   T   T   T
 14.1316980771625342  3.7068396958370515 12.3791100284905333   T   T   T
  1.1861544972431466 11.3972675597763633 11.4087242397492634   T   T   T
  4.0274018988121352  0.5682416033266230  1.8995526954471187   T   T   T
 15.3427630373208590 12.7244288147666857  0.8532877403723855   T   T   T
  5.3990261849728860  3.6089223095795582 18.9857069908440472   T   T   T
 16.4997203036158808 10.0309173774126315 22.1517493686870282   T   T   T
 20.1742985797473509  3.7276158713633523 31.6569217314436813   T   T   T
  7.6945303227026169 10.6237122804730930 31.1208484546843529   T   T   T
 11.5642321604447051  4.1201807672766462 25.3545449075238594   T   T   T
 24.4241163391408307 11.2575967688316165 25.4443839097581090   T   T   T
  0.6993971937501591  7.7155613888930850 31.8946946818415604   T   T   T
 14.0637405099814465 14.8790806490692926 31.0526307889891591   T   T   T
 18.2661539731681160  7.9588437563695624 25.6667306422935333   T   T   T
  5.4562373464865495 14.9153735634042306 25.5082030450171686   T   T   T
  9.9303379971547532  8.3087036771489782 20.6212278335640136   T   T   T
 21.7806580983726548 14.6234592999747974 18.7430487742042899   T   T   T
  7.8507556910916829  4.1546807546203661 31.1281617179395624   T   T   T
 20.0639674960495782 11.0848608520190819 31.1752380918782990   T   T   T
 25.7262803240290410  4.4434773995606660 24.5968727206546482   T   T   T
 11.8751702741746517 11.2386182551904223 25.3636801411008008   T   T   T
 16.0444713597151463  3.8981087157671173 21.4269236817810906   T   T   T
  5.6692310352380604 14.6498877932638223 19.9097490797483267   T   T   T
  1.6154255664203907  0.4432268150831276 30.8518610348157694   T   T   T
 14.0289867088146725  7.9005152863344268 31.4289122784586965   T   T   T
 18.4945352457478691 15.2750424472711313 25.0862223439287639   T   T   T
  5.3982294550706946  7.1196999425985670 25.7654235116501802   T   T   T
 11.1564730930737728 14.4987076789567197 18.8022423521307012   T   T   T
 23.7912569816631887  6.0937961342332407 19.6909567537368595   T   T   T
  4.9495741342718391  0.3297327431167724  7.8185077295091165   T   T   T
 17.5186449357831648  7.2220393998862962  7.4782083608392691   T   T   T
 22.3567134464645392 -0.5090516019457130 13.9327535378433200   T   T   T
 10.4740608838717879  7.4664781429203497 12.4877216284685986   T   T   T
 12.5303255655829222  0.0550429085472587  1.9827530492464576   T   T   T
 -0.4150972323452234  7.8727880422288523  1.5771660771735270   T   T   T
 23.1146508288878891  1.6861035258625021 11.5982588764654242   T   T   T
  8.2346951130528119  6.1572076599442882 10.7021049790019998   T   T   T
 11.4039683719674372  4.6875320672961118 20.1300596630331903   T   T   T
  0.7476890759121054  6.0301919616294057 19.4392097958673169   T   T   T
  5.7934231909342708  1.8940854511521545  5.1395876735330299   T   T   T
 17.7652051793151173  8.9192719993739740  4.7374114915083538   T   T   T
 23.6485742597559607  4.9448218880242187 10.7543845633734207   T   T   T
 11.6343683379683647 11.3470935184356776 12.3016434390118832   T   T   T
 19.8316510500824137  6.7877426404479486 20.6102893904053701   T   T   T
  3.8591858258613727 15.4944134205928776 20.3462585036748216   T   T   T
  5.5280163907265809  5.4441422849457464  5.0363330350945565   T   T   T
 17.5807767941600304 12.8652139939892844  5.6672885002185849   T   T   T
  8.5454314809115477 -1.6447015719976668 11.1994083453512658   T   T   T
 20.3587936274288097  5.9435495492818795 11.7139134362343533   T   T   T
 23.5984758142356270 -2.0955657252156601 16.8020047536900989   T   T   T
 15.5545957457424660  2.7141410216037500 16.3975494292036110   T   T   T
 14.6574107008529211  0.0398974947743836  5.5026789486362953   T   T   T
  2.8346326123603003  7.1598374453655937  4.9254896799155308   T   T   T
  3.0211107764914469  3.8501619849105388  8.5620391665983533   T   T   T
 14.8875269575086904 10.8186994264272585  7.4904801954245386   T   T   T
 19.6984378181161688  2.0791981472676895 13.3213784983123134   T   T   T
  5.2161782810163890 16.7414492712539413 11.9502332619319738   T   T   T
 11.0410677094169749  3.7795911519044263  0.7106002288438766   T   T   T
 23.1469560118090527 11.7664842615191514  0.7517633709179914   T   T   T
 23.0561843261275712  3.8820213223787956  7.5127828404263202   T   T   T
 10.7718356554801602 10.7937001465246887  7.5452155585277261   T   T   T
 13.4676394437812732  1.9375795885670555 13.1657406610764127   T   T   T
  3.0435878924331430 10.5870411832615137 11.3626119181357002   T   T   T
  5.6683107403264987  0.1305073721728790  0.5848200237940820   T   T   T
 18.6443039681575655 11.1274197906261278  1.7475648456706934   T   T   T
  1.4222426223879980 13.4455609243073031 11.3768396782888619   T   T   T
 16.1033707090677822  3.4324961399312981 11.5676407038465463   T   T   T
 22.9939915196385272  9.7862576227430367 20.0896739243143045   T   T   T
  7.7197728681785520  3.2886970730775422 13.7908408646398701   T   T   T
 11.7431508410783998 12.9687953117121282  5.3377234334848715   T   T   T
 23.1839135383580839  5.5496561338423227  4.4499896699424104   T   T   T
  1.4124503562125328  4.1043206272920401 12.3255887326763833   T   T   T
 17.0314073654623925  7.3634130877590964 10.9335608454563449   T   T   T
 20.4717295309589531 -1.4367452545806467 18.6432159432317555   T   T   T
  4.2025134407101126  8.4393442996819470 20.4195458267155558   T   T   T
  8.8062265680425789  3.6117208030229748  4.7286313320081748   T   T   T
 24.2245216958051657  9.1936542071870662  5.2117863222949286   T   T   T
  1.9310941136104258  6.9878901262600097 14.1182788099956440   T   T   T
 16.4153928138999063 10.6945239158788645 10.6597377119577938   T   T   T
 20.0273740513529930  3.6057957093898918 16.0423628115197978   T   T   T
  5.1856353646973679 15.0099010382794589 10.8388587843196724   T   T   T
 11.8355833364783898  5.1875963151180784  4.4281367699162049   T   T   T
 21.1899947987545687 10.8884507054917812  4.8870306945168069   T   T   T
 -2.1667671078959732 -4.0777789184594582 16.2525486470240352   T   T   T
 13.5285016099040885  2.1476911924313637 17.2091920064932715   T   T   T
 16.4474969547476917 -0.0988167828451016  1.4195565174748312   T   T   T
  2.7126665592326140  7.9631200247249563  0.6165620982099256   T   T   T
  8.6306878284920234 -0.0674641073320921  6.9287124740288544   T   T   T
 21.6058549126947810  7.1219660426132547  7.7370920165367556   T   T   T
 22.9901089054712955  0.9952255348963499 -1.2066233669315689   T   T   T
 12.7612782566320817  6.6715471621432636  0.8300424376959541   T   T   T
 16.9123285592621215  0.5098138048729048  8.2967532334075678   T   T   T
  4.8804530243529252  7.5632772640878034  7.6235922779257352   T   T   T
  9.3979432333951376 -1.3458545099929136 14.4629445022500533   T   T   T
 23.0521240714947808  6.4689729442510826 13.7233022106034284   T   T   T
 22.8508752128084041  8.2319630829132517 10.7956467532285352   T   T   T
 11.1931494929893756  0.0938379149097455 12.1895079752849345   T   T   T
 14.2073579265970249 12.6244699873043800 21.0481664288834196   T   T   T
  3.4805151395512803  2.5240415634801692 15.4196405254180693   T   T   T
  5.4007421195937066  8.8887832808003697  4.4494512182623476   T   T   T
 17.6185944116855211  1.6979253782554693  5.0944115537393211   T   T   T