Li P  S  Cl
 1.0000000000000000
    20.5609999999999999    0.0000000000000000    0.0000000000000013
     0.0000000000000033   20.5609999999999999    0.0000000000000013
     0.0000000000000000    0.0000000000000000   20.5609999999999999
 Li  P   S   Cl 
 192  32 160  32
Cartesian
 -0.4133395662748794  3.0216556979017941  3.1120839096913913
  1.8493598944860896  9.6710537537757677  8.6005640661316676
  6.5900462010767296  9.9632541199427411  3.0244539586553856
  7.4719470857694290 -0.1281013443579576  8.3942035397568358
 -0.1045241231517849  7.5302969781155360  7.6437759245372403
  1.3492085266519103  1.7144376338696909  0.6102441663247570
  9.9080237636411557  1.7887163462681253  8.0498754380526005
  6.7236645892665852  8.3133835353256806  5.0404703655564687
  7.1040722543287620  2.4469920355394166  9.9865569809712689
  9.1508712534446808  7.7261259273654783  0.8683018854142258
  2.7331094729964405  4.6676456960071615  1.4071577175710996
  2.6444654563079628  7.0513933157870348 10.1278642134593877
  5.0896860087647084  7.1104564494386198  2.0962658839633956
  7.7879359065026890  4.5246000269222835  7.2325038382056963
  4.7373565982052703  3.0504040994106729  2.4503175052644734
  2.6970153666878467  5.0508811636928570  7.3544484563931736
  5.1182284496210988  1.7362959834311904  7.0097926755517674
  8.3518525245626609  5.3264333876090681  2.7302838002042789
  4.5470638019219773  7.8552374993156135  7.6368930708844962
  2.0609432716377363  4.5098423559747438  4.3612020406100092
  2.4772298856126467  0.6436926428949623  4.1790501926732055
  2.3145343662812108  8.0229794326395059  5.2202146066358726
  7.4744288483566121  1.6102860724663361  5.4854786278597922
  9.4165315476312461  7.5596066292611823  3.9833066328540436
  0.1756347355699657  4.2134481631092644 12.7509561277401673
  4.4111119615331180  9.4409977299703538 18.0418759943456415
  9.3329317067424249  9.2488656769704125 12.5779455299143681
  7.6989312670817736 -0.0254539307243197 18.2859952166299529
  0.8677453770769877  9.3808948536892380 18.0504223472062897
  0.5955577287998559  0.9085267483992179 12.2152005944866353
 10.1878179770931165  1.9052699540796949 18.8998882752121453
  5.7111133080594865  9.2863210735290860 13.5925421351848534
  7.1136766398770943  2.6906918223101424 20.5390679488493504
  8.1175515107916301  7.5819246473103776 10.6798068502929446
  3.4402292038183124  3.0996714360566866 10.6566394094121932
  1.9792105906186510  8.5460661865622196 20.5175512536205318
  5.4788710608781015  6.8602386035299023 12.4118025129802145
  8.9795613861987018  4.3027077905230797 17.7672417005891674
  3.9954947585997482  1.2080771583106165 12.9894566343751929
  1.3460947385908850  6.0305610961846856 17.3279442542690383
  5.4715684240011369  4.1330392500474273 18.8016376852007170
  8.5653919866263912  5.2184404616373383 12.9312708542805659
  4.6092509860230866  6.9667046227220570 19.1862981695441341
  2.8367114400171438  5.3917884712672839 12.6506462341329620
  2.2116519147954250  3.1987805157538802 15.2199476176637525
  2.8447756409957656  8.1025031582589939 15.8219182232923519
  6.6976662284226283  2.3247492297133325 16.2471236638683969
  7.9772059746342698  7.2496810000389313 15.1368766353287274
  0.2390296440631210 14.4177872198989956  2.7204026701278665
  2.3021130026951839 20.3482427636280647  7.7101982175621186
  9.9500000682415504 17.3557322117189941  2.9833544222597546
  7.3121976759789229 10.2236084159824827  7.3723692099288218
  0.3213870240534165 16.7934366755370199  7.3359722469352935
  1.3536025312199611 10.9076913317131634  2.1161423041836125
  9.6730066394754317 12.1875023017924526  8.5329447351179297
  8.3822672596027612 19.0396949077893787  0.8800632381316821
  7.1911527782451730 13.0965660905362959 10.0835086553621345
  6.3481189384124006 16.8481239863094956  1.1141847475088456
  1.9733454277554394 12.8702723587091619 -0.0050702678324691
  2.1524137781890396 18.4317001369233857 10.1018899281720174
  5.7507949871076125 19.4880622176034812  2.7843095667329680
  7.8809536568084866 15.1234754135200351  7.1969066502933350
  4.3800158031292495 12.5780121317586744  2.7602716379231342
  2.9434985205481161 15.4775543045446256  8.4145238027022184
  4.7579978290742639 13.0967864680519810  7.5342278563150078
  7.6379150339150561 15.5929639337447092  3.2723536291331716
  4.5750937358630202 18.0626807270998206  7.4306578597039099
  2.6141247223561992 14.9873494449982427  1.8433161956819264
  1.5362011095378030 13.5724158715112093  5.1074103295224038
  2.3802894289421452 18.0869076753371942  5.2293622611707375
  7.0287008829099902 12.2327046288324031  5.4216074634217355
  7.0020803894053882 18.0070020613264141  4.9866230932609596
  1.1422485762459120 12.8067033191241286 10.7256225663752058
  2.6452820286813927 20.1208183149253728 16.2216023664112257
  9.6354146780299210 18.7500888035982776 12.4011411015245034
  6.5646247615813627 11.7156554275124485 16.0071213979239104
  0.0687162555159912 18.2062897197878115 18.1939131773315168
  1.8132454280194144 10.6630465548410491 12.7503310480387810
  8.0504401458094215 10.5818871579890992 18.9855221922340220
  6.7553246713740265 20.3170158378974932 13.8190488592126854
  7.1648517894675541 13.2138280283422720 20.3332255003524409
  6.8912512102029391 16.9416007581244763 10.8077581113803021
  4.5111219626509245 12.8268243064040348 11.6812216714971591
  2.8530936846890418 19.5235489437828100 19.5390058569821861
  4.9478379519537796 17.9592982552689655 12.7705088500682180
  8.2248468342023955 14.7953853237247070 18.2158847743163648
  3.1506547875733788 12.4542483764510035 15.2957600981123178
  3.0368689933307556 16.0869674929781077 18.3774715475592352
  4.4829016402644912 13.2806708786292464 18.3329253785272677
  7.9539499132631022 15.5787512904681069 13.5528607622651052
  4.7269482577416850 18.5929932110406284 17.7403838995801699
  3.2119026576706418 14.9901990317749867 12.4997870655463093
 -0.0889237125554927 13.6149160392851236 13.7186686824831856
  1.9237933224641577 16.6750587781407376 15.6428140439096062
  8.9748299425355391 12.9638386101143119 16.7716035469397191
  7.8099470686523462 17.1707504881479203 15.1302461794647094
 10.4217878974594136  1.1378938387724065  2.1324711545403541
 12.8619803912728496 10.0215687939123086  7.1107222017142995
 19.3342636338995923  9.4292885223302783  2.5185567348497342
 17.7209672384300170 -0.1768645546305392  7.7912549253558687
 10.3025169552653413  7.7395209041203392  8.0584729351715598
 13.2631180858855231  0.5329195212487861  4.0712796167665184
 19.6746418530804164  1.9598718372385242  7.8436297110515589
 16.4729092037793983  9.4333013495744620  2.8324250174057166
 17.9914610274260944  2.2736037001831573 10.0036594077455998
 18.2127327133525192  6.8961850901541197  0.2513685058114159
 13.1087132206647858  2.8039230670773931  0.5747042357207841
 13.4124467338574469  6.6011415082695866  9.7314911823842127
 15.6187017162855000  6.3247029269023107  2.4562689171167875
 17.6547311991136091  4.4379249420330860  7.3430884671638443
 15.2213942395998849  2.8776173226519939  2.0589143175353728
 12.4542648300210086  5.3823963949839584  6.4815566262225701
 15.3034016908588537  2.0369624806334974  7.0726695552120331
 19.8122987149980005  6.1968458387911811  2.5225330375489028
 14.8243275539812807  7.7372501391795412  7.1315041094798586
 12.2521538534125849  4.6438560478787165  2.7721652462777286
 10.6056413096164164  2.7770309061576217  4.4136356832067563
 12.7794466908049031  8.2385871962657031  4.8315262305986568
 18.0048242592953791  2.7260272240666898  5.2154644216453674
 17.8997767865065640  7.5560373321017051  4.8083408021604717
 11.1135248603948948  2.0411599859254630 10.9403172426493427
 11.8365594530316258 10.2190436947733971 18.6830803231767533
 20.1513878550893111  7.0202394694420240 13.3812759982702918
 18.4955518504115197  0.2786783573190900 18.4261257604396285
 10.2268065150118836  7.6412788847678028 18.5270445343464765
 12.4834931519461296  0.0536617509133440 13.3870502476490216
 19.9621398457576547  2.2405291420399012 18.1278390258047644
 16.8992839151095957 10.0290285113463646 13.9030199840820519
 17.6152072463858502  2.5920170933566147 20.2617236841616091
 18.3041902406097954  9.8359229608895138 11.3903210184666683
 14.3395479727574724  2.9185012907583698 10.8327964779153803
 12.8893482930348462  6.2933297151514775 19.8583191654377309
 15.8104586939500482  7.3735185012857123 12.1829855627272643
 18.2488759929470845  4.4932578625065851 17.2406477924866905
 15.1796757142836931  2.0124029682182152 13.4675853446839504
 11.7225836017542928  5.1004701838881648 17.5102838873196553
 15.2502057928886270  3.4969376797068126 18.2362000466159415
 17.5155853547006437  5.3938576846752131 12.4924815423804869
 14.8103657497197396  8.2170180335839156 17.7424273501332621
 13.7390235759782673  4.8787834019487928 12.1984879506980075
 11.4464588317411113  2.7489847946127628 14.7434990981209637
 11.8312698212855469  7.1952815335995268 15.8705269288820023
 17.0665280288071450  1.7492950294936009 15.9047686118093949
 18.1005590167214088  7.6917774149072429 15.5852829092623608
 10.2250911275041929 12.9034141561711007  3.1558070359197701
 14.2911760105994752 18.1222877110332945  5.4783438823184705
 19.7301337782243493 17.5456999660993951  3.1074239413161679
 18.7692308545755040 10.7386930772063387  7.9439596320808930
 10.7143853619590104 17.5379988811593037  6.3128307308303686
 12.6616312508003119 10.5508891734927417  1.9895357845870190
 19.6564847335637793 13.5454776177130984  7.0361626884317428
 17.3700062466864118 18.0463373043377580 -0.0017467503819252
 17.9821222336925217 12.8336185266765757  9.8224937883802337
 16.9133903191701158 15.8773348030536781  2.6273575677932413
 10.8486504633064129 12.8243839429230597  0.5452503561135341
 12.6395676123333569 19.9072860105208278  8.5185590448611723
 15.9914630033657197 19.7912389227730152  2.7074533137475485
 16.8272325647250369 14.8413822838892724  8.1645825323849852
 14.4854062211383159 13.0867359777282442  0.8894243472332378
 11.7436416390162801 17.7077627609080963 10.0308355894296373
 14.9734946344372872 12.6869797173169285  8.3597272610399500
 17.1646115467912495 18.6724043798111374  4.7737390642779323
 14.7239397171062762 17.0360151427940956  8.5305158027525341
 12.1702583296549740 15.0961672062888770  3.2143709242648391
 13.7579249613920371 12.1623819070981067  4.5181349812006371
 11.7926598163664220 15.0651249203481132  7.4481347088854877
 17.2180877611658971 12.3489139553477187  5.4701925049248441
 18.5840384646121137 20.0059476998156640  1.6362471546862782
  9.9419062741148885 12.8331893239756472 12.7130246521762853
 13.1324789911142226 20.9453560662057114 17.5112633925985151
 20.4704808749154985 17.5414502810208752 13.2086510202770757
 17.8472112571361698 10.4979325928836946 18.0659710873724144
  9.9408186439066437 18.1970368921741752 18.5744853121149980
 11.7966555079050064 10.8911918040659543 11.3370567106796294
 20.0975742980589445 13.6103204081190547 17.4292524676439413
 17.9660981068804944 20.3121116121156255 12.6644203691545663
 19.1183886324769539 12.3509721569287549 20.1655400942702911
 18.1417665272110824 18.1386421515977858 10.4374738885044334
 12.8197189278410519 15.1384975604123468 12.7281112114065227
 12.5181152883216580 18.4265596342967690 20.0937568834696059
 15.4359553675505321 18.4099586963202952 12.7593536928690447
 17.3353537592669866 15.1922329038329771 18.5963896679196310
 14.4487442199422649 12.6343421494773711 11.7845234583268894
 13.5642917777115102 15.8882186518270778 18.5615741668688372
 15.7352507167467799 12.6423956584876329 18.9352334815351604
 17.0003033387074041 15.7508814500482348 11.9108485794495849
 15.1751314106364941 18.7508258357344744 16.9048513539796765
 12.2448300833697878 14.0673274637226555 15.2159306111860317
 12.5356533801716559 11.4052294950302340 14.8332834800128595
 12.5191072097902829 18.0350413542148544 15.7452615079207359
 16.7810457098688772 12.5761810751577077 15.5874374519433463
 18.3493562994114967 17.5839363062324345 15.0129712044280765
 -0.5295151190218542 -0.2293743205097108  5.1042149514243054
  5.0291009853801558  0.1141342616981380  0.1451118107227618
 -0.0082484768962644  5.1008297728261560 -0.1697410148772817
  5.2300844657223182  5.1353664526271485  5.0964088988792788
 -0.2699025070637260  0.1004217657527079 15.4443176968915505
  4.8910977876595343 -0.0549838717349853 10.4258242806882340
 -0.3033877797363589  5.1601257331960992  9.9182260437090335
  4.9817003614752204  5.2281755839763937 15.6065891754906083
 -0.3904588162917084 10.4016703890661262  5.1344300370648837
  4.5651603316541669 10.4123703118145787  0.1968583381297863
 -0.3826656972543779 15.5513206294313857  0.2839299468096962
  4.8688460686089332 15.5265981881740718  5.0351062171720287
 -0.2539240455120293 10.3659358064437566 15.3293970761173242
  5.0259864412630355 10.1785926594473999 10.2102028751763676
 -0.2810018936412884 15.3136150427838853 10.2105710153146028
  4.7903774758633304 15.6954353127567661 15.2446697364951849
 10.1370865008878717 -0.3651612782237726  5.2573946711702577
 15.3758559396053247  0.1154529514723046 -0.1716641658739991
  9.9793715490286115  4.9107464021704272  0.1396231130956041
 15.0020043236153136  4.9249092730667554  5.0257460615975802
  9.5768598837931247  0.0527308664649276 15.5775495272624394
 14.9893239049762688 -0.0211613431277865 10.2305480753651086
 10.5365957097127474  5.0077127732064559 10.1262196603003396
 15.0456884558738260  5.1358657364565099 15.1798215490065953
  9.9272716703175199 10.3356762971236087  5.0125681409541132
 15.4445548159448762  9.7679280532817820  0.1239887387309294
 10.0652087267900470 15.4661606079796332  0.1507026307188947
 14.9085042819420011 15.1175231529391425  5.2093212325614227
 10.0051513956026099 10.1378571041022205 15.6234357451286687
 15.1168843124579055 10.3516861136844831 10.2764244262845690
  9.9053251461245839 15.2532948940721678 10.5003684266202413
 15.2569739574201808 15.3762717887684861 15.4402242847148106
  0.5541359185127713  1.0720071839149046  6.1095382844278303
  0.8091865348770249  9.3317474716336317  3.6946208755854308
  9.0648519551232525  8.9647913401148127  6.2766638889916226
  9.0300042410877364  0.9035308490984005  3.8167845762276307
  6.4535155316966177  1.1650700453103326  1.4937972355888811
  3.8046101686428506  1.1704582819103393  9.2501446654400663
  6.1960534250568466  8.6557459346242638  9.3554553207175211
  3.4117571616740845  9.4231846730913063  1.5285326689323169
  1.1408563503399702  6.4327015271027417  0.9868410827839739
  9.0883504008892864  3.4888024077878375  1.3559311865511769
  9.3070893715645475  6.1658261421990366  9.0927935647701066
  1.0012810013641784  3.9639404161489384  8.9557573140027955
  6.1063916741497106  6.3470976130398125  6.6055809853353544
  6.5716198770644692  3.9421209141836462  4.2414196026804909
  3.9128966513374199  3.8327741809529519  5.9534117725410081
  3.8630443541999031  6.3154712292034576  3.7624361810501110
  2.1896709782599637  2.7384941740552105  2.8924812402034528
  2.3108566586535533  7.5226195836216112  7.3170339718640705
  7.3724034625231205  7.5655363126115507  2.8490855981286303
  7.4011594042930318  2.3164562367021655  7.6096197082469290
  0.9260029958947088  1.3370853361384090 16.6968535588176152
  1.1064405903331882  9.2110139350763163 14.3452544382049840
  8.9807445954042642  8.8180401695398878 17.0039343427744214
  8.6554135620630532  1.3229139000761099 14.3724946868183121
  6.2011674818993558  0.9981692447076066 11.5475072457785739
  4.0796913259855039  1.1148088095356823 19.3406355267990051
  5.9445903803746445  9.1086825505924516 19.7883973097969168
  3.8446853656986528  9.3929390452483847 11.8208824121618541
  0.7543021603707160  6.4517062489639789 11.2600044361724585
  9.3781159102285407  3.7271300819047299 11.4266646119210069
  8.7678626148181689  6.0425931575578762 19.5546038695587612
  0.8998762105261952  3.6250867152463657 19.4842583499795303
  6.1495208308832012  6.5024818565504701 16.8441089646986093
  5.8929397416854501  3.9132320815568953 14.3404367227295282
  3.7590025160034268  4.2829784824042862 16.8357522838775679
  3.8860801336154860  6.6915895243081209 14.3811791674569243
  2.3385602486052335  2.7665994905466493 12.7067355678564304
  2.5042697626393160  7.7912381985136578 18.1946235245878682
  7.6775459867956135  7.7497264862547128 12.6425581145330632
  7.6513520812672597  2.5212703950280364 18.3915439134137308
  0.5639173317760133 11.5398829925663264  6.5963356720606781
  0.8091470827595413 19.4339442242902614  3.9158235336691605
  8.9053643979505193 19.1994163678014971  6.6787296107047629
  8.5477846478327049 11.4127704331724935  4.0297823036760931
  5.9484897868602848 11.6128308347128328  1.2132808148793188
  3.5647189393043939 11.2611490463604618  9.1771036112418258
  5.9184159910527114 19.0730817408353310  9.4996032827352117
  3.5082672899448086 19.9104967482667021  1.3120504450140336
  0.8191327378138776 16.8177474877454181  1.4413086073275228
  8.9410580955390344 14.3224627515003284  1.5773953935902272
  8.9302400658874443 16.5491506220622355  9.1497702990118608
  0.8892306396005628 14.0316926077525537  8.9841406350738566
  5.9565508520891521 16.4561481164010672  6.3675077065062835
  5.8603108894435367 14.1144544965307670  3.8832422152077264
  3.2804739707694286 14.6802461112008586  6.3052910928781776
  3.8683069134414336 16.7283875330155212  3.8151990623310565
  1.9597056456819728 12.9545715017266154  2.6493365455708489
  2.3870333002929507 18.1332402289907968  7.7371458773867303
  7.5540758985215177 17.7656998528537429  2.7078095500247152
  7.3033979923045287 12.8281522374487853  7.7048036653523981
  0.9916549747182947 11.5217974733568216 16.5747966598114864
  0.8842079418988948 19.7164003354864406 14.0718632303911573
  8.4011883675785519 19.4108540710012178 16.6828572440855467
  8.6203995093964192 11.1808882398921057 14.5073054614620229
  6.3468017479352028 11.2144932174498138 11.4250566146865999
  3.4571338967800149 11.4548531035024634 19.3404956897522808
  6.0586328416961575 19.0314380758309092 19.9934589306633512
  3.4750836952438084 19.5721471969798166 11.5938678210713686
  1.2003003172051412 16.4946415005101095 10.9825740840496326
  8.5755370571352181 14.2804547506276212 11.6902423566092342
  8.5856825661573488 16.5813306963378153 19.7161786914388202
  0.9059421201280526 14.6580509144404729 19.6343213748735046
  5.9585604956036713 16.9544639570799198 16.4188196163018745
  5.7759497603570855 14.3069101320090315 14.1050326692850696
  3.4607791256837763 14.7469446854467261 16.5369684630287210
  3.5241927729176314 16.7515430305968955 13.9983628769643751
  2.2203926073326685 12.9388828617302334 12.8047206017314981
  2.3590146513487391 18.1734957682380056 17.6235924323919555
  7.2264891460932814 18.0030134746552655 12.8851896712050653
  7.1645892456454865 12.7285566912844796 18.0422036534416179
 11.2063064775275549  0.9456401246108125  6.4395574483175961
 10.8096728454166815  9.2776190846187845  3.4470451630828753
 19.5331711003784001  8.7431697663822785  5.9747241608471384
 18.6048779484531828  0.7658575945221153  3.8323211131574539
 16.7616722888580298  0.9661032543136533  1.2602485707368565
 14.1132841522468517  1.0861396158472352  8.7852008315679626
 16.2254149084052521  9.1566175664558997  8.9711239834532588
 14.2693723323398647  8.6883459926334545  1.3933537923723920
 11.2926915457431871  6.0672924702716697  1.0804603747605239
 19.1879752339855436  4.3525136382106275  1.2010965047993074
 18.6833875880180287  6.1097534265372690  8.8210585395083889
 11.5622527123352157  3.6907725565143865  8.9711740854881157
 16.3815671040871997  6.1804690248579872  6.1045416630153939
 16.2590655472470509  4.0148826019969732  3.7421466681434223
 14.0474499026003308  3.7911664224584531  6.3822022243310004
 13.8017006146872578  6.0219941373613750  3.8160385259409288
 12.6256866729022708  2.3365194492060710  2.6779589336531884
 12.6056701668577116  7.7192717667809241  7.5673030285121987
 17.8955032319895935  7.6794599571767366  2.5241214623038104
 17.5544208034340983  2.2123004209110189  7.4364677311177010
 11.1247704337491342  1.2614669950748707 16.5020508558688341
 11.0302492999993067  9.0212583551906036 14.2688848000098218
 19.2579954346243589  9.3074307601572883 16.7232062124178213
 19.0400046627477728  1.2316546278143314 14.3381135525339936
 16.2285166518781807  1.3099115417487992 11.3573410472860168
 14.2777685310619837  1.6727347000387751 19.5551797414818189
 16.7975538024325139  8.6246463706903160 19.4224128754286660
 14.1227584489540394  9.2020888817850288 11.6522025376710232
 11.5819762505100652  6.3504126024896816 11.3259638745348354
 19.0098100338546239  3.9968273656355442 11.0956171629843361
 19.6207214704580046  6.2530528841313684 18.9725804862714647
 11.3083065959390012  3.7289606323027078 19.4913946350156166
 16.1906638198742918  6.1097536613150503 16.5087684369614429
 16.4303212759876907  3.8498813289916725 14.1457040048041343
 13.8376592759732766  3.9318572527359095 16.2769354891119207
 14.1803528645836323  6.5546348821139668 14.0441508622656848
 12.7339265263909027  2.4514204421573162 12.7935403871224533
 12.5640142784042119  7.6390151926993779 18.0830460874369798
 17.8882862104876956  7.8813465429420964 13.0382489414447971
 17.6370032726259254  2.4275297279826993 18.0842173065126808
 11.1909375276262928 11.5247273856415333  6.0051795949000111
 11.5570748701730768 19.0291304701839188  4.0837831587430280
 19.0948859089382594 18.9999646524557946  6.4143240720542281
 18.7838277025765983 11.3608050603490298  3.9136259380824954
 16.5009829638488625 11.2300421221428017  0.9926956404596878
 13.5324735442084272 11.3783637141776701  9.4629520812810028
 16.0699647024606023 19.1443490789838506  9.1143103684808739
 14.2562791636154387 19.4517037788040597  0.9898415713781504
 11.2642673296717657 16.9445293510414494  0.9320206504274945
 19.0329107291093180 14.1259494546521864  1.1801354783822382
 19.0166174706737792 16.4012730586591289  8.8209911661835800
 11.0583201495902870 13.9408074700100677  9.3857014203519356
 15.8742563130984351 16.5949959881591234  6.3194272938374061
 16.2756461289057555 14.1525260060942344  4.0045579343500721
 13.7326892654071830 13.6655781216334713  6.2910793727216916
 13.7687811132152831 16.3455203069490054  3.9376030074396811
 12.5368301202019694 12.8762067939704199  2.1913738584332880
 12.3462741354133954 17.7195210082385692  7.7481392832810210
 17.5879580766307377 18.0167271518565499  2.4096277477234813
 17.4711631668414249 12.5440909412101238  7.4857088301453203
 10.9517396179574131 11.5906544062716161 16.7867490271101545
 10.9434206095949058 19.2636302923403058 14.4463966540866835
 19.0580517893587249 19.3950929935990501 16.4938101548547067
 19.0434336597797511 11.4585702924353345 14.2499624154549558
 16.4312580910538664 11.6681021882671914 11.2968577166102300
 14.1765607941189469 10.9084112503225956 19.4658188324221726
 16.3918031685279892 19.6889039692184262 18.9338725220374258
 13.8504957741312662 19.1470665473985804 11.3594086343243212
 11.0688997928643591 16.4419142276476222 11.8140340847995944
 19.0995322316234386 14.2300943916903311 11.5202409558672993
 19.1341755708441141 16.9145937705529406 19.5882997304037829
 11.0322978855973979 14.2958129768574036 19.2487885316075236
 16.6662655406422680 16.5186800584699789 16.4424382698425333
 16.2568476563985236 14.4266106190218757 13.9969577670117040
 14.2100833675927216 14.2006934661564941 16.8905343139767119
 13.9886410922384936 16.6703464099187499 14.3856832328087911
 12.2990434856590518 13.0439343176010638 13.1246078988658486
 13.0675106580157525 18.3356826511780682 17.8706091158460829
 17.8588372201622860 18.0891454258165538 12.8479508241681515
 18.0015381945702089 12.7307920049750880 17.8845764925660511
 -0.7327179868004897  0.4491346227870375 -0.1399588925821055
  4.9189760649157712  5.2950528921741924  0.3689130388835415
  5.0373902592975064 -0.1463957983766405  5.4598559743196189
 -0.4169063247508036  4.5605429602048124  4.6712181555254109
 -0.6013636143463330  0.0772017504383360  9.8181481293548387
  4.4950575930479149  5.4953499510575696 10.8773791044646799
  4.7962008571729324  0.1209099117524053 15.2304950469418792
 -0.0627117964132113  5.1359847433753147 14.8440175595193331
  0.3396412111978084 10.4776577273906586 -0.1204253020007518
  4.8074423472150345 15.0980137490414137  0.0567748189311619
  5.4069634088024028 10.1476816283818430  5.4487796362354057
 -0.1472408270985637 15.2440912522550942  5.1995713295988555
 -0.1644815112268860 10.0941143408151159  9.9633147544900016
  4.7521641989573125 15.0529471696844475  9.9975837437663699
  4.7913814774678603 10.4860866668088182 15.7426431919992265
 -0.1753096569632555 15.7969591431126304 14.7145008433093682
 10.1346841476999519 -0.0936579892575910 -0.2452013140847453
 14.5893403622183939  4.7358384174838424  0.3408186568364965
 15.1883228419469081 -0.4217841095290407  5.0652618732355146
 10.2564520891537203  5.1386502492850381  4.6504630386450776
 10.1977334195120068  0.0075151028602767 10.0907031432225711
 15.3430457598488328  5.5158316677242958 10.6996036448373815
 15.3176272486182352  0.0037338694441540 15.4345636468950591
  9.8336997773096204  5.2197629562470418 15.9757968928060414
 10.0859905098817109 10.0499633624072207 -0.2652253494698832
 15.2209048480312408 14.9774245662751095 -0.4559929830357666
 14.2007124215207110  9.9647423614686250  5.2587273838026301
 10.2933617054543713 15.5497323439335222  4.8536386781116674
  9.7836430659856788 10.7500778713285303 10.8766201012064876
 15.3158813614718756 14.9888750746116148  9.8014269114731842
 15.0867686402953787 10.5423245043031653 15.4353323430907281
  8.9289069481808561 15.2304862947816080 15.7331522961173800
Cartesian
 -0.0133858742805615  0.0030267520815000  0.0168452276770240
  0.0176581477277978 -0.0093173512497359 -0.0055691211791089
  0.0078600009285611  0.0196034218796619 -0.0089135325492879
  0.0120776259929527  0.0090596873759288 -0.0007789896156565
 -0.0007154304661970  0.0114706593134201  0.0050874418038262
 -0.0014639234711647  0.0005524232704326 -0.0162331320143702
 -0.0035060287447391  0.0054564464882193  0.0109133407149114
  0.0048927457036382 -0.0160600153814809 -0.0154822848449040
 -0.0002066521400884  0.0035317604881833  0.0022507640640820
  0.0054220684332153  0.0226342297007864  0.0142027898922327
 -0.0115096050629363 -0.0071101752569800  0.0241541559334939
 -0.0026086786874188 -0.0125120920636299 -0.0156549121026014
  0.0023459867859305  0.0245447153678411  0.0143608533940107
  0.0086555506075810  0.0143373454167591 -0.0040066868708571
 -0.0012454301043640  0.0093118052790044 -0.0027741840817959
  0.0030833766297852 -0.0025519870448705 -0.0053546337757953
  0.0069521419032231 -0.0015830723364676 -0.0006303502312439
 -0.0082933488125104  0.0071332773133113 -0.0057072588744015
 -0.0089938627036021 -0.0112076181677359 -0.0071682673003449
 -0.0050825521310470 -0.0015051124224721  0.0069301911812842
  0.0101479088586561 -0.0220988548625911 -0.0076365205314074
 -0.0173383082985562  0.0020592894950009  0.0038531290971604
 -0.0054517657641963  0.0030806226035257  0.0082049171486318
  0.0009083228850548 -0.0025130564744021 -0.0012992820287645
  0.0052326822475469  0.0074603995577724 -0.0102159422483676
 -0.0036201121365911 -0.0295740934264661  0.0152785749712323
 -0.0092625940577199 -0.0008568359226829  0.0030211873584604
  0.0084036974125818 -0.0033532251058794 -0.0033718452486729
  0.0099587964403615  0.0097634549964334 -0.0094897345155001
 -0.0052740459132890  0.0119603460160579 -0.0016507553773964
 -0.0108896783929034 -0.0140978869985585 -0.0043075778618782
 -0.0048964417513587 -0.0006172244217853 -0.0033313837202315
 -0.0135040212487186 -0.0093765881820509 -0.0012142741547737
  0.0004944325728553 -0.0050294495606068  0.0102997831084246
  0.0008383936559011 -0.0027164429708279  0.0020268809777313
 -0.0072177201285766 -0.0003141360727918 -0.0073712941815810
 -0.0048417117567448  0.0050741148023517  0.0097184641375483
 -0.0029277672544677 -0.0002637287875157 -0.0026506279869386
 -0.0020476974311679 -0.0007805397088512 -0.0054391970921616
 -0.0076731979131730 -0.0073714233383456 -0.0097534070407057
 -0.0086218296837659  0.0103787413702894 -0.0026409894290755
  0.0117770137588595 -0.0032174548279427  0.0002839065277671
  0.0136036822343716 -0.0080324739449144 -0.0125269296858415
 -0.0050753043266386 -0.0043474261217141 -0.0159111937620813
 -0.0033436659244068  0.0010585473280170  0.0206941789722251
  0.0048680349506944 -0.0088734462497611 -0.0027692500826949
  0.0023456558129768  0.0059950727604690 -0.0157319309084409
 -0.0007794700977912 -0.0013626385022267  0.0089431140229821
 -0.0048490827574405  0.0107512336799999  0.0087686233961439
 -0.0044088293841663  0.0103270398308073 -0.0243442536434608
 -0.0092372955949233  0.0089473587123216  0.0031358968121196
  0.0119752419015674  0.0121968543582561 -0.0015500914211127
 -0.0031986516061191  0.0044293837069679 -0.0037942793851833
  0.0022552284421971  0.0076059871628306  0.0070160394480108
  0.0149117181906840 -0.0019779512966629  0.0020332955141114
 -0.0060550539012707  0.0213932038808921  0.0229061183063409
  0.0042585455822894 -0.0088831970494439  0.0072489624675024
 -0.0008633680158104 -0.0111177177739526 -0.0116391286525174
 -0.0001259282010014 -0.0031418718256942  0.0024328877167967
 -0.0239522389029274  0.0128945961897923  0.0039915794078576
  0.0126713754263953  0.0079749955485966 -0.0070036177030694
  0.0071787625181954  0.0119139563089460 -0.0007110195703709
 -0.0109507987556465  0.0011085766810258 -0.0216383206783717
  0.0006908914872308  0.0199984524593416 -0.0018152313158635
  0.0040412828078567 -0.0017805451953444  0.0019291092875619
  0.0058834081794001 -0.0022595466299664 -0.0070024989295662
  0.0019067820689288 -0.0197814020875427 -0.0111243887776248
 -0.0004569637866716  0.0040755463921045  0.0039392531215397
  0.0012822192474755 -0.0043470311378600 -0.0070182309631917
  0.0131540038451326  0.0025613044646874 -0.0042848603475886
 -0.0071469784328955 -0.0080098202922949 -0.0095408621498479