Li P  S  Cl
 1.0000000000000000
    25.1819793006824639    0.0000000000000000    0.0000000000000015
    -0.0000000000000009   14.5388225279766061    0.0000000000000009
     0.0000000000000000    0.0000000000000000   37.2126966544236950
 Li  P   S   Cl 
 286  48 240  48
Selective dynamics
Cartesian
  2.5336369494169690 -1.4536409624671018 18.5860900264731015   T   T   T
 13.5998527685767847  9.6115762088006349  6.6627769786680480   T   T   T
 19.0415360300668119  5.7399313531861038 16.0156533910732080   T   T   T
  5.2935450130910979  1.5854291516230690 12.4389736457886873   T   T   T
  7.2547393696746987 -2.0616080093993432  6.4222079518050563   T   T   T
 25.2002173895274453  5.8037281499844910  0.1348450216760069   T   T   T
  2.0906250431139881  1.3058545603864744  8.3883623314317735   T   T   T
 10.3632742496212700 13.3359648948686189 13.7173120814041898   T   T   T
 18.2266817393402221  1.3313171865089808 12.1249866046315322   T   T   T
  4.9281480110264111 10.1052576763138315 15.0909568154148648   T   T   T
 14.1103297845277886  2.7814558953646760  4.8030826798041604   T   T   T
 25.1513782399135799 11.7885786329699620 -0.5467838281172784   T   T   T
 -0.2651908247989498  4.8775590649747986  8.6695534848932834   T   T   T
 20.5756179201945031  1.9151577019857571 14.9145262578269389   T   T   T
  8.4586650551081011 10.0272916835362231 14.8222758726071824   T   T   T
 13.8118340529461232  5.2930946107237205  6.4442954253189333   T   T   T
 21.6267200364041372  5.2606589356428124  2.2971772422340262   T   T   T
  4.4376414718765895  4.7354666633038347 13.9591571960136314   T   T   T
 16.1830875312142943  9.3159137112357815  9.0493791601847313   T   T   T
 17.8486973263634034  4.8178669347129581  9.9835162776101853   T   T   T
  7.4877165379924602 10.5018316936438438 11.2403005599051884   T   T   T
 10.7102570613333707  7.5738545959342334  1.8070581065541242   T   T   T
 27.2439791750939051  6.4657223844140095 -1.2108924358107291   T   T   T
  5.1797420918105219 -5.5592315074865759 12.5751989152349193   T   T   T
 12.9411384484391245  4.8367683492702769 14.7898506449402696   T   T   T
 14.4865039084409677  1.5976118975667120 23.3195833458976374   T   T   T
 15.4831396834400685  6.5427334759152149 13.2579401929018186   T   T   T
 10.4799472315027185 -0.2389714943644119  5.7217591543424451   T   T   T
 22.3609087875135266 12.8370257688503031  0.7170526345395840   T   T   T
  1.5107754906476671  2.4421099286298684  5.7938029528540298   T   T   T
 14.7876376235415794 13.0449576651997834  6.9220762845722641   T   T   T
 17.0591024861844645 -0.0999871257035444 16.7252616868178343   T   T   T
  3.2376218236849801 12.7059782979249363 15.6839597324261089   T   T   T
  8.8665991753956028  5.6292949980673939 -1.7298341961496924   T   T   T
 24.3811748164875866 11.2169706126043085  3.0314775185725877   T   T   T
 26.9543916568246651 14.8294642620316424 12.3349823628444124   T   T   T
 11.0020632109380951  8.9407343699713859 13.3287238802611334   T   T   T
 21.4097825097828007 10.2310099854889600 12.5276478351278833   T   T   T
  7.2598445939588245 10.3702033652103278 -2.9672701698432586   T   T   T
  8.8671694424879810 12.4933559279095086  8.7615688069216215   T   T   T
 19.7631138849869039  9.5035900720070039  6.2094677134479834   T   T   T
 21.1093694068425357 -3.3291486970160795 18.7466579510405396   T   T   T
 13.5056175294587035  8.3613843462379140 15.6008630603140936   T   T   T
 20.6010448268932862 -1.5081051756819919  5.5796846325966225   T   T   T
  0.6935463897795486 -2.1958614491259505 15.1554612100466368   T   T   T
  9.7591347240678630  1.1876504239904992  8.6942712085244356   T   T   T
 20.1902956571531256  6.1387905876851185  5.1501930254670985   T   T   T
 -0.9590822722286713  2.0110162059616687 12.8241284441828309   T   T   T
 13.8467868898952684  9.5513273678465538 18.3409739213279650   T   T   T
 16.9162047746268662  3.6057111082423585  6.0454954934321865   T   T   T
 14.9833933728499069  1.3218539790700403 18.1123045912955369   T   T   T
  6.8385640509386905  0.4415659300482426  8.2679340921871614   T   T   T
 23.1651293916424734  8.2910519223577079  8.2132413139569209   T   T   T
  0.9073415001870239  0.8486056871726368 15.3630905841727436   T   T   T
  4.3203304260543351  3.6254424237194800  9.8903459037854002   T   T   T
 19.9036124887092569  0.7771455666186858  0.1647310807978908   T   T   T
  2.9558651185658831  0.8677171543150902  2.4734890208484597   T   T   T
 15.0678601136666810  0.0500827987160689 12.9390709023996990   T   T   T
 22.5051668208143205  7.6692542966413901  5.1009284615009802   T   T   T
  6.8429271868251424 13.0600844099317772 13.5253212675191588   T   T   T
 10.7121399341710131  7.2729640098846904 15.5073891887191895   T   T   T
 14.9767046851958856  5.7476783471054107  1.3435633018066029   T   T   T
  6.0700326714220472  6.8593061994978788 -0.1127241167909948   T   T   T
 12.3097023300835495 14.8651961831149464 20.1559805591373369   T   T   T
 21.2708972337444671  3.4691830323913857 12.2439345231740599   T   T   T
 31.8048066853978675  2.5176250426023090 15.1690095973915735   T   T   T
 13.2886403780643363  7.5295882998670054 10.7932517248024755   T   T   T
 13.5733291288090978  4.2681100530436327  8.9967753447482917   T   T   T
  6.8685011843202988  7.6134974646226725  2.2396858784342615   T   T   T
  7.9467228699024721  1.2807303190857360  5.1162124763201895   T   T   T
 19.5059763453913853  6.9155360106552344  8.6507496580889018   T   T   T
  3.8171038991165611 12.7855328708584395  9.1234810344372601   T   T   T
 16.6331474926546008  2.5335783491592108  8.6959736080134480   T   T   T
 11.9989288985356026  6.8190785403646412 20.2146718470953104   T   T   T
  6.9874176687137366  4.5959140941352601 11.4510886970323522   T   T   T
  9.5573816353307830  8.0780423242096120 -3.1870152601091970   T   T   T
 30.0554546539487042  3.4499936478774660  6.8092905470753911   T   T   T
  1.8182585012982611  9.3022037374413564  9.2780676442454606   T   T   T
 17.1143459343733788  3.1784268719763964 14.7180618498034903   T   T   T
 17.5198202437235437  9.2580095359774397 13.4164267532762427   T   T   T
  2.7122077004568559  6.1492847443630962 17.5386314253026399   T   T   T
  9.4564585304948920 12.5091642322816323  3.0741952683694813   T   T   T
 22.5850873456002006 -1.0993874408207409 -6.9131989322929162   T   T   T
  2.6625645871107482 12.2930987141852732  5.3851106487302234   T   T   T
 22.5899764056853734 -1.7585653532459575  8.5900463412712398   T   T   T
 23.2783358162113743 13.9350902861379211 14.9992221142028122   T   T   T
  3.9857475810200413  3.0729829614276536 19.5629404788599324   T   T   T
 20.0399311020715949 16.6805850485288261  3.3981340120206980   T   T   T
 22.8385865112171054  8.5115399801211016 -2.5955303617921603   T   T   T
  1.6467741254245982  9.4821282041729820  5.7006599188418976   T   T   T
 10.9827986869907654  5.7784687118850897 12.8812382670362098   T   T   T
 20.2009307160432563 11.5768290327453016 10.4430391211190052   T   T   T
 18.9657388335179071  5.6228066118297777 13.0904665207918587   T   T   T
 13.1271138738545172 11.4469106736090538  3.3144577370013715   T   T   T
 28.4479455924144595  5.1491923314298074  4.8819541436750029   T   T   T
 -1.4065462856735189 15.9045920478500289  9.0080918773403020   T   T   T
 11.8866087251946748  2.0489544832604638 13.4184916973050594   T   T   T
 20.6090469252627422 10.5043395612079191 15.3838238533807239   T   T   T
  4.8725494837634002  6.6911902573386595 18.9117140834250428   T   T   T
 11.9844159286229903 12.7169214613715287 11.6681141178797443   T   T   T
 23.6370610020708014  1.7551406715621787  2.4587739691129769   T   T   T
  0.9469307480319874 12.2970676976982087  8.5746488989111480   T   T   T
 10.4716989821707394  6.8180987682562266  8.9550326368784674   T   T   T
 18.3862259741372469 12.7922545006454520 13.5764010665449266   T   T   T
  8.7764524149062950  2.8554017255820803 12.8281860626872817   T   T   T
 15.1616002651892359 17.1503127963178628  0.3029788724443573   T   T   T
 17.1327553778228108  2.7946916366255503 -2.8899356704249533   T   T   T
 24.4374052909610704 13.0525329441702276 12.3654921409101881   T   T   T
  8.3831448431115803  9.2110578410152204  5.9643011763818121   T   T   T
 19.2070767732264223  9.1592081038926239 11.1905493225210275   T   T   T
 24.6256678297216958  9.5759977640431568 12.7864210852432141   T   T   T
  3.3464663275256243 12.2465665003814976  2.9266837915918038   T   T   T
 19.2526683686110154  6.3995470388401303 -0.2893843873553251   T   T   T
 23.5763398163673763  0.2893357170400300  5.8063667488907047   T   T   T
  7.9648066839419966  5.7851134114857636  5.4055155507731083   T   T   T
  6.8700375669502654  5.4074260992099585 15.4342426771436170   T   T   T
 25.7371743978442211  5.4347557553537422 14.7219935817160401   T   T   T
  2.3860280647080807  5.9342086486943524  8.2923247235340387   T   T   T
 18.1434010780038122 12.9998451258485552 -3.1242290822989651   T   T   T
 20.0998268877604040  3.1197306503300051 18.9163231170727855   T   T   T
 12.9015511423172402  1.7489676062392394  7.6450452824632222   T   T   T
 10.6547553975362597  0.7220240113744186 17.1283903554487154   T   T   T
  1.5576025835775724  8.5796626622218586 15.1642410409149004   T   T   T
  4.1845974498898855  2.6802001612222024 -2.4560821605009076   T   T   T
 21.8797672832572232  5.2703788887527274  8.3215739846999615   T   T   T
 29.8601072829707697 -4.5902176195191720  7.3035806073253102   T   T   T
  9.4103988454714074  9.3445514944845502  8.5649831054715850   T   T   T
 13.0008664015106312 -2.9177407574062748 14.7905165323200514   T   T   T
  2.1504570103503666  7.4945154962717160 12.6079884978644223   T   T   T
  4.6323937454875628 -5.5333063349440073 -4.7744884685943072   T   T   T
 26.0651238992607013  8.7053253625963904 -0.2016565408733045   T   T   T
 17.0677789640155133 11.8341350236173302  8.5679492971438265   T   T   T
  7.4168731504818535  6.7037012311323236  8.3999004947251379   T   T   T
 12.6709506596156984 11.8225117323290121 19.2236912725344204   T   T   T
 -1.3890534217178565  5.9209789842980545 12.5258358976826933   T   T   T
  6.1538289776056407 14.5757258199740214  2.6847129396471630   T   T   T
 20.6499109524923092  4.2221850755932451 -2.7443364372886361   T   T   T
 19.5805380602535450  0.3860958726381257  8.5264619144680225   T   T   T
 10.9336714982626209  7.3530160861122900  5.9574793229976883   T   T   T
  6.7558200934209731  4.1630359327377562 18.8648137468521391   T   T   T
 23.0524557261372749  7.9966704804715034 14.9045262192499948   T   T   T
  3.5103657794041125  4.9959471129924404  1.9208606333410549   T   T   T
 17.2899929139217221  2.8170453911708218  2.4341319712936746   T   T   T
  9.2461996878669446  8.8914822308855914 29.6703363179746908   T   T   T
 10.3919780281154637 10.1372754460989327 31.7612412568223696   T   T   T
  3.7684289161673341 12.3455444087518451 22.4789108687548520   T   T   T
 16.3879553381210279  4.2023960729950360 24.0180107491118058   T   T   T
 18.7615766562617274  9.0157643678506094 37.4075841540271625   T   T   T
  5.3724573868772589  9.0271865107946017 28.2878185434962823   T   T   T
 12.5439857576251015 11.8871229751499570 29.8868283007116808   T   T   T
 23.0226093386514172  1.3010119563992735 28.3807267673897599   T   T   T
 -0.7999588216648712 11.3134937271484919 18.4222096478355333   T   T   T
  7.4573596985534767 -9.1170833323671108 24.5165510628236554   T   T   T
 23.3333632387056866 13.4179060008414321 34.2325122333825291   T   T   T
  3.5275003644608112  6.3109974113646050 32.0776754635583643   T   T   T
 14.7463476358781946  7.0657296304224477 28.3013400966493087   T   T   T
 25.4757432912205140  3.8335107643194228 30.3125887258485207   T   T   T
  6.5734018383856707 14.3030351846829529 16.4920834475285965   T   T   T
 19.1708753206231073  2.0376752040901369 24.0621857120538500   T   T   T
 12.6259457648344267  5.2467900266725067 34.2923758877447256   T   T   T
  6.2567773537526135 -0.8934881420331451 36.8976367361687139   T   T   T
 11.6640614528413220 10.6395663981203406 27.6639864597414373   T   T   T
 24.0403650440348606  5.0034008978497759 28.1593263930063635   T   T   T
  5.4850213018691090 10.9531718518301169 19.7907130200620998   T   T   T
 13.6725325240457263  3.8068320096372670 21.4595855288662563   T   T   T
 21.6428126151776112  9.5469783700448119 39.6126427712251896   T   T   T
  8.3625566911189004  2.4901565756961288 37.5490549701545433   T   T   T
  8.3069744016585254 10.8560075217291168 27.9227760655337960   T   T   T
 24.7822125136276767 -3.9621864235728737 28.6876282198383414   T   T   T
  2.8216418594796231 15.8216310015241994 27.7777888122866159   T   T   T
 17.1204446394557621  2.5042842935777925 20.7402799652919718   T   T   T
 16.1787546253514094  9.5430762639913276 35.8777095145969653   T   T   T
  2.1641633629394610  7.2564807217864793 28.2317687327861542   T   T   T
  9.4404192614786027 12.6245177548935583 30.4854215505084696   T   T   T
 21.7907061966372311  5.7554524131099578 30.1009653861339288   T   T   T
  1.1894894679468193 11.6602558587028735 25.6891555563116647   T   T   T
 11.9088930896673411  3.7653379161051208 23.0750155836676960   T   T   T
 24.4368559594144052  5.5732585270140316 33.7255557173626599   T   T   T
 11.5621997119718500 -1.5546768129176465 33.6726853564656565   T   T   T
  8.6223750275477133 -1.4926313539836489 21.9441544737899363   T   T   T
 19.4875030888115184  8.9251218595636050 24.9456676514983933   T   T   T
 25.7719774056467017  3.1425624199672391 38.6137389434784808   T   T   T
 13.6357442612870106 11.3350004665867203 46.5718099193676096   T   T   T
 18.6550486496801788  0.6086257174089523 30.1480257989221023   T   T   T
  6.1356540422936066  7.7134810309634219 22.5873648367424238   T   T   T
 12.6535560084772598  0.8965572620362503 11.1663958021032030   T   T   T
 19.6736307432630504 -2.3058937457309736 24.6280472151403842   T   T   T
 16.6003748727185254 -4.0938190920748152 42.6754605176754538   T   T   T
  2.5748277967725532  9.4261369789821448 29.5467835052968866   T   T   T
 16.8218091232020655 -1.5441116461079496 28.2934452900048292   T   T   T
  5.8445513831181337 16.1240903433956433 23.8036763690666895   T   T   T
 21.0924824045313599  5.0618082944622662 22.8326143162424842   T   T   T
  1.4508183447512606 15.0563530075193057 34.0031083909912226   T   T   T
 12.1972572050794454  4.4019562743116021 37.6066412831462458   T   T   T
 16.6717776558358146 16.9704495741825383 27.9263468857749508   T   T   T
  7.2338944226424022  8.7778424962635224 25.3375379883287692   T   T   T
  7.0699900955718933 -2.2413924308092570 24.2773378833088600   T   T   T
 29.3282288376803031 10.3521170591940859 24.5292498758816677   T   T   T
  3.8420781881331694 -1.1170183807623284 31.9802576369669005   T   T   T
 15.0592716233101402  8.3378708099518928 39.9272405647707345   T   T   T
 15.7990026070282532 -1.4087472546171185 30.9299277551055809   T   T   T
 10.0981760085586441  1.3637458467974857 29.5146615405445267   T   T   T
  8.3100991629467291  0.6746406635326377 25.7325122274137605   T   T   T
 23.3348457378714045  7.1959401957627582 24.7302927510777515   T   T   T
  6.5114626400073297  6.8217328050359720 30.3255552696233579   T   T   T
 14.1643326213111092  0.9508799171801494 33.9554547239685576   T   T   T
 15.7613232638124359  1.5110847946231241 31.3923788311755594   T   T   T
  4.3125066386501318  5.2085577710899136 29.1721494085507587   T   T   T
 10.3837206364220993 13.2778477964365589 23.7285046758714273   T   T   T
 18.8022391663043784  6.5257404916916064 22.8416446988009767   T   T   T
 22.7486979488980552 22.5651077971103149 37.4438428242024344   T   T   T
 11.6151198909544551 10.0242359009085877 35.7879054157745173   T   T   T
 14.5970543095449177 15.4765325452939351 28.1593796796881080   T   T   T
  3.5223629683742290  8.4276289002910012 39.9673573105873814   T   T   T
  8.6141588155959248  3.5623809323101518 29.1696428581331695   T   T   T
 22.9072418943876635 14.3480216081055065 25.0653551690144241   T   T   T
  2.7867561854222958  3.4982323479395023 25.7551848215755683   T   T   T
 13.8696929522602126 12.3740103982092791 25.8909533729104417   T   T   T
 12.4126483638454328  1.3253871621624909 39.4208559713466755   T   T   T
  4.4132340750633672  9.5482786796272130 35.5063817413425227   T   T   T
  9.1800450818670871 -5.5409312132912287 22.0740201266547622   T   T   T
 18.0900898202579086  7.6314969870853986 31.5400324333624269   T   T   T
  0.6297908554946582  1.4766590085585567 24.5141242071575824   T   T   T
 10.2634495508891241  9.1597870509246793 18.6225091599540775   T   T   T
 20.9216665668751567  2.4767096858317692 43.8153648418033939   T   T   T
 -0.0985183227515959  4.9211938267341333 40.3406869697536266   T   T   T
 13.5984586400418657  6.4444963790283838 23.9066515737203495   T   T   T
 21.6848833327233983 10.3477982455727346 31.9976044748892221   T   T   T
  0.3903897294638811  5.1863532808201454 24.0331953006849659   T   T   T
 16.5529260371536786 11.1650707162072376 25.6008055775305934   T   T   T
 12.3081256724353150  2.0947019142863921 36.3270482088561479   T   T   T
  9.5234872217732214 16.6107502330718617 31.9791652212953750   T   T   T
  9.8561336648730773  4.9052917748682354 31.7868349520441136   T   T   T
 22.3642240861506068  9.1163894453013032 27.9442162479049614   T   T   T
  3.1793326897570369  4.8363438600704054 22.8771070109743810   T   T   T
 20.2050370697838808  6.0956968101326821 25.6293806765282035   T   T   T
 19.3685111607123623  9.6031197416238445 34.2413080775180774   T   T   T
  4.9604999302738539 11.1785003576016031 37.9057834167242973   T   T   T
 10.9289223104463815  5.1401079810066443 28.2582899787035444   T   T   T
 22.2262864469117503  8.7489880057046747 22.3822721592462806   T   T   T
 -2.2304622025611613  5.4524053833238897 18.6246837937715028   T   T   T
  9.3260144056168421 15.8416911666272018 22.2795686277093665   T   T   T
 22.3993114939811626  2.8812776903791573 31.7023380650706592   T   T   T
  7.0918832187301808  9.8972598657502271 36.6047834226139415   T   T   T
 13.0872600913339294  3.8519441479940153 30.1939686266116922   T   T   T
 21.5728622377394572 11.9020842867437651 28.0682636368484566   T   T   T
  3.1602478845764916  2.1498626042545568 22.3750802281289936   T   T   T
 15.7709116208744504 12.3675888904921205 22.4456144098741994   T   T   T
 16.7564600161721842  6.1134943972714728 35.9725811332141063   T   T   T
 10.3131908911407280 18.1291645361034099 40.2481210920626538   T   T   T
  3.5305190850203036 -1.0823761725125169 36.7303839624727431   T   T   T
 15.4402258464816899  9.1727711247915504 31.0830747604085822   T   T   T
 19.3170211566869554 -0.8083424110862552 22.3029206287738297   T   T   T
  9.3254483397707943  5.9846595437099053 22.2499847263914461   T   T   T
 17.3847946653717784 -2.9307062763862768 40.0286001186231530   T   T   T
 24.7367528463702868 11.0302961929441068 31.8744633545867906   T   T   T
  3.4423176694499560  2.3228971796717057 30.3182386310721554   T   T   T
 13.8513247779282302  4.0222205482042908 26.1756240024935707   T   T   T
 23.8564369264446263  0.7435561963606362 18.0963197372843361   T   T   T
 -0.0706064650342560  9.2947491097022628 24.1339671511303102   T   T   T
  6.3969512321297950 -1.1838003394174290 34.3925013631473178   T   T   T
 23.9402167033261186  3.1334586690959259 35.9806138893369365   T   T   T
 -0.1077919003253189 12.1175237766581745 22.6938605699137632   T   T   T
 15.6456188578407875  9.6383952257835475 22.5762849099092477   T   T   T
 12.7759727707544286 11.2646399095125567 22.3994469839619974   T   T   T
  6.8959944214373667  6.3192200266014504 26.6446010432366265   T   T   T
 18.3173763261427567  6.4106511317492449 39.6105717116906817   T   T   T
  5.7873063400258307  6.6676405028764076 34.4837814368397346   T   T   T
  5.8719115055961577  0.0269028903154546 30.0727884551231455   T   T   T
 17.5449839811213657  9.2541228463286878 28.6068757831345160   T   T   T
 27.0746648412988584 -5.4494526851569853 21.8549027670188849   T   T   T
 13.9863673230488317  9.9470175827668115 26.0170116313502859   T   T   T
 14.4619862805326882  7.6246316131469980 34.2066945659448791   T   T   T
 -4.1369344122103691 10.4310493809561535 36.7189405694523856   T   T   T
  3.9856533690718154 -1.7685604771593217 28.1906220216757113   T   T   T
 15.9175810586721109  6.0518494549335839 31.2356402676947482   T   T   T
 19.1815327669276705  0.4851645119393448 26.5409577856416874   T   T   T
 -0.2197973089584033  2.3626007759812691 21.7837263016753795   T   T   T
  7.6888173441810155  2.8607632715974920 34.5921514860257915   T   T   T
 -3.9352270126497468  3.6562036920653989 28.0451083859466053   T   T   T
  1.8828087740830342 13.1854624507536826 30.1055232769341785   T   T   T
 18.0223760555116819  6.0856718560967957 28.8415156007828664   T   T   T
 21.5528251240210835 16.1115747827196785 22.5930736268484367   T   T   T
 10.3263929552289966  6.9536710938756965 24.3852188811791883   T   T   T
  9.6876247988261071 14.8369379210865979 36.6248780153761473   T   T   T
 26.5320111740904494  8.3788323975339569 33.8765157543177722   T   T   T
  0.8346168716753889  0.3820315881987698 -0.2218402394989644   T   T   T
 12.7510195331107319  7.2363949495756072 -0.9783019450969866   T   T   T
 17.0544410073437547 -0.0910257583598816  5.4773178563282325   T   T   T
  4.9668671419535517  7.1976147620542816  5.8844211807067772   T   T   T
  8.5707226074303300 -0.1001828827605864 11.6944188403198073   T   T   T
 21.2474943551110584  6.7876056462979353 11.3432106827063581   T   T   T
 23.4709532957212623 10.4995255277812500  6.0548147755891950   T   T   T
 10.8271680689922132  3.6599862883990411  5.8973005980423014   T   T   T
 15.0400632939328940 10.2203730161701607 12.1120359104112030   T   T   T
  2.0557157628403169  3.6483558633665205 11.9786213491941229   T   T   T
 10.1471877602843303 10.4374024467477931  1.6435100010385746   T   T   T
 19.2243609857033135  3.1936119296985384  0.0061817411687752   T   T   T
  4.4230476657427813  0.1220646971730295  5.7689916419697882   T   T   T
 16.8785344675069311  6.9835205430190195  5.8972905742722412   T   T   T
 21.2956182362408803 -0.2230149482715870 11.5633396536987991   T   T   T
  8.3236749407140493  7.4916322030515019 11.6868346617554906   T   T   T
 13.0511360070221922 -1.4775535711041317 -0.2232210358285475   T   T   T
  2.0547383727829795  3.9012981708886620 -0.2008324108276785   T   T   T
 23.3807865381806863  3.8571650311402363  5.5152831369465849   T   T   T
 11.1426200218189599 11.2234681566012320  5.8861385965579114   T   T   T
 15.2169225816747797  3.3880495592665318 11.9854065780451418   T   T   T
  2.3686563660387412 11.4193470097212657 12.0953719644940048   T   T   T
  5.3758241856340669  4.0865108075674925 -1.1558558119173532   T   T   T
 18.6717539646692998 12.0395510044823641 -0.1490440957427359   T   T   T
  8.1721261809219961 -0.2922987435767157 19.5601804384484552   T   T   T
 20.8863935842558632  7.8515922610779940 18.0301269199494456   T   T   T
 24.9380890573827507  0.2478803109177327 31.3793834534280194   T   T   T
 12.4075353367762560  7.3438225687569529 31.1328596465818883   T   T   T
 16.6918067502033942  0.3167348416708728 25.0668212587015589   T   T   T
  3.9495047724745325  7.0681632444227578 25.1037354095705538   T   T   T
  6.1810510054088788  4.0541416662454086 31.6568905194798802   T   T   T
 18.4489348914086300 11.1258006942685661 31.1879598619936580   T   T   T
 22.8836946774785552  3.5435093205160078 25.2238208669719022   T   T   T
 10.0664058462157904 10.7080133201854260 25.1088085627027269   T   T   T
 15.5088431791612802  4.7785490819296115 18.9642176192969067   T   T   T
  2.2098513071428965 10.0187735143817047 18.5429231495387334   T   T   T
 12.5503193449924435  0.2973297102470746 31.1516738827316289   T   T   T
 25.0992921898622683  7.4716003831286981 31.0649131123256304   T   T   T
  3.9837314674988891 -0.2970054258965368 25.0842010875056403   T   T   T
 16.5642199896278122  7.3403344192115894 25.3378271777737467   T   T   T
 20.9725317812318224 -0.3836744470799118 18.4180539438740887   T   T   T
  7.8250294855196820  7.8647814567622687 19.6434459525497864   T   T   T
  6.0899759813706398 11.2618776962416103 30.9841158824220813   T   T   T
 18.6200653432202117  3.7736910962921169 31.0871963417120298   T   T   T
 22.7248955924880569 10.6109464225588450 25.3608221190501908   T   T   T
 10.1385610412605907  3.7227844505082355 25.9821335427374720   T   T   T
 12.3667853730397699 18.6179429037111319 17.3173163476421550   T   T   T
  1.4166962582884697  3.6669055256023846 19.1249674133167353   T   T   T
  4.4333761727632170  0.0864547708677650  7.8852036133606713   T   T   T
 17.1874215366068128  7.0609765494761021  7.8535249358574291   T   T   T
 21.2282397087365808 -0.4019121575259413 13.6623648279170791   T   T   T
  8.7187932630525857  7.3289822179947111 13.8052779727470423   T   T   T
 13.8925614667393607 -0.3861988286754087  1.2800085803226184   T   T   T
  4.0190350936571635  3.0487481351441512  0.2873695772350137   T   T   T
 22.2479677951695294  1.4736680686148691 11.0421169726071611   T   T   T
  9.3711402262034778  5.8349229187244509 11.1149269128084640   T   T   T
 11.6367500667652042  4.5317479393721110 19.5034104036241338   T   T   T
  0.5508922008030831  5.5517610768786216 16.8651542856688188   T   T   T
  5.3815568501690709  1.7334997721485002  5.0159294745004059   T   T   T
 17.9488510395437082  8.3915968881963501  4.8000330578331329   T   T   T
 22.0679996306960042  5.1391263296924423 10.4792610999768936   T   T   T
  9.6271181932833834 12.8526340730464206 10.8813026046386181   T   T   T
 12.7049542853746438  7.1571384009793073 13.8323983224577471   T   T   T
  3.9888482491744659 10.8722168612031869 17.8428451610798859   T   T   T
  5.4783151385936515  5.2153580424746240  5.3386859290327759   T   T   T
 18.3291042435340721 13.0524813267286870  4.6929141617649224   T   T   T
  6.6700209132323991 -0.4911733944402020 11.0003023033418508   T   T   T
 19.1552398136141662  6.8306435052670968 10.8594127260989559   T   T   T
 24.6519267642096480 -0.9335499269996776 16.7945141520642416   T   T   T
  7.2166915858057736  9.5589295431644388 20.7415686475842662   T   T   T
 15.0321295819082668  0.0651145609993274  4.9327816800269249   T   T   T
  3.0391805847481486  7.4176407088007785  5.0290231566291848   T   T   T
  2.3503455330338499  3.9182620995392230  7.2991971151460184   T   T   T
 15.3275912197102944 10.8677281936848757  7.6356352187201235   T   T   T
 19.2076364593652968  3.2263886681871186 13.4251642832554285   T   T   T
  6.7999247312210507 10.4686579436659812 13.4338156926429750   T   T   T
 10.7329192530835993  2.7878911291547639  0.9914315390152229   T   T   T
 23.3494123898192143 10.7019766635351949  0.8746889818759501   T   T   T
 22.9886848064754403  3.5221459594446167  7.4565947384607298   T   T   T
 11.0556235817485273 10.6873692136832847  7.9112075514988476   T   T   T
 14.8109312377325413  3.1622777244817657 13.9999340515298751   T   T   T
  2.5476475566869237 11.1871567408996437 14.1807230690352775   T   T   T
  7.4028302434855942  4.2946281074834589 -0.3827096241182930   T   T   T
 19.3380726661946341 10.6788339345988543  1.5585313749939929   T   T   T
  3.4282615210791643 13.1642875881645143 11.7120626995886923   T   T   T
 15.8879819771115951  5.3735192720831586 11.3023418581511823   T   T   T
 14.8942548396182151 12.3714184331572064 18.8676575877848940   T   T   T
  5.3892348931008369  3.6636454655758657 17.0564708306512429   T   T   T
 12.3040967615290846 12.7649032976026096  5.5036073705353905   T   T   T
 24.3585691082451845  5.6313649793473397  5.1343991632130930   T   T   T
  3.0311605165687370  2.0078605190397760 11.2978225297061705   T   T   T
 16.1553857324269785  8.3876638656949307 11.5301765915919638   T   T   T
 19.2502447549928348 -0.3640462148035686 19.6062334491604098   T   T   T
  7.6188616845043793  8.2395324246178969 17.5721528476590017   T   T   T
 11.6729889503556219  1.9296900378694208  4.8594090821848885   T   T   T
 24.5638497747848987  8.9486132555390103  5.3143389929823117   T   T   T
  0.1581845563351381  3.6628299427368209 11.2821744135236557   T   T   T
 13.0069419819904191 10.1493800659967022 11.2901955269699652   T   T   T
 17.1476582273599512  2.5496679969157268 17.0385432820898366   T   T   T
  1.6140067985311954 11.5590401990193765 19.8933457265359976   T   T   T
  8.9085368468677455  3.5746061143791676  5.2822658579690716   T   T   T
 21.8058359822767827 10.7027397221639546  4.8418091145451267   T   T   T
  0.1196955274428407 -0.0209183655306737 13.5604382302885078   T   T   T
 11.7958491486821515  9.0200743614047028 17.0438955570720907   T   T   T
 17.5393760431031573  1.9085123793278309  0.3455732287271959   T   T   T
  5.1534748051199273  8.6418426440004747  1.1356051685773294   T   T   T
  8.6176583358198879 -0.2655656585016509  7.1091683095454892   T   T   T
 21.2307574687625191  7.6776520314242385  6.9876826919727559   T   T   T
 26.0098787748628340  0.8725144316173590  1.8027006727362986   T   T   T
 12.9556128867916165  6.9765702882702412  1.2770945681748238   T   T   T
 17.3325829485771017 -0.1039866376044228  7.6558820348409924   T   T   T
  4.8494626916360222  7.4810846870215304  7.9330255294250307   T   T   T
  8.8433041435897852  0.2295371474263757 13.8527714538138689   T   T   T
 21.5238052923898628  6.6527004805396102 13.2277414402815605   T   T   T
 22.2760273470253409  8.5593091733232640 10.7226979132683518   T   T   T
  9.2463797382828847  1.6471260676281858 10.9688760462862955   T   T   T
 12.1654218383439865  9.8730311162990567 20.7896604967475547   T   T   T
  1.5890013893385295 -0.5619000914644534 16.8491208844865952   T   T   T
  6.1466745047172813  8.5648315729431790  4.9111668951263274   T   T   T
 18.0487718546486207  1.7260012358645731  5.0214502301497221   T   T   T