Cl48Li286P48S240 E=-2533.270809 eV
 1.0000000000000000
    25.1819793006824639    0.0000000000000000    0.0000000000000015
    -0.0000000000000009   14.5388225279766061    0.0000000000000009
     0.0000000000000000    0.0000000000000000   37.2126966544236950
 Li  P   S   Cl 
 286  48 240  48
Cartesian
  1.0580102804219988  1.6390949973563493  7.0361363376250514
 13.6384723188126156  8.9852707481559886  6.9687372873628259
 17.7845108240925605  2.1711760659022388 12.8010841253892576
  5.3554285601147811  9.5674664158893652 12.6677981759443394
  9.8645764096341786  1.6112507351653234  0.6749693764116652
 22.4956268305696128  8.7829402294066252  0.4334490472818698
  0.1627117195628170  3.6796751652520192  9.2698101526781205
 12.6639184784884460 11.1672690145609064  9.2380209751792144
 16.7580330700001170  4.8876329673549526 15.0916876304101226
  4.1577806361174492 12.0684709873699365 15.2807184087184780
  8.7250005032852727  4.2588190547400329  3.2784103770152742
 21.3190189158625678 11.4084103950935649  3.1421009833202813
  2.5214049864043395  5.6692095966689218  9.2509897391341553
 15.0831841562540792 12.8893480163573244  9.2703249916447952
 20.8459752885509069  5.0573931533040835 15.1157624469369445
  8.2493642114096968 12.3704849518974562 15.2913546694139892
 11.9755202422363602  5.2913859284445026  3.3013525547233558
 24.5349140657230116 12.5780339970514365  3.1520969496130173
  4.3568945206356000  3.6214532392092891  7.0818556990750201
 16.9953329732169394 10.8030114364150958  7.3176515574176504
 20.9304223939888097  3.5434844347214418 12.8851520408794222
  8.3593665698599811 10.9265329195038614 12.9650577404991854
 12.6468441886926559  2.8523282542492998  0.9329138778078768
 25.2525245529562206 10.1066907879278460  0.8432511969329743
  3.0359606591774364  2.1410796771292420  9.3888701874039313
 15.0437449588681140  8.9974934314386505  9.3700282715653103
 18.6010095292524689  2.2135269324969964 15.7510122473542928
  5.9177688839077867  9.4669070948333935 15.7920113841886565
 11.0855623422047280  2.0833310994715024  3.5821957082338849
 23.7093021139476079  9.3283940569900388  3.4352656245179256
  1.0302743672790204  5.5416819917642703  6.8362645796065342
 13.6213528704801909 12.7591541066704561  6.8398681459688522
 18.0074582222411159  5.7492879795260654 12.8490212200389475
  5.3417111127548953 13.1058198509593069 12.9750468437814028
 10.1746398377321103  6.0272459395303315  0.9059086454582838
 22.7421115822525763 13.2892895782093330  0.7156695881710889
 24.1172158587003764 13.1217449663246502 12.7725917354061274
 11.5489577824491523  5.9971339005881488 12.6960967435417178
 16.1732190967036509 12.4618051735637465  0.5533005299292526
  3.5726087609166441  5.2531183162268649  0.5615372341464369
  7.2914094320424354 12.6172854475477685  6.9837092896427313
 19.9742274842551240  5.3218500856576867  6.9979618597121425
 23.0495206763276101  1.1517550936046761 15.2467558510097536
 10.4509455977430061  8.3720228159376298 15.3624497731090326
 14.9872161929095107  0.5598502556544185  3.1991383952638728
  2.4327797993031615  7.8359346258893954  3.1883071697002445
  6.3854020620426315  0.2210734072134266  9.2034841436056443
 19.0740459980158370  7.4633154385969416  9.2422335906726882
  1.8848877803740460  1.4479048325896071 15.2139919351250121
 14.6248373337665658  8.7043295611719991 15.2007909339079905
 18.2420987008965945  1.6326735518087712  3.2508450473508312
  5.6831513997811571  8.9110795575979971  3.2016276045809482
  8.6287687632105481  2.0838245853490296  9.2848484186988607
 21.3924073768916081  9.3198345208473530  9.2432007537262297
  2.0157800544451470  0.0095364142090664 12.8897827542442300
 14.6191634426230195  7.1831156968620293 12.9199845816397421
 18.9429538772397983 -0.7876225973708332  0.9089165838183381
  6.3507707058207092  6.4822507645493133  0.8727949219351471
 10.6848084694847554 -0.0214872047703512  7.2987237660450628
 23.3475951032382696  7.2788382496357347  7.1885028837117515
 -0.4655993253624528 13.1382095365403497 15.8441552744546197
 12.0660527625619789  5.6211871514388365 15.6982614845942354
 17.3567804159966776 12.9464440792626085  3.5071534570171172
  4.8156324110456543  5.7135888323932980  3.4635942774998032
  8.9512911455119610 12.8459040554067112  9.3648372428643984
 21.8034193509203398  5.6804074394611757  9.3504389138475652
 24.2221027497717039  2.1614016368960804 12.9366808675329139
 11.6816630521044047  9.4301050773019206 13.0169309652371421
 16.5049193476548162  2.3908445215099037  0.8622794144263003
  3.8888612473311217  9.6626719039115585  0.7827559545912811
  7.3166411672940512  1.8594840427881003  6.7934677758710311
 19.9524383712121995  9.1490527217579274  6.8029580232523053
  1.0894304982213050  8.9045501679291021  6.9921900717106658
 13.6917183339204058  1.6603111609268100  7.0415571597707158
 17.8702064231567768  9.5477734017866780 12.7084080378735909
  5.2676009305066556  2.2461451275877309 12.7969010516344763
  9.8754002523312892  8.8699897632706755  0.6872041554160538
 22.4373588565919633  1.5863652300037663  0.4944142547837435
  0.1977527306359979 11.3207432087919777  9.2511091034217046
 12.6989049953799942  3.6452700153315214  9.2977811342355157
 16.7689954388191786 12.0168535011248601 15.2824484434671959
  4.1175569515854962  4.8859257667374463 15.2716344913581423
  8.7319907947851494 11.4307749177291065  3.3083487221535095
 21.3509479700297469  4.2546824068857374  3.1995207213604160
  3.0673425287097835 12.5824532112993150  9.2781735504992948
 15.1231425418054695  5.6615932706805792  9.3229505027300394
 20.8377160258014484 12.3003358939308107 15.1823354873448384
  8.1811787349383547  5.1336567749711461 15.2265480184339399
 11.9111545152841618 12.5791112651476809  3.3201028466027940
 24.5969104676690975  5.2602913846415271  3.2202338016171499
  4.3837394824768658 10.8493466100303273  7.0526919667575720
 16.9810803280505880  3.6438860223507383  7.1905100029584119
 20.9382718179600502 10.8224680946004046 12.9292865523872980
  8.3089462685967828  3.5730282048223958 12.9926775977177549
 12.6882160584893260 10.0923862267480295  0.9520174053669151
 25.2449922772585644  2.8444401620802715  0.8644067626824445
  2.8456189390232050  9.2455451990703814  9.3460262143561135
 15.5072146206587238  2.0767129856575774  9.4093899056297463
 18.4407402968900520  9.5297924305640187 15.8478917253515110
  5.7584886212616508  2.2757542781089510 15.8831730443092258
 11.1834720402403462  9.3608267594075016  3.5174856860751307
 23.6640150470935744  2.0472277516384443  3.4375525007912402
  1.0476453845869029 12.8712132142882734  6.8755657078601669
 13.5984335009652444  5.6148476010674315  6.9992717329865064
 17.9396267734458199 13.0568145016036379 12.9515495858078378
  5.3950540378082374  5.8238036243603437 12.9156093615079488
 10.1641077409438356 13.2740412946297592  0.9564884905442018
 22.8203757980852799  6.0062579076506069  0.8577632583536090
 19.9784897098824388 12.5665613994179441  6.9711676351232139
  7.1851344967590949  5.4028137691711269  7.2041491960405093
 11.4689288025668432 13.0691500148068886 12.8148797243700265
 24.1255869915295662  5.8838702685078577 12.7381789600142508
  3.5544074970258008 12.4881321712259776  0.4046987490586225
 16.1518800435945913  5.1999288597402886  0.5437103556079007
 19.0165375086721973  0.1506484820745791  9.2298943096831234
 10.3923102304301782  1.2125578690315493 15.3254748511854295
 23.0983126081771530  8.3512876888751428 15.2795336015953342
  2.4354229618029315  0.5856380710527107  3.1422876316593209
 15.0599747544796951  7.7681752557870194  3.2219054308405202
 21.3667707999911336  2.0208138055060827  9.2404828419944600
  8.7660428225172353  9.0287580706532111  9.4485875467771656
 14.4417512743499774  1.3746482485524381 15.1293356830411412
  1.9636286343368776  8.7126400471712149 15.2193098597567680
  5.6505585026184129  1.6696253679857078  3.1334888656551296
 18.2224818199807217  8.9744643509362607  3.2070752605140873
 23.2939894612491081 -0.0006059864234798  7.1508446772487471
 10.2608328693125035  7.2691812929968869  6.7167598749179360
 14.6004162290232848 -0.1550133446882217 12.9509165234985169
  2.0194913478834304  7.2542581028855730 12.9003710233276507
  6.3718123521005898 -0.7981451856469505  0.8728745594044959
 18.9963245323730447  6.4449641903665604  0.8937746437001662
 21.7453581038977788 12.9366289916108492  9.3371498869998604
  9.0138506283338877  5.7493458126185661  9.4904584002736811
 11.9403095767690157 13.1070312827418256 15.8090327543141882
 -0.3094358660434409  5.8254350405702251 15.7988118044386745
  4.7973737943815733 12.9626641200430726  3.3776636182115305
 17.4893233755903665  5.6957294665189808  3.4702877211051630
 19.9117774662176998  1.8974313659608595  6.8211828661309264
  7.0641920660343596  9.1033159441952289  7.1479156985145869
 11.5740747210014927  2.1742109114385477 12.9689692769455487
 24.2239255130691404  9.4335658154598363 12.9401961580758940
  3.8588721501991943  2.4216915203505618  0.6576169631236415
 16.4869599583136157  9.6459942134868175  0.7563956525618001
  5.1388037308843169  2.0267080459851323 29.9230604276864085
 17.6920235761048552  9.2292524121343842 29.9965737330994493
 21.9336058432566929  1.5873598505723741 24.2637775937315929
  9.3027780654255299  9.1334956276063028 23.7676508311977912
 12.5993877741361242  1.2134342906689182 35.7887238614900767
  0.0225864709229245  8.4878857419219891 35.6886664795514577
  4.5681321345744221 14.4784168869725072 27.7145297398152017
 17.1681575918536247  7.1587911075272439 27.6884226772903688
 21.5948641684219851 13.3316720753375648 21.6081024374515493
  9.1884382755222358  5.9691241122876590 21.7119528210447044
 12.6664228674328250 14.0532426851581480 33.6760046327197244
  0.0583454225381291  6.7615729748491971 33.6087600896092908
  7.8723325773366142 13.1448353498621966 27.9955180385294753
 20.3305516705401992  5.8478434247992785 27.9913199083183457
 24.5530572281250876 12.9553010793070857 21.9892122014020508
 12.0454856690021970  5.7896361858491892 21.9418227458933721
 15.7943180011777073 12.5871356991377894 34.1018448289331602
  3.2065836699229351  5.3012681911717161 34.0463404241731666
  8.4074876279106423  0.0167535078718280 30.4077127833825216
 21.0193093808064724  7.3405891874478844 30.3783176332140243
 25.3151021103478868 14.6551878063535632 24.2595586686812155
 12.5269258805922998  7.2593951039468214 24.6953506688967188
 16.5817886659883911 14.9018184375501068 36.4197533612997120
  4.0042233161655085  7.6486975986664190 36.3415768430448338
  7.8687172956549798  1.4050082314064301 27.8781681495379594
 20.4885648607108202  8.6918110816180700 27.9321658322782262
 23.9985635311191210  1.5533329743147122 21.7599834950252742
 12.2324104545530741  8.5757177383271141 22.1123298455588859
 15.6000841670269335  1.7799569777136188 34.0356310742488262
  2.9908935786631488  9.0457589115913066 33.9850752455075167
  5.1322795850678791 12.6225460182798290 30.0159491278113144
 17.7116204715713401  5.3766506365359126 30.0587326007178461
 22.0207610961025892 12.7232573830656541 24.3694962773570900
  9.4565225636184387  5.4770603293459850 24.3958554532797187
 12.7766111020989026 13.1361319914295080 36.2728951219499010
  0.2411555119039183  5.8480835848082480 36.2176056122784829
  3.0006447770753590  5.5209182080995509 23.9032820360146445
 15.6200524360762216 12.6130538381531423 23.9318531498286298
 18.9338087420723085  4.8401809770542430 35.7474672622532808
  6.3232392511874593 12.0944576517257403 35.7455551375693474
 11.4278357536012987  5.6012624380292833 30.0772312052174087
 24.0718417246229279 12.8982535074803337 30.0434037636094367
  2.7896959981177130  2.4085549487793103 21.6857458752381582
 15.4191961404581370  9.6404505985818307 21.6132754349813467
 18.9582258751755575  3.1442013183696504 33.6570861413332665
  6.3774191871381181 10.3646394258620500 33.6777079450434584
 10.8568070753329149  3.8206551325676656 27.7025420498432453
 23.4394042313516984 10.5984219582712793 27.6791075890357980
  5.6647945429675630  2.0625078179770373 22.0203782927195242
 18.3406704900564677  9.3468709050660941 21.9263468912759905
 22.1386860974100799  1.7011695135713967 34.0346208111332018
  9.5324082562246808  8.9294262131478739 34.1313565673598518
 13.7851228376854475  2.0729817775269983 27.9777290018319356
  1.8169228609379098  9.8406528391947354 27.8728043026290706
  6.3810829855129629  3.7231167923030424 24.4467392790669713
 18.9201689536617224 10.8903097818886234 24.4298222688175635
 22.9022532026080547  4.0030575660332071 36.3916650141237525
 10.3086821712493499 11.2671482714421654 36.4254466677225395
 14.7180363389339135  3.6343890331554580 30.3653828309110914
  2.1539469390359889 11.0263900398423438 30.2963781352597472
  5.5708125184644128  5.0912227780244477 21.8835310909604068
 18.3499881037673553 12.1866834130856354 21.8867051448857879
 21.8858668901874012  5.4391164809428831 34.0310323829152779
  9.3131001539170271 12.6707574180388214 34.0333221783539699
 14.2046852984389993  4.9854694925808509 27.9227328550885368
  0.5484792895004993 12.9344731427865653 27.8020765916274044
  3.1834000260799282  1.8502759900624117 24.3908282711568205
 15.7447394832836309  9.0928783055522846 24.3729941752770038
 19.0915499199397232  2.2360963431962655 36.2574020096139904
  6.5370826617116666  9.4626474682193304 36.2825139728310120
 11.3257811436088041  1.7531270837778374 30.0401308835737417
 24.0799562608858615  9.0898753766135982 30.0762981627969310
  5.0940217520816891  9.2164039899468104 30.0052808879621651
 17.7134805409460689  2.0156876426320953 29.9148081651024249
 21.8395157164459590  9.0637621126404770 23.9492823977154501
  9.3105271952861095  1.9172552893493175 23.7595607075341775
 12.6066471922585492  8.4549906913179189 35.8059699844871204
  0.0085412348384238  1.1910474658483203 35.7344260937212823
  4.5605426444592396  7.1651800125996621 27.7713060575497686
 17.1244945523145304 14.7054405495489480 27.5967379992762893
 21.6886721890180745  6.1017816484299940 21.6147099147380146
  9.0511071484309280 13.2982132835440297 21.7381142577104569
 12.6615335040913664  6.7333917470290876 33.7229406327330068
  0.1128999050747962 13.9349259889658672 33.7207699612717562
  7.7109612192711170  5.8081104346786905 28.0104779175525564
 20.0441613008302895 13.2525354046529600 27.8460047392817849
 24.6064998115746043  5.7511574943234409 22.0057233585841274
 12.0324063859349657 13.0229255338216028 21.9460348792415516
 15.8043904441107514  5.3150803263112119 34.1057859941191737
  3.2414933494777238 12.5787121537677855 34.0856200530615183
  8.4672370563238495  7.2798975665882102 30.3782300756353045
 20.5441790089191976 14.6757677774071809 30.5827739440077906
 25.2910507105806772  7.4011610701379293 24.3794014385413682
 12.5573496353079470 14.5339046344910834 24.6117330022258720
 16.6417161262748330  7.5700918083386792 36.3925947450180445
  4.0794861427460996 14.8991933207354510 36.3480071098865523
  7.7661362555031532  8.7141167027659954 27.8921112376851923
 24.2119445743772239  8.7927248885388281 21.8333472851241979
 12.0868296509773145  1.3395214006294893 21.9831174737618120
 15.5785795774154785  9.0283196865871425 34.0636463129084461
  2.9884860874825079  1.7581859931225414 34.0282223678157791
  5.0952188784897761  5.4059038526409173 30.0872522534152473
 17.5192999258358491 12.6064223945641505 29.9592192825916968
 22.0438623558002682  5.5351447022251534 24.4361297260988337
  9.4847017948885863 12.7426959609975796 24.4060478202926312
 12.8133048010950681  5.8668724451383909 36.3406296293679247
  0.2566411806725239 13.0904617539444139 36.3180989962235898
 24.0196248421947587  5.5737851446701265 29.9616239145044254
 11.3889664112984068 12.8686966901513973 29.9786893923257622
 15.6464660467598993  5.5169352139785994 23.8908533052544563
  3.0615315419267715 12.8113801203765778 23.8511063880287928
  6.3016645692623987  4.8236596965044765 35.7509496468126002
 18.8906180165287161 12.1377853831301952 35.7375263746364240
 23.3653753100105384  3.6155431802216507 27.6967531147800869
 10.8887623945360357 10.7721251643212508 27.7011109684347190
 15.0484469543128263  2.5307216351588129 22.0020533574113308
  2.8026512488476634  9.6258764914171024 21.6698791541499283
  6.3732189157053245  3.0435561130027717 33.6934139723763337
 18.9403658283619940 10.4279948862349414 33.6143905598967194
  0.5507887822398642  1.6388614766358029 27.9254366749445566
 14.0772846893740606  9.4618245607246489 28.0085131509580201
 18.2200897708219820  2.1255817736459073 21.8958421880211134
  5.7078151532339305  9.3516797688290918 22.0086208617890229
  9.5390492454892524  1.6637526914101963 34.1392773739937923
 22.1065525757984069  9.0134253228733598 34.0184545509175038
  2.1761498274095907  3.5830490516104736 30.2224318478146827
 14.6687421240877391 10.8819090150391862 30.4237373661961570
 18.8150223164763766  3.6099903947163932 24.5741188989636861
  6.3322179183283325 10.9709306813302394 24.4974153745730128
 10.3034872991623079  4.0138785076897365 36.4357531422134144
 22.8924459148940720 11.2577702339577321 36.3060323439830981
  1.7125041012966864  4.7944127389957467 27.7434794945658716
 14.1421207962208655 12.2757262468455721 27.9671370358696691
 18.4874002883488870  5.0115933239815789 22.0565725575853868
  5.7749207746883453 12.2754655423025021 21.9514981775381735
  9.2885049365411145  5.4151953488405855 34.0822336239567534
 21.9016240197477003 12.6994520352272833 33.9195296209159949
 24.0792103280808689  1.7664886754202112 30.1495482659496048
 11.4177027495756320  8.9605052048558012 30.0633562620050228
 15.8972683836784068  1.8614236130204518 24.4665240875849364
  3.1662413080565623  9.1070034491693939 24.3682706370984441
  6.5474687112647061  2.1956384519750283 36.3021575329443351
 19.1433576223719797  9.4948589878114991 36.2301877839131592
 -0.4384085587233166  0.2769835196712830  0.8253611313842835
 12.1514456847020078  7.5415245640461110  0.9212763351923573
 16.7901566117237131  0.0230946280880909  6.4073721547246532
  4.1514893433317885  7.2937402072440491  6.4020099604475105
  8.3273382191429874  0.1956655471855553 12.3475961259696643
 20.9683272364648694  7.4398064956750583 12.3610797020029111
 23.1140204682342016 10.9570255028910317  6.3555116505739866
 10.4681390587005190  3.7024754121558288  6.4915455211251532
 14.6763631408439359 11.0529512990403020 12.3449032468885580
  2.0347502984193340  3.8531644952976172 12.3849157476827081
  5.8947263651431996 11.1714042872764683  0.8446029050925572
 18.5035803950215794  3.8903127947232257  0.8703810674069897
  4.1877521528411732  0.0592248362097382  6.3263226979272424
 16.8218879542487443  7.3144785006234878  6.4089594491861037
 20.9353137667650948  0.1698684045663214 12.3556853637511797
  8.2970567413491576  7.4816033233606065 12.4767782413693489
 12.1294935108915052  0.2800341900028445  0.8764980970995495
 -0.3645986532079632  7.5367462336394535  0.7954004972470564
 23.0963005989239214  3.6864517542540787  6.3702438715399188
 10.4141991248040409 10.9340797957831874  6.4690914928367480
 14.6148517345480400  3.7831314478323641 12.3867792087813058
  2.0532983761483776 11.0922579059669104 12.3867838999721478
  5.8843093793736898  3.9136976535157331  0.8560204771510616
 18.4818415366834969 11.1763793774498605  0.8274240957821987
  4.0693194535262140  3.2156992279698491 18.9891821417315114
 16.5720747642327879 10.3357116599173384 18.9245104314441015
 21.0467739357848771  3.6829064010229953 30.7973992601021038
  8.4701277961671995 10.8874439787917510 30.8679392597262598
 12.7379325649566493  3.6119884929080057 24.7963800357463739
 25.2388233534429496 10.8891036279088684 24.7304320594016644
  2.1336196438286938  7.2793939152166418 30.7898041275837855
 14.6889942479908804 14.5585596128642258 30.8490714290485677
 18.9571056004895446  7.2442825364154260 24.7851257696337512
  6.4397493178864726 14.5408304638681898 24.7915522997765372
 10.4924268273442287  6.6327877344326147 19.0664759590964294
 23.0032901268405361 14.1284232086522756 18.9410281510593315
  8.4446980804981706  3.6408054226637687 30.8978230621564194
 20.9947422088183941 11.0178565191987712 30.7466926837180736
 25.1900714185100618  3.5947487963458564 24.7156013251755375
 12.6972640877838945 10.8883951068149347 24.8052687754236239
 16.5708395606073111  3.4067029889188754 18.8546095526178732
  4.0251268139342296 10.3827205991474507 18.9600265092500031
  2.2223841605621786  0.0333507218096408 30.8743451494521075
 14.7504136975498010  7.2461672406850699 30.8776394857929724
 18.9220197788781945 14.4948770659547854 24.6650459437365974
  6.3877593877065904  7.2662242366368970 24.8019104661921936
 10.2396971650781463 14.0562668313922874 18.9979735998962980
 22.9667661726464907  6.8145136097067320 18.9584885334763626
  4.0934398855485181  0.1257224946575943  8.3955920435250633
 16.7988871619437496  7.4036323626827407  8.4606736601630086
 20.8695477860268959  0.2120436040849291 14.3929418107828226
  8.2303850341646978  7.5396005069803600 14.5291184820343418
 12.6032004606269776  0.3227386360448536  2.9412579765324458
  0.0547430469599579  7.5587632161812452  2.8639309663993866
 22.0061699989644382  1.7657051997594855 11.5956503832897351
  9.4468889173702024  9.0600492986440830 11.7667136270464745
 13.5265041738607827  0.7326060707696518 18.2525937298488401
  1.1477885572733506  7.7240230787485151 18.3026214212940488
  5.1610814198928727  1.7160514916995615  5.5746583188898242
 17.7710688556830405  8.9792479691132776  5.6322394860931269
 21.8526584511204653  5.6730458147054099 11.7223875581259556
  9.2337704786916017 12.9787195024381745 11.7114623096433732
 14.0090571235558610  5.5174342434628505 18.0471705996521905
  1.3373601353055253 13.1432154753167634 17.7852524627908579
  5.1468130926834270  5.5851607368799963  5.8008150525937072
 17.7527016060546536 12.8325707060021408  5.8597907578934212
  6.3862283741978665  0.2985976438523980 11.5991397462436616
 19.0259674271000243  7.5639431281736185 11.6286778553455665
 22.7090987966637705 -0.6551142089044035 16.9503358712183037
 10.2738967130403598  6.5541192910715216 17.0451603003301351
 14.9021783960966072 -0.0159726332445861  5.5732673461576940
  2.2742648791309286  7.2367010170534121  5.5193803005917230
  2.0847300249420413  3.6675481664826992  7.9250472133693002
 14.6473020689011513 10.9099254047911494  7.9647065339654777
 18.8635624741233379  3.9053766135338850 14.0646761753467047
  6.2683347051117639 11.2339846227064548 14.1627050511560633
 10.5477982504043286  3.7965837329641179  1.7909948814950956
 23.1345572283239562 11.0215577625337247  1.6357076516353433
 23.0315115538240995  3.7469210824947807  8.4361387413307831
 10.3298105329254231 10.9808840895233999  8.5252648985119261
 14.5525489964105113  3.8248596521809217 14.4231083398029529
  1.9792559854840317 11.1267595304511868 14.4179356175194524
  6.3713320280477541  3.9614587944309130  2.9060302156028315
 18.9397981717327681 11.2564644490419425  2.8907877061203138
  3.1143164658539635 12.7178339405358312 11.6646870013380184
 15.7276320766679074  5.3641906858527575 11.6566336035232485
 19.9173788855963991 11.5402844944407619 18.3207814822114550
  7.5084249959327645  4.1451942040639151 18.4392946274243599
 11.3966986713940930 12.6012210960076025  5.7235024401597343
 24.0496491465427944  5.3543944496025571  5.6184527553534584
  2.9629580241396991  2.1002755338151138 11.7664439968886345
 15.5844054033619166  9.2936664188925295 11.7248818107701318
 20.0639492453851922  2.3695209974145692 17.9642791324249629
  7.6438185888077248  9.7117702294339399 17.7932896838765870
 11.4612205333577180  1.9842754839921228  5.9322987867656582
 24.0899648518150258  9.2396626449340111  5.7856716394878616
  0.0961981904291235  3.9375026817093612 11.6322394853911355
 12.7292932314458369 11.1516377277599048 11.6272972996458872
 16.4433512483419761  3.1810135021691703 16.8816166208026672
  3.7927242046804488 10.1936458154133689 16.9489642638366966
  8.5953241815528454  3.6854964103194154  5.6409358966333984
 21.2192908037213606 10.9003654418502816  5.5314354477070289
 -0.0497017120417260  0.2939854746166856 14.1306434613828493
 12.5698798729662613  7.5239050180753484 14.2018581642447383
 16.8304946736997572  0.1380670343641207  1.7354147070640753
  4.2445937209782585  7.4202054628168392  1.6787135701565354
  8.3521470846072496  0.0437821317677555  7.9371949183512100
 21.0106250149880971  7.3137537190333282  7.9141724112313439
 25.2437304701397629  0.3324921694267995  2.8736526154866051
 12.6869381831015406  7.5723632793167628  2.9721070955817859
 16.7037821887998845  0.1236379426200637  8.4671522392172420
  4.1418772326102760  7.3859586148950171  8.4272847344547959
  8.2593873202858727  0.2306532517831059 14.3787718750107896
 20.9191624205395179  7.4731474325855052 14.3939625081887534
 22.0242027744329931  9.0445198963330729 11.6049915853732486
  9.3694266792613483  1.8205442085822980 11.6111077191686203
 14.0080449246642154  7.4626147325165393 18.6198386464031955
  1.2566617555097246  0.4813341869012833 18.3115822026362025
  5.1244662857324350  8.9389774782534328  5.5948917735094019
 17.7477737508865729  1.6867739579439369  5.6463548617528101
 21.8332172501004074 12.9489723335121969 11.7235957098413408
  9.2360435220664723  5.7095174656593333 11.8861185683275270
 13.7481575686566462 13.4235238068210005 17.6884006589456497
  1.2627382706456840  5.8058092562698249 17.9619554159954866
  5.1572074942821065 12.8959590536336162  5.7247964639472046
 17.7961555387615746  5.5993018659695721  5.8151141987595629
  2.2924312650977594  0.0375122435454459  5.5237998087756717
 14.9219188837540724  7.2660804183852150  5.6055197341232921
 18.9930932886464205  0.2766810051106807 11.6225417839765601
  6.4550347742268208  7.5951669217972393 11.6131235102667123
  9.9367556190493200 -0.6264947185797888 16.9834296172714367
 22.8102909029832546  6.5402014752566906 16.9518848971754608
  2.0999678933741377 10.9401159290443051  7.8995788734390695
 14.6629737170177279  3.6810017780641471  7.9728785998788796
 18.8567835020045642 11.1958519708945676 14.1380729637300089
  6.2308919302232386  3.9569939006683570 14.1901333816401429
 10.5600920631514690 11.0477752225511452  1.7896206111357080
 23.1553953384538644  3.7863714478046240  1.6974446992069863
 23.0543195051799081 11.0466860475502191  8.4190730852458042
 10.3737158642164111  3.7984870434659346  8.5446696671388445
 14.6168546283747709 11.1160209034686019 14.3760680379066326
  1.9343469005861766  3.8888199952324993 14.4203776099935670
  6.3754830649238068 11.2054826570045396  2.8967941916209536
 18.9941079882627299  3.8994737571658717  2.9254289233989228
 24.0693791500772392 12.6068237306033204  5.5763518523294398
 11.4822948352545158  5.3442255704107753  5.7194839370491737
 15.7414283104768167 12.6659400047466164 11.6030738407594924
  3.0982071747419493  5.4480733917181672 11.6283938625100163
  7.4201077965132738 11.5109236023973764 18.4984547387239004
 19.8145206317908276  4.3088033718573699 18.0975259350807498
 24.0759709422290804  1.9878027208160376  5.7725595809672745
 11.4455544635849833  9.2463216899745060  5.8603204418353183
 15.4959884596582995  2.0088097599147030 11.7710270453387444
  2.9841331748286488  9.3563200796510948 11.7424844596538485
  7.5850835266784538  2.3353968089621451 17.7277456621677132
 20.1847669304254715  9.7042778366135956 17.7148059583431845
  0.1158506485698615 11.1995709516243522 11.6366464585904588
 12.6777553766028124  3.9404354665079513 11.6595649221696984
 16.3376127840492025 10.1670753191921950 16.9014328405201475
  3.7043504825153697  3.0668224596613456 16.9975345508748283
  8.5360325906888423 10.8604216947464565  5.6510867494025963
 21.2025438145461536  3.6483332683214580  5.5548246513118338
 20.9539380935345285  0.0392468916376352  7.8966178115137717
  8.3499197240650957  7.3039091928281845  7.9373165097954441
 12.4728220825159202  0.2702920340464883 14.1203799179741658
 25.1481521477043053  7.5639447171206200 14.1204208843290626
  4.2524436209386192  0.1462533442590254  1.6411660452903272
 16.8858756294006582  7.3912365278445398  1.7089888972159597
  8.5825850394193264  3.6338125547433315 28.8292847907459056
 21.1025980252553325 11.0406081827953724 28.6874392652034693
 25.3242850519181317  3.5064119877413611 22.6674129690755315
 12.9263490896576450 10.8788758395489911 22.7724781877093783
 17.0098483698071199  3.4038845857051814 35.1705525286702425
  4.4113009097084017 10.6278570963291976 35.1739237990012938
  0.9915894229805263  1.9890493706014232 25.5619018308967405
 13.6244037299120428  9.2305778889198109 25.6341505892862784
 16.6060793459485403  1.7919140310204156 20.0103056854142949
  4.6606598093365808  8.7187757779185215 19.8802829058418382
  9.3628252914775789  1.9470258619805767 31.6534318157053818
 21.9790355334299399  9.3686589685800730 31.5282439504554937
  0.9827174726084424 12.6108576322177637 25.3824275177227889
 13.7051218929286716  5.2827487075557062 25.5254808692415480
 17.9888352910526734 11.9599135881652945 19.2440988575806422
  5.5813557595270407  4.7395788685820790 19.2833241512540745
  9.4078593997152637 12.5774738727523623 31.5968263186554523
 22.0066487266198685  5.3445456954039097 31.5934581688992075
 10.7491583102911008  3.5664879125682738 25.3360390240086062
 23.2410405346491480 10.8261244434913841 25.3000635493647117
  2.5709785817914161  4.1530743255952469 19.9721576728691481
 14.9737954859873668 11.1573126198751815 19.7997279911535635
 19.0455563050680112  3.6778235485887021 31.3613286449026063
  6.4684596513207380 10.9093338116934717 31.3746586539030119
  6.3498224287488005  0.0322070965743554 29.2028852373142556
 18.9050598161488921  7.3156994366005446 29.2226893369787390
 23.1845352928114110 14.4117141795107315 23.2059973328844329
 10.6691489072539625  7.1882931951458433 23.2942216070604289
 14.6067419320254377 14.3819470391600888 35.2396378192447131
  2.0162653130123553  7.1049505249340656 35.1808280645734044
  2.3247220370026991 14.5753670466006362 28.8146729019481178
 14.8492558244752839  7.2413891854653469 28.8115452004693076