Li P  S  Cl
 1.0000000000000000
    25.1819793006824639    0.0000000000000000    0.0000000000000015
    -0.0000000000000009   14.5388225279766061    0.0000000000000009
     0.0000000000000000    0.0000000000000000   37.2126966544236950
 Li  P   S   Cl 
 288  48 240  48
Selective dynamics
Cartesian
  2.4752807761163855  2.0128067342428926  8.8196356267624001   T   T   T
 16.8161889154200175 12.1131934779379407  6.8647452230865076   T   T   T
 19.5202413728849464  4.8899910935653494 11.3595847039071973   T   T   T
  4.7429077402749353  9.8036026955850257 13.0538165324504245   T   T   T
  8.5691760185610875  5.5509932958253438 -3.0398688560361666   T   T   T
 20.9668615260887456 10.4419996276961964  1.0949551443080052   T   T   T
  3.9396900385022180  4.8814577926773000  8.1604292188295435   T   T   T
 13.8083033230015886 10.5984252475122727  5.6551069870827986   T   T   T
 16.4487756480968272  4.9143821924256104 13.5177580381051214   T   T   T
  1.6188553815064690 14.3258675455719793 14.9321534900312454   T   T   T
  9.1239228162346127  5.4784602472744801  3.1037541085063247   T   T   T
 22.1704128482138501 10.0923908517392622  4.0617988759018608   T   T   T
  0.1357821258396586  4.3316842870277545  8.6709222066861606   T   T   T
 11.2300264675366890 13.7969184140197907 11.2690723216711426   T   T   T
 18.5538602643937729  1.6018532484506169 14.9085762367609220   T   T   T
 10.6972990437797737 11.0316702926082222 18.1704236236575518   T   T   T
 12.2521944070706681  5.8040421113370062  3.1481500835084288   T   T   T
 21.1213414765340524 13.0442763353145548  2.5026835493990962   T   T   T
  0.4320779581840462  4.7370451113136651  4.8216596725140173   T   T   T
 13.9511590230192137 12.5385088141857768  9.6118948816207226   T   T   T
 20.7492001973067417  2.9825653258205400 13.6640924841874387   T   T   T
  8.3341552432214492 10.6880114276345459 13.7998492699805890   T   T   T
 16.0994159404895498  4.5380656369545411  6.0749999873427729   T   T   T
 24.9474839814148375 10.1046650426192972  2.7221988316880950   T   T   T
  3.2191963938274957  4.0151876756434772  5.0075527904150112   T   T   T
 12.3845807851271257 11.0975900797964648  8.5476948667247044   T   T   T
 17.2127575276201625  2.3038104353588418 11.8752365057076741   T   T   T
  5.2772183915260600  6.7731075417932596 18.4137465790314643   T   T   T
  7.6045536688664219 -1.3064417966902990  9.1923361383722533   T   T   T
 27.5137078897722525  7.4352127029671697  0.0293062107453864   T   T   T
  0.3951192258936524  2.0554711224112299  6.7162501847540597   T   T   T
 13.7023593084285249 13.6868110001601071  7.0200540227093891   T   T   T
 18.8102694725874819  5.7638527202539578 14.2912399055281618   T   T   T
  1.1339665535941581 17.4508807148813148 14.5530311154156191   T   T   T
  9.6236205545453206  4.9749013334956578 -0.6956865250541544   T   T   T
 20.7970866151672986 14.8358230402983668 -2.4849776415810956   T   T   T
 23.4841717493562037 13.4736376823606339 13.4797963807473220   T   T   T
 11.3764370268365429  5.6995461138518930 13.7810617956831347   T   T   T
 16.6500572911691940 13.8465246270108828 -3.2658945580369934   T   T   T
  3.8216281588239740  5.4145579497010408 -0.5100649145519288   T   T   T
  7.1045521795064737 13.0426574506748363  6.2917416290099855   T   T   T
 23.5333428009677554  7.7859617173615661  6.9063423974373777   T   T   T
 25.6492299364697622 -0.6197757685665113 10.7920893178661128   T   T   T
 14.0669178986172358  8.8965595240015247 15.1761144465210602   T   T   T
 13.7862343963127412  2.8854401347114105  1.9475350529496345   T   T   T
  3.2666595157476084  9.0981097649515927  3.0737010944002638   T   T   T
  7.0123726627829726  2.1784280206804376  5.9949773132408506   T   T   T
 21.0985987251039937  5.8345546677561728  9.0447966920481981   T   T   T
  1.4653746015517730  3.6076294309114898 18.8205760449859092   T   T   T
 17.1313142929662590 10.1616249359465769 17.6384356016826906   T   T   T
 17.0958305647717843  2.9185184599194041  2.8356987700009526   T   T   T
  5.4504252933675552  8.2015837696762972  0.5199529795415054   T   T   T
  8.4994146126460315  2.5022637842271860  8.2196955513521317   T   T   T
 22.6309477449740974  9.1026371354629987  8.8945904769228985   T   T   T
  2.4381898438804726  1.0865636973655188 12.6201377506923773   T   T   T
 13.7845776428124740  6.9612740055782769 12.1442594443389797   T   T   T
 14.9572946674330627 -0.2987129974642003  3.7497779028085994   T   T   T
  6.7301274900461552  5.5858273339742448  6.9976005155425227   T   T   T
 12.8811971558551299 -1.5201872991764918 14.3749845433308039   T   T   T
 19.7198435772180574  9.9450307480075910  6.9481775380387099   T   T   T
 -1.4071463387969234 15.8703917950903701 15.5513836064252509   T   T   T
  8.2287017544108654  5.8167819262281233 13.8016795151004281   T   T   T
 14.4257611421304084 14.7177297275506351  0.5458778818689565   T   T   T
  2.1406721422151525  6.5832612267429971  2.5893879381293829   T   T   T
  6.0472905853712264 15.8212347664272492  8.5827843723086819   T   T   T
 24.9773544892626909  7.4672119752572312 15.8810374180482903   T   T   T
 23.7742872195208932  2.4333679368339438 12.4658684279605634   T   T   T
 11.2206485025676326  9.7314998772267440 12.8816501897435565   T   T   T
 11.5033060019446491  2.1609427574684763  3.6044794042633610   T   T   T
  4.1056182286685363  5.2335106241455565 -2.7623549127828757   T   T   T
 10.0657689531190417  0.8341894012545478  6.4095382868201627   T   T   T
 20.0184253525141216  9.0207478052029426  9.7317973615491198   T   T   T
  0.3540258191899327 13.0150611127319085  8.0123273251942422   T   T   T
 15.3681075371696725  2.9398805180820058  8.8262923803690523   T   T   T
 16.3093682967858982 12.2269338154690779 14.1137864020334387   T   T   T
  5.2298432375918731 -0.6777890192824277 12.6666916768388162   T   T   T
  8.9088510437640078  8.7377572851826297 -2.8121910729663018   T   T   T
 23.0793641981714863  3.8868746057973991 -0.4897870331614161   T   T   T
  0.6556999722333778  7.2581362042612687 11.0858082109719991   T   T   T
 13.6038250160253789  3.2753830575350280  6.2460868937188199   T   T   T
 20.1743674018612573 10.1054296480754040 15.2943746022513043   T   T   T
  4.9118785323025298  6.3161037414329124 13.2228506805041484   T   T   T
  9.2826771620138739 12.7400994252548916  2.5383612221544594   T   T   T
 22.2963193544199534  2.4847090153174483  3.1805139533713733   T   T   T
  1.0892340391487811 10.3722692181007918  9.6335407640920394   T   T   T
 12.5118582299539653  5.3312518205590731  9.0585465144249167   T   T   T
 26.8357980601886439 10.9066946561985532 18.7586932973306588   T   T   T
  8.2574781684864877  4.3595157128164290 11.6785677336541980   T   T   T
 12.3748410237454323 12.8948270085437873  3.1003507231849277   T   T   T
 22.0767077219594654  8.7183152671930273 -2.4663726794862382   T   T   T
  4.2236419101696754 11.6310812108952906  6.8936521026423359   T   T   T
 13.5807759547008313  6.4758276865493904  6.3733259377022646   T   T   T
 19.4393441789821182 13.2831870329877102 14.8976607677744290   T   T   T
  7.7547818856156026  2.9504174623261692 14.5363404138392163   T   T   T
 13.0150210044468437 10.2703631250039589  1.6085658463249546   T   T   T
 27.1355536459977245  6.5413254366665523  7.2310655599629836   T   T   T
  1.1940473365850948  9.5233910957185639  6.5136443796406249   T   T   T
 15.8842977593113428  6.2174689149759583  8.9285886190667441   T   T   T
 17.9973464596826140 11.4596080687984276 11.4369131853933901   T   T   T
  4.8077262746061891  3.4422475507776582 14.1803182134985875   T   T   T
 10.7963773142977786  9.8777596440871758  3.2624533382625782   T   T   T
 24.6304047208374506  4.0195925104440242  1.6793094919730744   T   T   T
  3.4544384785111020 11.9402552138066103  9.4140314587558880   T   T   T
 15.7485834956307151 10.1338014670512990  9.1638734989881474   T   T   T
 20.6343276754956264 11.3160130579245664 12.3457717668690208   T   T   T
  5.3335109242450054  3.5847986727400616 11.2254608617546339   T   T   T
 11.8941958010566502 13.6498906565202809  0.2440476142758279   T   T   T
 22.7260436348739567  6.6489410073923931  0.8733505566927358   T   T   T
 21.2601931685284349 13.0991612375006188  8.9227242094042918   T   T   T
  6.4078788746556459  8.0284518883380471  8.6054488867528178   T   T   T
 17.7205978185497450  9.0002327473453292 13.0772833262713721   T   T   T
 23.8048876226810258  6.4332232119410744 12.9219948865492249   T   T   T
  2.9727804857239128 13.2474163202351871 -0.0683276082752940   T   T   T
 15.7709236829220067  7.1689854871215024  3.1310099551697572   T   T   T
 19.4497994291309269  0.4222936596317422  5.8139746179453580   T   T   T
  8.5100616189953229 10.0206745536947874  8.5444464022976643   T   T   T
 11.4608623005036403  2.2384736092046045 15.2395985512938914   T   T   T
 24.2435455385338265  9.9320244758090688 12.7264608732206881   T   T   T
  1.3236887911743627 -1.6749320061981059  5.3637709123280128   T   T   T
 16.1464484965049770 10.1433862603760883  2.6660651199953422   T   T   T
 18.6622892261876459 -0.2298210846567739  8.9693495274531010   T   T   T
 10.7193134945976905  8.1210410978647243 15.6827219476392035   T   T   T
 13.6176348497001740  2.0571642516240725 18.8929035035749138   T   T   T
 -1.8689377986031592 11.0684979362528502 16.9845244517957461   T   T   T
  4.7984736750672630  1.9259278960031627  2.6606387720336859   T   T   T
 18.4108020675085129  8.0188945691126499  3.3773041609072938   T   T   T
 22.1834862378036526  0.4043316600795670  5.9409461517906497   T   T   T
 10.2798031965068759  8.3970654407858998  6.6328169202364862   T   T   T
 14.3325566920490495  1.5145776777731645 13.8276408120548240   T   T   T
  2.3980412715377151  6.9586387679571944 13.6721947853727066   T   T   T
  5.7278099066724693  0.7989071503099854  0.0796271700040121   T   T   T
 17.2163350993694024  6.5660282119916005  0.0606267214561248   T   T   T
 21.8127091564335167 16.7288592156515534  8.9608922151218664   T   T   T
  9.4951995152769353  7.1117776224499654  9.1484846581554162   T   T   T
 11.0939828343633575 16.5554743830902140 11.7736712271533577   T   T   T
 -9.0711424818668362  1.0762339731849817 17.1877422318066273   T   T   T
  3.7620140006540086 12.9824643139871547  2.8237606487093916   T   T   T
 18.5851204951367244  6.7587511983008346  8.2728650429947006   T   T   T
 19.1260230409229663  2.8044397260492158  7.4880595174459561   T   T   T
  7.3597494487701365  9.5882517502761964  6.1062025993939608   T   T   T
 10.2265474864923060 -0.9258185101852444 13.6552372852770549   T   T   T
 26.8032069148480367  9.4664431314521806 14.6194852341979349   T   T   T
  1.4780662924629944  0.8243378915214766  2.2284530472484856   T   T   T
 18.2949749414445222 10.0497773795645244  0.1854913594695473   T   T   T
  4.9218714692418892  0.9062326434526309 30.6165142786836846   T   T   T
 19.6212549132855756  5.3213667331580830 28.4896391856408897   T   T   T
 24.6515583993187342 -2.1534080457656186 22.4051958765727406   T   T   T
  9.5394800230785943  8.2922242345146380 24.5358596459889675   T   T   T
 16.9412938365808010  1.1671968809629698 36.8826088130711867   T   T   T
  5.7127060167835371  6.9266506360829991 40.1928463942639524   T   T   T
  4.7928602165471741 11.7524702867101176 30.1948559665084488   T   T   T
 18.8371141440439089  8.5193993861717523 28.1857896255952483   T   T   T
 20.9985875226116718 14.7396115643369079 18.0384455270478554   T   T   T
 13.0471539106193735  5.3231512748726573 23.6343214040803957   T   T   T
 12.5601131443040313 12.8842670620891315 34.4628707260451961   T   T   T
  3.2322668492711641  8.3321276339007646 34.4335823803888985   T   T   T
  8.0600623346759672 12.2123905432966016 28.7559603136345103   T   T   T
 17.8062005538364865  8.6318970330295990 31.0852024875262494   T   T   T
 22.1080057778722754 13.1038852415789187 21.1016515644752332   T   T   T
 12.5780252232937855  7.8112032804658380 22.8669450285723599   T   T   T
 15.0164965623720708 11.6747591200836549 34.6863030152516245   T   T   T
  0.2451916441318358  5.4545355924420367 34.3935402817514273   T   T   T
  4.1989277936975613 -0.4270228355691260 28.0873040150891136   T   T   T
 17.3079028733021580  4.8323072203144184 31.0201334575859669   T   T   T
 25.6950010028307041 14.2184999468527415 24.3088567027030855   T   T   T
  9.5490154469111115  4.5938931296283485 25.0078300912732416   T   T   T
 18.3377266572064599 14.8228102275393354 39.3170208637185539   T   T   T
  5.7851192606244668  7.8321753817615303 30.9492749222542720   T   T   T
  3.9956911265556387  0.3655868588205247 23.6434972311449947   T   T   T
 16.7497832801135687  6.0006671243615957 28.2938115767582516   T   T   T
 24.3164375835420081  0.7359138231313476 21.8123580917362325   T   T   T
 13.7634753272834018  6.8265583944604016 18.1568197032373249   T   T   T
 14.2457473322959629  0.8951493250514885 34.0235111743947982   T   T   T
 -0.9252771464255216 12.1396878929894516 30.8821884446647594   T   T   T
  7.3866475479998188 13.7586573785304722 31.9167738086019206   T   T   T
 20.4573153455780208  6.6409201681065930 31.2510891592139686   T   T   T
 22.1016566611214671 11.5279303446852932 24.1681825111049662   T   T   T
 11.9540261682602011  6.8636958533478154 25.9894109035023853   T   T   T
 16.5355740566609306 12.5134215394216817 37.0524807006253951   T   T   T
 -0.1941334456887018  7.4102101184144447 36.2653014217272869   T   T   T
  4.0286981937745008  3.4082592807628980 20.9731920373463723   T   T   T
 19.3037558470831314 10.1856279674782062 24.9710882738110591   T   T   T
 21.6210434279121095  5.7253121134716505 41.0514613351748210   T   T   T
  6.6661230629682136 11.1297831117321682 37.3966003133790963   T   T   T
 14.0726719799717124  4.3758502095165444 28.4419896676102297   T   T   T
 25.2275176600593909  9.0803406058383498 32.1942309503592980   T   T   T
  6.6859435468774917  1.6376647897576262 23.4287690644437596   T   T   T
 16.4705232098534786 11.0093098913776348 26.1260762032544172   T   T   T
 19.0766695194430724  3.3040683438416232 34.6015737903572074   T   T   T
  8.6802876193132938 12.8603425084881184 34.7022861537662806   T   T   T
 14.4989201374920462  1.8553077572750567 28.2738465301574955   T   T   T
 23.3842937036481757  8.7793877726441725 29.6492555762667465   T   T   T
  5.0078509408169030  3.4257719461249097 25.9826699042239255   T   T   T
 19.0899300962552623  8.6013207142962909 21.9132044888682813   T   T   T
 23.0404297572974208  1.0958282835188178 34.2610797787343984   T   T   T
 10.4791465691297194  8.6046159863755278 29.9721978762332135   T   T   T
 10.6551756057358986  2.6187771975027498 28.1952818277796524   T   T   T
  1.0391437460558124  8.2451341780130019 28.2829297461257951   T   T   T
  3.1178690020760897  4.4918888734724876 24.1887691230310331   T   T   T
 17.7705572424680760 11.8450000158747546 22.2504735364648596   T   T   T
 20.3857057740398417  3.7127568707010545 37.5100563574413144   T   T   T
 10.2680217575718693 11.4934219368681010 36.4144888731029539   T   T   T
 13.7631720572808689  3.2202654156736559 32.0225343408154686   T   T   T
  2.2982990023678314 10.1648399887655625 30.3878839763321764   T   T   T
  6.5483576555022340  4.2018967745039202 22.6878594012175085   T   T   T
 15.0381702562095718 11.3294587894199470 23.8544930784697478   T   T   T
 21.9625729294465266  4.5471624811244071 34.5476458225556087   T   T   T
 11.4753227579773114 12.1903675636065660 31.1526755312466008   T   T   T
 11.7563963007206134  1.1131129835844609 30.8838798232324372   T   T   T
 -0.5689249211983198 11.5404547651795113 28.0696209092688704   T   T   T
  4.7289276527784549 -2.8374588253926190 22.3118664912436806   T   T   T
 15.9374737973790239  8.0845970991694287 23.9737021313357701   T   T   T
 22.7526668009400446  1.0016828294981814 37.3831499213925866   T   T   T
  9.5884510753461605  8.5077076442966710 37.2509599400055436   T   T   T
 11.8758489594921262  5.1585712456158026 30.5838041868267005   T   T   T
 22.6309725217536979 13.4437288768317966 26.2375277521766783   T   T   T
  8.1887038754528980  7.0834622839385784 28.0916823894484686   T   T   T
 18.2085608683812445  0.8956011235323540 31.7593281094495303   T   T   T
 25.1805387321981087  7.8478147850240303 23.2297107257945896   T   T   T
  8.6165626241376234 -1.9135180753723282 22.5704660418280767   T   T   T
 16.1752394155045565  7.9309771115066718 34.3029778403527672   T   T   T
 -0.0450505419031596 -0.0558478538838682 36.4373599551746139   T   T   T
  4.4878810429693923  4.7784343198526731 29.4613788403460362   T   T   T
 21.3938277927320186 14.3066781013742830 30.0744825398375966   T   T   T
 21.9456125609460386  8.3679378996255238 24.7242452321050941   T   T   T
 12.1848367537613989 13.0885754898717135 22.2442996187172355   T   T   T
 12.0738892797054795  6.3496542928546278 37.1269367752108366   T   T   T
  0.2002211578774996 12.7477463904505210 34.3622381227608855   T   T   T
  9.1768819847654317  5.7961544834072818 22.3074711057399284   T   T   T
 20.0107251265047310 12.1489023503868747 28.7949651241389404   T   T   T
 23.0822687413065744  4.3904016165152511 22.7085117933725087   T   T   T
 10.6947718947809012 16.3406588872686953 22.8904977373416223   T   T   T
 15.6790431749053685  5.5580136489377781 34.7756662053578651   T   T   T
  3.8134829376382369 14.1285614275689380 33.8409527906818965   T   T   T
  7.4325118555955223  4.6323317716222405 28.2269654297247037   T   T   T
 22.6540550364771818 15.7977970690498104 23.8341931342554609   T   T   T
 23.7236045148500949  5.6570551249517500 25.8143391562560574   T   T   T
 12.4659129658873056 13.7421842327200636 25.2926928180496375   T   T   T
 12.3163183843645978  8.5873555928079313 35.1075872726207905   T   T   T
  2.2571235207916529 16.1498861351466658 36.8048555847608441   T   T   T
  4.6166021133477910  7.9197532697828485 27.9751857128920847   T   T   T
 18.2722996534894797 -1.9584396282179466 31.6260012253954237   T   T   T
 25.4260656488476613  4.9300035653688576 23.3206025107415762   T   T   T
  9.3138811268954278  0.1905844203434373 25.3675236820440304   T   T   T
 18.7277518375748535  9.1970856980783573 34.6943476168208491   T   T   T
  1.0791028100940454  1.2478115731464074 33.8541695724334488   T   T   T
  6.4859516563547190  5.3089823953114301 31.1208088125566533   T   T   T
 19.3581288718007833 15.7675492351313231 28.3297600943749579   T   T   T
 20.8368146989053606  5.5683612424816538 23.5690509579089920   T   T   T
  9.7811496292907343 11.3824836093140416 24.4451927155583029   T   T   T
 12.4998584568412809  5.9219652395023790 34.1238453030358926   T   T   T
 -0.5017155151721803 12.8781090574320043 39.9677102347552591   T   T   T
 23.8284937642217116  3.2124846141346017 31.5212327266890675   T   T   T
  7.2376878569449223 15.0821360592392466 28.4074649944578788   T   T   T
 15.8015888181259108  3.4143694086193399 21.8360045912777849   T   T   T
  2.2263876382485748 11.3343308318580505 22.7257708608630473   T   T   T
  9.3003416083926691  2.9049081758213298 39.2088360309187891   T   T   T
 19.0147321484081573 11.9861876409367198 35.4754152995058831   T   T   T
 25.2606981686760541  5.5049655751206270 29.3050818412311536   T   T   T
 13.1779113342389529 12.2771842340883168 28.6003002047013304   T   T   T
 17.2700024050911658  0.1226098627824733 24.0614450098287271   T   T   T
  3.3643013847129994  8.1394224095782519 24.4962292658428780   T   T   T
  6.1215982012261101  3.4765157026252007 33.9411517032807666   T   T   T
 22.1198022394176697 11.4135955141208569 34.2704746313998356   T   T   T
 -2.0719141891438264  3.3287515960647696 28.5110548531615962   T   T   T
 15.2218754617919458 10.6913415895823629 30.3854638345059982   T   T   T
 16.6891422041006265  4.0667664143835127 25.6364436374769298   T   T   T
  8.5642170937057127  9.7499432273277726 20.2126976579186994   T   T   T
 10.6652236810404890  1.6382544728547965 34.0032212512471972   T   T   T
 23.9290584265586617 10.2326772093087222 37.0939158801376863   T   T   T
  1.6124960847496754  3.2351501565714513 31.4582483612378283   T   T   T
 10.8292116444357820 10.9620159846552454 28.2932320138326929   T   T   T
 18.9481346148428607  2.2088802274004715 24.8435723247030182   T   T   T
  3.0770263742560471 10.8529832980633998 26.1176999863744150   T   T   T
 11.8083500800267469  1.8097804541684399 37.1624565845038575   T   T   T
 21.3267293772266981 12.5000362478732736 36.6596367608193674   T   T   T
  1.2687212841024165  2.7382419803020270 27.9956133894366666   T   T   T
 11.8152956113107237  9.4754316716248344 32.0602955635688716   T   T   T
 18.5138258946800107  4.2047843761252217 22.5301935226169903   T   T   T
  6.1839487596240206 10.2673645732123582 25.3308369908460591   T   T   T
  6.5886628317188585 10.7034464887002230 34.3403937802390402   T   T   T
 17.1243923036341421 13.1880950102329102 28.6174199752951779   T   T   T
 24.5954873936743219  0.4720548181976028 29.7151262109680587   T   T   T
 13.4776781516478898  8.5236815013458820 28.5004626734909046   T   T   T
 14.7128940684619689  1.3781804355053484 23.7511725711166193   T   T   T
  5.3924691667048075  8.6938591359570268 21.9111881441522875   T   T   T
  9.2359623787233200 -0.0062276824363757 37.3137711075286944   T   T   T
 15.3141518660318834  9.0370372158438919 36.7589497103332548   T   T   T
 -0.2097640711539715  2.2381490198015599 -0.0972126076484663   T   T   T
 13.9531147310900501  8.0836133858901977  1.5437227427953750   T   T   T
 16.3207309511597458  0.8008629138020247  6.2065893828971337   T   T   T
  4.2971123545120031  7.6812364003347939  5.6542088380187217   T   T   T
  8.1232317149078188  0.6268406948892651 11.8365615361528693   T   T   T
 20.9578158290953418  7.7252635773668787 12.1423603423434852   T   T   T
 23.1661087771281444 11.4437703687212888  6.3883481245722766   T   T   T
  9.9899072918921146  4.3022367982533245  5.7642226022666163   T   T   T
 14.6232997981445116 11.0494553711994978 12.1012514668108437   T   T   T
  2.3388902580914155  4.5254688439946911 11.8195323894793205   T   T   T
  3.4776831535861659 10.9121003316066094 -0.1259053892080854   T   T   T
 16.0710008731304619  3.8417235646553656 -0.3090212749649609   T   T   T
  4.0170079165127808  0.2344157942137376  5.7415747523658798   T   T   T
 16.6344682815195135  8.5420548557334453  6.0613348302655501   T   T   T
 20.5336480389768319  0.4318069165222750 12.0402050261655749   T   T   T
  8.1891680395320794  8.0610143687606808 11.9371316417105309   T   T   T
 12.5859498016893205  0.6861425204952630  2.1915139705942850   T   T   T
  0.4305746701787042  8.4353314043050993  1.1563690818989754   T   T   T
 22.6750388331709267  4.1883472645454551  6.1306207806189859   T   T   T
 10.4321614866895995 11.7908909948174951  6.0174347172728968   T   T   T
 14.4372926341097507  4.0537516346847147 11.8749105086784503   T   T   T
  2.1310950336015098 11.8009525483898461 12.0620685068550735   T   T   T
  6.6405483750933243  4.1598438922561378 -0.2610022343268086   T   T   T
 19.0109968840525596 13.5321328924506279  0.0806937546099180   T   T   T
  4.8376926543461147  3.6895776379730472 18.3307573502872820   T   T   T
 19.5738333190557405 11.3869887968749346 19.1596960431626151   T   T   T
 20.7625608380621287  3.0756520771431610 31.2636391345860538   T   T   T
  8.3274998494974977 10.3181648463608813 31.2090937551254406   T   T   T
 12.5597793701839056  2.6445260495521357 25.3493499597330896   T   T   T
 25.2221189219265760 10.4671425713868214 25.4256701270592558   T   T   T
  2.2974986140688616  6.7309322446604956 31.1850527926423169   T   T   T
 14.7001507134976244 14.0540397947241349 31.4140898720392308   T   T   T
 18.7540907049477781  6.4746673491384152 25.4702628135172446   T   T   T
  6.3017483503369869 13.8334644765616108 25.0579520821176622   T   T   T
 10.7520398683298648  8.1105957405405018 18.6292090613696786   T   T   T
 23.8720576399699809 13.9996627789846890 18.7483350188973006   T   T   T
  8.4210040420409609  2.6946737935095677 31.2003785932950279   T   T   T
 20.7091973398926790 10.0166235928981582 31.6073391490723878   T   T   T
 25.2022554831329586  2.6682967008078631 25.2833234357427052   T   T   T
 12.8019135247157561 10.1259293655886928 25.2965836976689147   T   T   T
 16.2102140265738512  4.0228573177022007 19.0377032711096312   T   T   T
  4.7074853202175362 10.6717211267330505 19.4312160035402144   T   T   T
  2.0149428992951708 -0.5709033872763281 31.3408066479050618   T   T   T
 14.5429196557518505  6.9217891104196108 31.2631754152435235   T   T   T
 19.4485665713213258 13.6921062140701295 25.4948290745762698   T   T   T
  6.4155233195296946  6.4430803466182258 25.1841746802719086   T   T   T
 10.7787800154517228 14.2405155303969817 19.3679025933183588   T   T   T
 24.0923753159162892  5.8808803932132943 19.1796049155472055   T   T   T
  4.0023820786193784  0.0305651574587655  7.8719592972154295   T   T   T
 16.7209264823628700  8.3097085409481402  8.0808418409833003   T   T   T
 20.7139998176870748  0.5424795484497029 14.1301495458128823   T   T   T
  8.0364569345644323  8.2022781357754102 13.9282108193359573   T   T   T
 10.2623340757514079  0.5750169317506187  2.0603673665383369   T   T   T
  1.5666753104947069 10.0017388648387211  0.1139415693099600   T   T   T
 21.3223797393130035  2.1505542824370054 11.3453271811377885   T   T   T
  9.2179773181112576  9.7383107731918486 11.2866517151073378   T   T   T
 13.2541743150516336 -0.3179696048209933 16.7342315591887392   T   T   T
  1.0667657712360854  8.6312453232638706 18.3752875321475813   T   T   T
  4.9047793954353498  1.9368066565010622  5.2597704862307237   T   T   T
 17.7868544288486383 10.1224223757363436  5.2574526168221842   T   T   T
 22.0005774266259557  6.0146254889896973 11.3956914867557835   T   T   T
  8.9434698951022238 13.4019731925384207 11.1302304878347744   T   T   T
 15.0200203557503471  8.4867388081652262 17.2846001211066032   T   T   T
  0.3501339355893631 17.1675870153770447 16.9417938857755779   T   T   T
  5.1886092775676316  5.9422547287777228  5.1482345897149191   T   T   T
 17.2264260540642233 13.6546085643076154  5.4578554800556107   T   T   T
  6.1003409376453970  0.9179063059626086 11.2943216697041411   T   T   T
 19.0115919890883909  7.7360317167587072 11.2373610072613914   T   T   T
 23.0416524900289161 -0.6213397040021954 16.8071450710261452   T   T   T
  9.2628768607874488  9.3514797574300381 17.8549987406468809   T   T   T
 14.3303428563683237  1.1058237161793616  5.6186882163620560   T   T   T
  2.2253019938905307  7.5779541621137883  4.8067752347530250   T   T   T
  2.0560333983830597  3.9119363434935641  7.1828035588870760   T   T   T
 14.4203336647504496 11.4698680189154221  7.6889822692781324   T   T   T
 18.4375807051992382  3.6958845411566488 13.2181322516741968   T   T   T
  6.2920341316523185 11.9689069878965100 13.5562691163684974   T   T   T
 10.9777324977203108  4.4567336792479528  1.2867086842657358   T   T   T
 22.9518919446961220 11.8049078477422302  1.6371767526077581   T   T   T
 23.0795834715713433  4.2839606559810219  8.0846013674229926   T   T   T
  9.9854626422771737 11.7855773873802665  8.0627942721238597   T   T   T
 14.2100067253936810  4.1144794281493651 13.8997216094824783   T   T   T
  1.9261905075011221 11.8802633427355158 14.2167334803496406   T   T   T
  6.8444597026669571  2.9074912122903385  1.5073060263697586   T   T   T
 18.7125049484240478 12.0665217793515112  1.6312085550677617   T   T   T
  0.1503441893179664 11.6506773430330064 11.4007508445166241   T   T   T
 15.7725757726307787  5.6155946471195568 11.3211851252400830   T   T   T
 21.2460166041097658  8.7581148925637109 17.8488665111250135   T   T   T
  6.5920834966879465  0.7757947254625569 18.5276794604893169   T   T   T
 11.4816961853332291 13.3259751756429843  5.3400411765291178   T   T   T
 23.6100288450115983  5.9374572117570112  5.3123933768407410   T   T   T
  3.2422605832492479  2.8146117268900110 11.0690401875775972   T   T   T
 15.6941405438727362  9.4318947084681213 11.4141120504957350   T   T   T
 18.6895822126471067  1.1575440827679864 17.4014548656886454   T   T   T
  6.3969932723263163 12.4213319081099112 15.5839018071338735   T   T   T
 11.3723827116101770  2.6764905593194195  5.8458775257843802   T   T   T
 24.1472895033458030  9.7817467875816320  5.6574026896564469   T   T   T
  0.2896739769332266  4.5553370691547421 11.3233561268262672   T   T   T
 12.6478466393048166 11.1753357617877942 11.3579713156416702   T   T   T
 14.3425092528241169  4.6044978015563371 18.3922978304372187   T   T   T
  4.5966508597379789  8.6037734300701914 19.7361194338759098   T   T   T
  8.3216527622121355  3.7100122287375625  4.6410646981902639   T   T   T
 21.2583362550343296 11.3484234853719848  5.7324023626033567   T   T   T
  0.1081715347273381  0.7547861104882143 13.4282810052371211   T   T   T
 12.3561166447002453  7.9383440954284676 13.9563431986323447   T   T   T
 16.0235791069143865  0.8652895401536790  2.1026632380352752   T   T   T
  4.0537666578876026  6.7771785204825878  1.3658696066976581   T   T   T
  7.9821308137313114  0.4792116226602679  7.3903713385933889   T   T   T
 20.7481583826901854  7.9851971883619921  7.9140970953776497   T   T   T
 24.3730024300093646  1.2056385140174868  1.7394743537521822   T   T   T
 11.7869863174323992  7.9187203945844207  1.9185082545364609   T   T   T
 16.4914567779087449  0.7310893525014649  8.1826758592416748   T   T   T
  4.3019519494843346  7.5814462274896401  7.7939525897321351   T   T   T
  8.4451678955128600  0.6897565137216332 13.7841966259835118   T   T   T
 20.9034412121272837  7.6882394571561781 14.1484909420201888   T   T   T
 22.0263727044521325  9.5042565767773581 11.3989219500660290   T   T   T
  8.9681447239044285  2.3233025328818555 10.8163805953461072   T   T   T
 13.5710684120935507  9.9141027577984495 17.6997540430809330   T   T   T
  1.2891348931773625  0.7376469355771239 17.1257265292462861   T   T   T