Li P  S  Cl
 1.0000000000000000
    20.5609999999999999    0.0000000000000000    0.0000000000000013
     0.0000000000000033   20.5609999999999999    0.0000000000000013
     0.0000000000000000    0.0000000000000000   20.5609999999999999
 Li  P   S   Cl 
 192  32 160  32
Selective dynamics
Cartesian
  2.6237751530349014  0.4179414398995753  2.6326302884571793   T   T   T
  8.2144976118849815  7.5893733615355270 10.1312127318394456   T   T   T
  9.0614402041426985  9.1957463459798987  2.3347038705623167   T   T   T
  7.0268481694897540  3.9854358882790439  5.7775470935884838   T   T   T
  1.0430430790458560  8.2609373252078981  9.5140090714023913   T   T   T
  0.6720915762863670  2.1192937242290411  0.7891939668491120   T   T   T
  3.1181373540432435 -0.4420325403262233  7.2382151110360793   T   T   T
  8.0440164115828381  7.7013688004088063  4.8923200533736981   T   T   T
  7.3656904311796643  0.5722682071677403  5.6226625561350927   T   T   T
  3.0100991276918361 10.7334794767738515  3.2762365426553872   T   T   T
  4.8359044982297998  7.8824976132857509  3.3263273951858041   T   T   T
  4.6103493665522004  7.2468908578240558  8.6966759590605260   T   T   T
  6.5041109424875261  7.4512984938257141  0.4666659433825107   T   T   T
  5.3803595264959245  3.5668935014433027  8.1438999882993794   T   T   T
  4.4862404997781891  3.0796342666534158  1.2267735118203504   T   T   T
  0.4541093925091668  7.6970716448308414  6.9473718529025694   T   T   T
  7.7260803656675945  3.2925545295179357 10.2329377249063604   T   T   T
  7.5491015020466374  5.5328273010684343  2.6201454224328335   T   T   T
  2.5903378366209844  5.1939481886570089  7.6136609945386695   T   T   T
  0.3786942700967403  3.2517852325865451  4.1893285262565190   T   T   T
  2.5591971118685692  5.1049353485866318  1.4591783935553044   T   T   T
  3.8197403896321931  7.7361784214187237  5.7599331607257289   T   T   T
  9.5422716092110473  3.9522504719271572  7.5024078658752158   T   T   T
  6.7424818599224858 10.3026779926311853  3.4652518978599023   T   T   T
  3.0768889946348374  0.4066098597776101 13.1096440319483918   T   T   T
  2.3068158987614744 10.2955109223329657 18.0478060254925197   T   T   T
  9.4450775961352278  5.9780210130242528 13.4438450409690944   T   T   T
  6.8684952985474474  3.2044423720108086 20.2518035513585737   T   T   T
  2.8025302491676718  7.7050799730650361 15.5449135369038878   T   T   T
  1.9984097719214085  3.1144776685144016 15.3498676588639196   T   T   T
  8.3731427617006116  2.4987308854292216 15.9165499187806407   T   T   T
 10.2097127634453440  6.8056937710512262 17.2786898911478062   T   T   T
  7.2925201702410449  0.2378469874809332 18.0067683992496335   T   T   T
  9.7829766567505505  9.5376335629567066 12.8041825992913925   T   T   T
  2.4928524598845914  4.8553987001846801 12.6813198871849000   T   T   T
  2.9558344244555599  5.5416516375371785 18.6394784158712454   T   T   T
  7.1467364996499203  8.1935750464739883 14.9884234070529594   T   T   T
 10.1737590204864130  1.6849482355551197 18.5316007387005577   T   T   T
  2.5913040629123438  2.7694374802742954 10.6532722864488605   T   T   T
  1.7508116420693065  8.5097093029059838 20.1921607275118689   T   T   T
  7.9607170502314348  4.5867225470378576 17.4853298431825834   T   T   T
  6.2227590754630304  6.4336794121175354 12.6515924244630398   T   T   T
  0.2591065051854029  7.5376475020946598 17.3526209849914643   T   T   T
  0.2271840060628788  2.9239814027755213 12.7398469626565465   T   T   T
  5.0243699966136770  2.8083167299476712 12.8834418732522913   T   T   T
  4.5417627803711484  7.7876583900912202 18.4860135619163621   T   T   T
  5.4250401196617872  1.8277948072506316 17.7347894347899846   T   T   T
  6.3708168203963895  9.8248929002927827 13.0870373400513831   T   T   T
  3.1794897190345521 15.0760229475167016  1.8862341257009958   T   T   T
  5.3252730195132507 17.8259437115766417  7.6193707021937174   T   T   T
  5.9717257813000204 18.4404643201774689  4.2573280771955382   T   T   T
  8.0045258342378816 13.4505374168920788  5.2928758085606331   T   T   T
  2.2422705798936304 17.2731841180425434  5.5028669424833607   T   T   T
  1.7714102315805973 12.5433879888502648  0.2950336830099069   T   T   T
  5.3028914962146461 12.3002901782202976  7.4769901341179725   T   T   T
  7.5847534012364104 15.6810600199039420  2.7828753822050158   T   T   T
  9.9844721355640562 13.0747301082395921  7.3284704791393009   T   T   T
  8.2156309186928631 18.0554690760687464  0.0382881357723363   T   T   T
 -0.0093033342653377 13.5521123876843994  2.5763072071630848   T   T   T
 -2.7726417338418505 20.8983729780233531  5.7128648504257171   T   T   T
  9.5048950776455587 17.9522967223270768  3.0550489647704442   T   T   T
  7.2072477756414131 13.4973957481686782  9.8533969583076715   T   T   T
 -2.9732083485216441 15.6941104640230265  2.5895453340646140   T   T   T
  0.5171080342203712 18.4279338283414447  8.2892156469792919   T   T   T
  8.1789927219830059 10.6885305408137032  8.5533948672082580   T   T   T
  5.3150030021575008 17.4976952556240022  1.2786055456255014   T   T   T
  3.0954935856969517 17.7297696697608771  9.8929459750058406   T   T   T
  4.6826047290678856 13.2337537962582168  2.0948372653160421   T   T   T
  1.8845304099266831 13.6022582342760447  4.9886018238011216   T   T   T
  2.5897936447335743 15.5927090121788527  7.9713788242210386   T   T   T
  7.5388480229031822 15.2988664865711801  7.6505458350754454   T   T   T
  7.9732852664555018 20.3375365045581589  1.7257038276681333   T   T   T
  2.3198601951435887 11.8685258120638384 10.4985514954063035   T   T   T
  1.8108841835061782 17.3533409313267555 15.1912345469135808   T   T   T
  7.8211961138201120 19.7742650264999043 11.7028992346524063   T   T   T
  7.9180573648963994 11.7621041872441019 19.9566740895689598   T   T   T
  3.5023233219326251 15.9197459675258397 18.4174822569036856   T   T   T
  4.9313624094540813 13.2314207161205069 12.0535545145309104   T   T   T
  7.1656797509839061 15.0903956702937219 19.0733572574644938   T   T   T
  8.8388363906177272 21.3507096833932977  8.4323322649608183   T   T   T
  7.9431804642987611 15.3881352608657505 15.9733357191877445   T   T   T
  7.3941432982136099 18.3787769607030498 15.4986094749981635   T   T   T
  4.4345407970003139 12.2246792530192607 14.4748538118126326   T   T   T
  1.7395091452594833 18.6621559545186244 20.0230990172202645   T   T   T
  5.4669753569359854 17.9238584174233395 13.0187810073534092   T   T   T
 10.2295077240184469 13.2214827127859973 17.7520954444889121   T   T   T
  2.1536188419968045 10.1426425319566000 12.4375567724961833   T   T   T
  9.9947356372656415 17.1109630668455992 14.2382694540100054   T   T   T
  5.5342082798244370 12.6123663100569825 17.6537065199087593   T   T   T
  7.1213329911994219 17.5916732565933245 10.6119131628880048   T   T   T
  2.7813792044355248 20.1828650788799706 17.5871892632668931   T   T   T
  0.8929162103589712 13.1215026537111950 14.5791573394460539   T   T   T
  2.4766772267775861 14.8076241545499183 12.9295011178197754   T   T   T
  0.1495214181895042 17.7010499646705171 17.6490062208165348   T   T   T
  7.6214556892844483 10.9904291591403869 16.6624617441439931   T   T   T
  7.7580099630051675 15.3771857241910830 12.7894696621334187   T   T   T
 10.9686628403523301  1.7251558821172539  1.4756217222348043   T   T   T
 11.8890269023446091  7.9657051866764386  9.7506559166706470   T   T   T
 17.7097943242580982  7.9235792036358905  0.4797808015660384   T   T   T
 23.6441713009709957  2.4400755914795891  4.2492423651884170   T   T   T
 14.8559087030230916  7.5183300929436996  9.6386382942923738   T   T   T
 11.2574410833233785  2.6739844487022064  4.1885655290956656   T   T   T
 17.9647600823265705  4.2096049024886222  5.7536322192011191   T   T   T
 19.6910085992804511  9.0694566643320780  2.4167127102255455   T   T   T
 17.9466252767804733  0.5330768830099706  9.0163031426137294   T   T   T
 15.5653865215442870  8.5140152003688581  3.2875342355864912   T   T   T
 14.5677582302999404  2.9907012679129661  0.7028952925690675   T   T   T
 12.4355001445644859  9.8521806047959171  8.1588461431617052   T   T   T
 18.2226955427235353 14.9362820818159072  6.2346900038195026   T   T   T
 20.0249598550976202  2.4524683595611116  8.1995076396071394   T   T   T
 14.6799195282256321  2.2596556025687713  4.3978619002695361   T   T   T
 11.7729269902594496  6.7125191872155900  5.4085457963479371   T   T   T
 15.6447038543635113  1.8842166135908409  7.1579478190471857   T   T   T
 18.3204434119848543  7.6551307677475693  4.8907931703672975   T   T   T
 12.8167445358231191  5.2388335522131415  7.6817915480397270   T   T   T
 13.4083841516865867  0.1958412432111436  2.9794895315984156   T   T   T
 11.6544161370350903  4.6896717445303588  2.9027942097053945   T   T   T
 14.4359730956541874  8.0568124606532034  6.3484702190594628   T   T   T
 17.1411462765222993  3.5283321746475984  9.6235092721887217   T   T   T
 18.8520314763227006  5.4650902706052502  2.8715509603492779   T   T   T
 12.2934973011788351  2.1695620302283563 10.5478906341006677   T   T   T
 12.7914226523019057  5.3713967843237622 16.5133799061680442   T   T   T
 15.9166485763748007  7.2889047694395082 12.6205900264966449   T   T   T
 17.9629342848175000  2.5138357748146967 20.2105824833316490   T   T   T
 10.6364329207952846  8.1512695513053810 20.1102466891748257   T   T   T
 10.6283837198396007  2.9644631998445505 13.7970107016080874   T   T   T
 18.4729902543568159  2.4327727944848898 15.4660657569838609   T   T   T
 20.2456996792358197  7.5002836066656737 13.2971081982962094   T   T   T
 16.0378497387230041  5.6541598770950117 22.5237299210965709   T   T   T
 17.4170153654376421  9.0562435403737052 14.4822430638682818   T   T   T
 13.1336515944806358  4.4705447422501274 12.6640889391878755   T   T   T
 12.5063508392497056  9.7159410019269732 18.1459186617747683   T   T   T
 18.8422503274023043  9.7715311443084314 11.9266811033215863   T   T   T
 20.3097525266380430  3.9293023615141309 17.7352955265025933   T   T   T
 15.3639651575550751  2.5752721261892177 12.5588687827328513   T   T   T
 13.0321143962478718  5.1558903453007598 19.4476358757634884   T   T   T
 16.1106111641498515  2.0967485318491850 17.3154807310065308   T   T   T
 17.8950735107509047  5.4092671776408432 12.4329906259061840   T   T   T
 14.7379360311551970  7.5200438403627272 19.3638548794139744   T   T   T
 12.4799283320199095 -0.0596273866162866 12.8792010322679946   T   T   T
 13.6253491236114286  1.1598295180632177 15.3002497373719262   T   T   T
 14.0730551204126293  7.9746844283497920 15.8878847655947446   T   T   T
 17.6352280770405301  4.9981380798892481 18.2278678378771382   T   T   T
 18.3339846874380967  8.1329071368737509 10.0743723485458059   T   T   T
 15.0509827226961068 12.3262624160588441  3.5652716114180127   T   T   T
 12.0281889973395320 18.9269508441282639 10.4058909154591124   T   T   T
 17.2360021036783735 20.2490729995127978  2.6543983909070130   T   T   T
 18.4907536567512381 14.8881520442502886  9.4577552232243391   T   T   T
 12.8297238505357587 17.0519479163748997  5.8373930569861656   T   T   T
 10.1690649444495413 12.3740603477445159  2.3360123318274981   T   T   T
 15.9282338619891064 13.3515252190407221  8.4317266746903385   T   T   T
 18.1624180951809109 18.0568471535810886  0.2407764790911525   T   T   T
 20.5143242353644695 13.4324160321108739  7.3496576190721372   T   T   T
 18.3140360271719089 18.0018181829227615  4.7463781411325252   T   T   T
 12.8133141006679914 15.0381085739597218  2.6322664101823561   T   T   T
 14.9024701805467590 17.1453197702376841  8.0280248782849615   T   T   T
 20.2679606640366217 18.5209896547921957  2.0553836488463766   T   T   T
 18.0423467651695617 11.5942394488682758  9.5046824940207220   T   T   T
 12.6468805586208042 10.1891129455453608  2.6628438938224419   T   T   T
 13.2153529759200943 16.0325792741000370  9.3458596381869956   T   T   T
 17.7191664542872829 11.0128165146296837  5.7484016103235875   T   T   T
 19.3673466678780670 21.0174183006900250 -2.2595904238995406   T   T   T
 12.1773495323496892 19.8918361981863612  7.9142686162434757   T   T   T
 14.1397436369758420 12.9851584705814247  0.9334782063788509   T   T   T
 12.0857701135003808 13.1745992619724106  5.0223151356151297   T   T   T
 10.6529219855819495 17.2284388503130259  7.4053964449405276   T   T   T
 23.6267652951579450  9.9209906814446889  7.0802074240857671   T   T   T
 15.7729221560318162 17.7527563184079327  2.1381734931280381   T   T   T
 10.7574695909258384 12.2847224812032554 12.6151731294520104   T   T   T
 11.0704991558341419 16.9761759290154970 18.1952984028056264   T   T   T
 25.3894218228934108 18.5971359569543750 18.1088223505383574   T   T   T
 17.2562690993730428 13.2946713056041368 20.3371087053325184   T   T   T
 12.5963938742752148 17.2767735115508216 15.8233610021106976   T   T   T
 13.7431826655710694 10.5952591991494440 13.6380379503547946   T   T   T
 17.4642572589950902 12.1940280923860804 15.6290081305479891   T   T   T
 16.1205604091446020 17.4835647181371527 11.2328157484501041   T   T   T
 16.7319527963408703 15.4115120437309141 18.2141999676918154   T   T   T
 18.8495148867809803 15.7745795508265729 13.5666447626732776   T   T   T
 12.7183481105924727 15.0753685071351029 12.9533028638880552   T   T   T
 13.5759744134371019 15.8303425269856550 19.5534933993382722   T   T   T
 19.9092640285923252 19.7709466507236726 12.3114286683025576   T   T   T
 15.6099913801170764 12.2364946595850874 17.6947042516294495   T   T   T
 12.6801668484567607 12.8202210767667548 10.5313952893499572   T   T   T
 15.1936903425604424 19.2771738260685339 17.7640868078569412   T   T   T
 18.9447785474538364 10.9333650176285566 18.9097678785832990   T   T   T
 18.6551244933658609 18.1057108266632909 10.5888762854727112   T   T   T
 19.7668454828464490 13.5162287643345334 17.2932247710804710   T   T   T
 12.5037973242911953 12.8837321051063380 15.0749731825661026   T   T   T
 15.4243376439828825 12.9234956324259400 12.4895113331716612   T   T   T
 12.5619484246807076 20.0098121667491640 18.5773200562252789   T   T   T
 17.7902617273546682 18.4294032843692364 14.9050774183280854   T   T   T
 16.7891165017279604 20.1510149157205021 12.6484229162668527   T   T   T
  0.2063283488083606  0.0424512166689195  5.2337007849524149   T   T   T
  5.0801981385335502  0.0867787658390818  0.1057933757231172   T   T   T
 -0.1474591676529413  5.0946150386510149 -0.0494874398685805   T   T   T
  4.6782601672955373  5.1698625210274658  4.7238410482908497   T   T   T
  0.2655463847066892 -0.1336955403734132 15.1893232314576654   T   T   T
  5.3026743909595364  0.0183750112100573 10.1123208845618571   T   T   T
 -0.0475466092235372  5.0652015993008890 10.2767359480613081   T   T   T
  5.2448836849617244  5.2889980092188313 15.3503425851953512   T   T   T
  0.0145171079168444 10.5314611086934455  4.9793158671571582   T   T   T
  5.0776319946407273 10.3915966988353254  0.2491162671178439   T   T   T
 -0.4704435127686942 15.4045383822116140 -0.0906377437764205   T   T   T
  5.1291220422366797 15.5077795232288711  4.9923572396594338   T   T   T
 -0.3109550098615473 10.4146008898372990 15.6146278638961107   T   T   T
  5.2526848148140637 10.1708542938044761 10.3779581093322886   T   T   T
  0.3490105160652872 15.3556808805116152 10.4305592166703818   T   T   T
  4.9850092826836914 15.3347959395213298 15.5146513492568374   T   T   T
 10.4077652516934087 -0.0752802266481504  5.0051590677322100   T   T   T
 15.5240317846307736  0.0055628294011932 -0.1525290566654254   T   T   T
  9.9964393821073738  5.1117929407079163  0.0103146274779351   T   T   T
 15.2754809676921610  5.2937515006869864  5.0812093257054265   T   T   T
 10.3582852580031091 -0.2243294643966039 15.6726671168307963   T   T   T
 15.1478416794600808 -0.0917260775996350 10.1601482877896423   T   T   T
 10.5044135332992816  4.9766911202810089 10.4353153633428786   T   T   T
 15.7495126782987480  5.2022906685147445 15.4659455407993693   T   T   T
 10.0799576341666199 10.3137171264043896  5.1674748416554497   T   T   T
 15.1896369501740232 10.5541039402769261  0.0927272527071542   T   T   T
  9.9399467062716216 15.3238488165058087  0.2138880598110013   T   T   T
 15.5497046288181036 15.4126046731048518  5.1823142603502443   T   T   T
 10.5119675110359641  9.9379459846654541 15.4762847293903292   T   T   T
 15.5110874358073545 10.4036646444769314 10.3482354929265572   T   T   T
 10.1439471485936998 15.1857681029787894 10.3576027539568223   T   T   T
 15.5832539058154911 15.4684399237539836 15.3965973123966862   T   T   T
  1.4579280394803238  1.2704571190868845  6.2267251888040107   T   T   T
  1.0505006189817656  9.1549509646608254  3.7873377289867816   T   T   T
  9.2856650565630261  8.9854104012469360  6.5330855706303064   T   T   T
  9.3008353250317075  1.1684192830920224  3.7349894670523254   T   T   T
  6.1607410730111249  1.3731970660910744  1.2371946312109754   T   T   T
  4.1493257744149057  1.1498434089298202  8.8699588658475506   T   T   T
  6.5590149964988926  8.9626276890665881  9.1547207258639673   T   T   T
  3.8648441046317878  9.0405382289648468  1.0372828172007713   T   T   T
  0.7929171289302533  6.5214215685312205  1.0509830617636564   T   T   T
  8.8521759367504860  4.2029154026295377  1.4568120606836239   T   T   T
  9.2804639927861476  5.8355695461552637  9.1112103106442603   T   T   T
  1.3086973165409446  3.9374606340860323  8.9345760225648849   T   T   T
  5.9445200366991413  6.2424025743794127  5.8879562639592269   T   T   T
  5.9530117293587006  3.7844458215905363  3.7043899542297036   T   T   T
  3.4445014757892896  3.9882491431464886  6.1019557507597408   T   T   T
  3.4245591545420551  6.2545932554313879  3.6555763689315435   T   T   T
  2.0082912625388332  2.8211641726655365  2.4411296202246771   T   T   T
  2.6065480409092028  7.7645733035674418  7.6650601040789574   T   T   T
  7.2143107699118127  7.8955847661988949  2.4533465837238633   T   T   T
  7.4324504051550457  2.6881279531177573  7.7970867739473366   T   T   T
  1.2337673504356388  1.1207442347592864 16.5583804854566665   T   T   T
  0.9666996247038306  9.0599634149217145 14.7236020880817282   T   T   T
  9.1279614100651614  8.9257966088695255 16.6008536914373082   T   T   T
  9.0105657904186671  0.8095105476055841 14.4701448395653589   T   T   T
  6.4458943634355430  1.2813882248198061 11.3313910412110737   T   T   T
  3.6852566785325811  1.2590218030949214 19.4532192685375378   T   T   T
  6.1186085123626555  9.2755915883213156 19.3789667616010561   T   T   T
  4.1461633348670075  9.2609893513300037 11.7767170623140451   T   T   T
  1.0699443033061002  6.1725224406666879 11.6549563624559429   T   T   T
  9.3715212256283884  3.7976384795930525 11.7637255776804714   T   T   T
  8.9658551561195932  6.5219375201858352 19.5619823072178605   T   T   T
  1.3409359893844162  3.7954930898084935 19.7996357871809927   T   T   T
  6.2848764852417149  6.3110317758016343 16.7131405827313593   T   T   T
  6.5630972122178184  4.2766977933981627 14.0062435546037758   T   T   T
  4.0072400316707233  4.1316569115236570 16.6493065852842932   T   T   T
  4.1092683601224751  6.4607081089555507 14.0537973779106427   T   T   T
  2.5991029135040740  2.4418309161432656 12.9999090755287927   T   T   T
  2.3331999652544075  7.9705888684847999 17.8847111314418541   T   T   T
  7.7672643983810969  7.9386848868525473 12.5470896175801467   T   T   T
  7.6620196570227899  2.3580345668620120 18.1049312346373021   T   T   T
  1.2089358860190633 11.6183055090839229  6.3246098681672267   T   T   T
  1.4597482097286161 19.2685015097491785  4.1499986439871073   T   T   T
  9.3259477252474401 19.4751738209854253  6.5186711023827106   T   T   T
  8.5661441689638931 11.5422695711647751  4.2638876689945029   T   T   T
  6.3759083072142282 11.6322051407645528  1.4458557367444964   T   T   T
  4.0840498660430500 11.0347486392364367  8.9831764231659683   T   T   T
  6.9011609328993559 19.5397337248506702  9.2242863523987886   T   T   T
  3.8004753826221829 19.3501090455279368  1.1383859228827791   T   T   T
  0.8801172250584203 16.6471690897006539  0.9355402411609418   T   T   T
  8.4390873192397695 14.1028461219724157  1.0463015251207359   T   T   T
  8.9435902276002626 16.3320250800440263  9.1884618561898250   T   T   T
  1.4753170582283379 13.8919714775619312  9.3172047961271609   T   T   T
  6.6073451403665908 16.7486099559142403  6.1044947232394451   T   T   T
  6.2364658650476681 14.1712100973585464  3.7707116129363953   T   T   T
  4.1041390486882117 14.2931894692115353  6.2666632207811794   T   T   T
  4.0570736752420764 16.7719103233717206  3.8512855255445566   T   T   T
  2.4159619505865022 13.1712051845876914  2.6307675765501934   T   T   T
  2.9587939488168016 17.8538747772120558  7.7646594783601790   T   T   T
  7.5017188116451150 18.0318901133770169  2.2552220873302611   T   T   T
  7.7596801558944692 12.7924591659721134  7.5821098869039432   T   T   T
  1.1622473262437605 11.5429810326577957 16.4567443131755091   T   T   T
  1.2832361847090328 19.4156272918370476 13.6806918662628796   T   T   T
  9.3359852509039740 18.9241132278443089 16.8962179991143344   T   T   T
  9.4327155343541431 11.2774610462527693 14.3982888631917039   T   T   T
  6.5743343933312834 11.5415890718955403 11.2452118486786201   T   T   T
  3.9638078074089078 11.9306168061694162 19.7638076467708999   T   T   T
  6.3958960120573556 19.4913844892349033 19.7457454844139697   T   T   T
  4.1894226423621905 19.4744414588471741 11.3111569066536521   T   T   T
  1.4916779200608201 16.7411987507020328 11.5604000101593023   T   T   T
  9.1032324261057340 13.9473243396628739 11.5716692476251097   T   T   T
  8.7750681897148279 16.4678809379710387 19.3336642308479796   T   T   T
  0.7821560716752516 14.1145929662273044 19.3962151099791562   T   T   T
  6.1420234287426645 16.4692417711272157 16.8540663289574333   T   T   T
  6.3299660765589616 14.3058655558324102 14.3970911943003266   T   T   T
  3.9584698691594395 13.8550683258089222 16.4754559634394404   T   T   T
  3.6332808639868408 16.4048696724121683 14.3092107725181314   T   T   T
  2.7157154946376658 12.4326890409584419 12.6883684346253442   T   T   T
  2.3682635940415930 17.7379059217938320 17.6232497597373623   T   T   T
  7.8237028209145061 17.7848957002854746 13.1652865117606535   T   T   T
  7.7641398277791147 13.1318807155636765 18.0161252634338958   T   T   T
 11.8115815939727540  1.2495394351400466  5.9040222080518099   T   T   T
 10.9298821812317115  9.0137429157880131  3.7577042985644660   T   T   T
 19.2189905990013941  9.4655525420522633  6.2846574660909180   T   T   T
 19.2597153766210383  1.1373311384933797  4.0132149773976149   T   T   T
 16.6177431424654500  1.3117800463466136  1.0503544148796378   T   T   T
 13.9400483763140848  1.1304230546444436  8.8626197582208537   T   T   T
 16.4495758476822473  9.3172295239636949  8.9890286496530667   T   T   T
 14.1924119621631455  8.9994697814254625  1.3688733690865920   T   T   T
 11.5296463837328442  6.1018008748653232  1.0012863963509429   T   T   T
 18.8422802492391384  4.0159642425512976  0.9970374498753176   T   T   T
 19.8380401702150380  6.3324789202477136  8.8930243420476049   T   T   T
 11.6161342129499996  3.7280322541060995  9.1578133352537936   T   T   T
 16.5559391841405414  6.4695595423829495  6.0983534587477752   T   T   T
 16.4620429080985389  4.2660328086209987  3.7109876572226193   T   T   T
 14.2774569781588188  4.0313796399135517  6.3869434543352792   T   T   T
 13.8786286940540684  6.4997732556610339  3.9874600513509231   T   T   T
 12.9107120822648582  2.5435799462947144  2.5537647490352442   T   T   T
 12.8358692748674130  7.3958401663919808  7.6948532842627051   T   T   T
 17.6634185152878231  7.5511866814166897  2.6936860993773681   T   T   T
 17.7479021209129897  2.3468548296339793  7.6334371105929968   T   T   T
 11.6362478133697920  1.0430660736496176 16.7224482893250972   T   T   T
 11.9606075154969886  8.8061920462218382 14.2851845586658595   T   T   T
 18.8046403142804479  9.6492318106698480 16.8354980216481955   T   T   T
 19.4687609538426400  0.9600479317615563 13.9334132659347496   T   T   T
 16.5380133537032208  1.3562352416319630 11.1040253793807260   T   T   T
 14.2467190486970523  1.0192571966013737 19.1766427478629389   T   T   T
 16.5117248254971116  9.4232972168735092 19.4033335158750191   T   T   T
 14.3918004092677627  9.2469941532518760 11.4764000699421214   T   T   T
 11.6248759230776102  6.4772978081379762 11.6116451265281153   T   T   T
 19.2900980571009342  3.6040665446645148 10.9632050316066909   T   T   T
 19.6075804883733937  6.1242873509541873 18.9265415137560176   T   T   T
 10.7388183491859586  3.8589025873901033 19.1502252627450495   T   T   T
 16.8993137189497631  6.4826711379337114 16.5814048759879960   T   T   T
 16.9529606771649526  4.1110046513290177 14.1314534335042641   T   T   T
 14.7653704900769362  3.8876825731566256 16.9379930593041692   T   T   T
 14.3728321422378613  6.0710049232104639 14.2889510448328494   T   T   T
 12.9009441870785402  2.2233446321013246 12.8427046524218582   T   T   T
 12.6970806815155246  7.4762049335388880 18.1852849289528287   T   T   T
 18.0682204992725062  7.8699774273370577 12.4175571672957545   T   T   T
 18.4706909068789287  2.6627564484661925 17.9210380441336063   T   T   T
 11.3358325264966080 11.3314350395265784  6.6096891517689729   T   T   T
 11.5139263594646959 18.9529099842842825  4.0992139647779346   T   T   T
 19.5320094784344391 19.3978898196946901  6.4303170080981511   T   T   T
 19.3066632725152232 11.5463088545752761  3.7342211579127627   T   T   T
 16.3705785947087179 11.5160979994453765  1.4449533403535384   T   T   T
 14.3502596450690678 11.7030256612553156  9.2906990616160918   T   T   T
 16.4864451657268702 19.2990209867392437  9.2011439789167717   T   T   T
 14.4158575747528328 19.4826605763993399  1.2163784709771590   T   T   T
 10.8616888008541626 16.5017089781664694  1.6187473607819713   T   T   T
 18.8296242464335748 14.3322943583347140  1.3726445253818376   T   T   T
 19.9633397767802592 16.6668195758908197  9.1503384145102462   T   T   T
 11.3516040972355672 14.1128759912128814  9.0494597278529394   T   T   T
 16.6684939195437991 16.7841813000441604  6.2972149828119042   T   T   T
 16.7965221015171764 14.1486677406872250  4.2669817390758924   T   T   T
 14.2855156129907943 14.1848047858415480  6.1909011428675029   T   T   T
 14.3605911291112776 16.5907451053705017  3.8447709344448926   T   T   T
 12.6249770662477818 12.6705564284454049  2.7634212977992765   T   T   T
 12.8705451999323710 17.8271759055057473  7.9248690414061800   T   T   T
 18.0393392658249851 17.9219968358023962  2.5817676322942695   T   T   T
 18.1991255598347479 13.3310118342739052  8.0044569837349027   T   T   T
 11.5340555333916051 11.1772429574265963 16.7179756980919194   T   T   T
 11.5021427969392551 19.1422248654390472 14.3668440886626367   T   T   T
 19.6790317853135051 19.4618938551568590 16.4069074621666360   T   T   T
 19.3464645348194892 11.6929265222099215 14.3189291291243528   T   T   T
 16.7938621810089614 11.4375546341157754 11.5419498774873741   T   T   T
 13.8127655138984267 11.5311737009277184 19.6320747302348693   T   T   T
 16.9007190047937570 19.4926431282654491 19.4380608844885998   T   T   T
 14.4060468351131714 19.4259741264353707 11.8053558501552143   T   T   T
 11.4040274232198175 16.5156512742963599 11.4178597480795503   T   T   T
 19.6816404090838972 14.4852237768468903 11.5838723212966297   T   T   T
 19.0001577379921329 16.3445318311054919 19.0391134442716243   T   T   T
 11.3612594493132786 14.4570307204098878 19.6236032094549735   T   T   T
 16.7671078603627208 16.8955313407416980 16.5179545970674866   T   T   T
 16.9223382949864316 14.2040283402439247 14.3598175565417865   T   T   T
 14.4269701048882357 14.2927719302950447 16.8720319771086089   T   T   T
 14.3059428681035055 16.5013517769346407 14.2316630640329098   T   T   T
 13.0188494924947094 12.6073137456805515 12.8147287561685843   T   T   T
 13.2137909754266065 18.0252842682984706 18.0698830379382294   T   T   T
 17.7728277042673284 17.8225573720920138 12.7712655313767698   T   T   T
 17.7839999045616182 12.9558602965919665 17.9125665535621046   T   T   T
  0.1626191794926916 -0.2760497561620722 -0.3160316148636748   T   T   T
  5.0165023017153114  5.1202000701757324  0.1842005850363520   T   T   T
  4.9133608310979948 -0.1596817772225763  5.2711498277339555   T   T   T
 -0.4390885039516924  5.4622181665105201  5.0107352353022527   T   T   T
 -0.3655943192671245 -0.1063211684714575 10.0799186261693965   T   T   T
  4.2903435784507957  5.0039150795654752 10.1713304231876034   T   T   T
  5.5199701125053977 -0.6066230812007465 16.4820218005729444   T   T   T
  0.0186376997183632  4.4973939910043015 14.9735106388618266   T   T   T
  0.1185601868466717 10.3548724752748917 -0.1215582472121873   T   T   T
  4.5731154377114072 15.6151767253587970  0.3915642487626285   T   T   T
  4.6591543920647753  9.6637722476107477  5.0568089359368154   T   T   T
  0.2032514642167319 15.0592328861400144  5.6439572719078166   T   T   T
  0.3005540846456088 10.1949032737689826 10.2987982199633024   T   T   T
  5.6946638508904766 15.1251372726087503 10.5690899237878337   T   T   T
  5.8129636325493008 10.0913147078737175 15.2286281417499758   T   T   T
 -0.1709452217316998 15.1819159874817906 15.1691491794278743   T   T   T
 10.0357183285722442  0.1894301365670650  0.0726946578128328   T   T   T
 14.9885411429653495  5.2671783887477508 -0.0385431114173811   T   T   T
 15.5388322774039267 -0.0386499372642920  4.6115509786024607   T   T   T
 10.4261055050258289  4.6751819893459476  5.0946708737286448   T   T   T
 10.6809784312832665  0.0470670777160223  9.9237484518015169   T   T   T
 15.7152134436429449  5.4891369341615093 10.6844818957247600   T   T   T