Li P  S  Cl
 1.0000000000000000
    25.1819793006824639    0.0000000000000000    0.0000000000000015
    -0.0000000000000009   14.5388225279766061    0.0000000000000009
     0.0000000000000000    0.0000000000000000   37.2126966544236950
 Li  P   S   Cl 
 286  48 240  48
Selective dynamics
Cartesian
  1.1898948350379674  1.7690047696715554  6.4428409888097180   T   T   T
 13.8583044766595709 11.2782310135068258  5.4838295137339603   T   T   T
 14.9369859176324233  4.6628334155983620  6.4981698424676138   T   T   T
  9.2842509746816386 10.3517210664509260 16.5154865255529941   T   T   T
  9.8674622422667166  0.6431962116584130  8.3442003987404316   T   T   T
 21.4822757574668586  5.9001137254335525  5.1540963359562193   T   T   T
  1.7246641450198865  5.4986854215244181  8.6412242415253555   T   T   T
 16.1949255443873277 11.3867294146032609  7.9788604728913057   T   T   T
 22.2730633506464066  3.8716749250065292 16.5511854789045643   T   T   T
  4.6038827761361567 11.2030634633687818 14.8141137157754095   T   T   T
 10.0572310943212830  3.7385593410377820 -0.7149081131598088   T   T   T
 22.7251557079078133  8.0591018121914129  2.6701971259905339   T   T   T
  0.6517043171386665  2.2869336287661945  9.1687849431750479   T   T   T
 16.2228141764790017  9.7958256733771787  4.4357847308963798   T   T   T
 19.2597699691012743  2.9576739674891548 15.8935719911805862   T   T   T
 10.1118920037608326 14.2733061375193309 22.6657300070729946   T   T   T
 10.3767318030371118 -4.6092136769685075 -0.9978092785343079   T   T   T
 19.0690887036850647  7.6146238319618895  6.4499155897675093   T   T   T
  0.4132725274622691  1.8047359583223637 13.8765078963692403   T   T   T
 14.7534362203912206  8.2794376060281731  8.9150228534369589   T   T   T
 18.3412813305472113 -2.3087563922911007 20.5223829234293156   T   T   T
  4.9838696327478091  8.4402967907881514 12.3925785235467298   T   T   T
 11.5045637949924533  0.8433322247054276 -3.0288254966938308   T   T   T
 26.1796877640247132 13.0907084562334592  0.3449366390603578   T   T   T
  5.1404806338286271  2.9197881530255034 14.8720255226589977   T   T   T
 13.5093657619834193  8.5420513426231039  6.2650569097100135   T   T   T
 19.7141936059343195  5.6829186252679964 14.4579196151986320   T   T   T
  9.7038465130400411  7.4062718314667810 19.3465941643112451   T   T   T
 23.7345685224927436 -0.2285051209011089 -2.6977824920582645   T   T   T
 24.5366974889212450 10.7351915161950071  2.8717562966193331   T   T   T
  3.3632267307084489  3.1970017070474976  5.6992294983418672   T   T   T
 12.3344405835829054 11.0449627145953233  8.3385360312991530   T   T   T
 19.9021315321255692  0.8907915045288515  6.3081122560491716   T   T   T
  6.1518026560964953 13.9650133442046336 17.0072161473190206   T   T   T
 15.6272101524898588  4.7922935427720015 -0.0089438138289096   T   T   T
 20.2120658023108000  8.3272924166550499  0.4575953781383163   T   T   T
 18.6172190894255607 19.0645162148958143 11.6948757457533414   T   T   T
 18.4936928331654862 12.7144414202698197 13.2154207146716622   T   T   T
 16.4527077558919785 11.4341143541382788  1.2753342094801432   T   T   T
 13.8866047091711167  4.8584218280427116 -2.3222873536747071   T   T   T
  7.7962842213445818 15.2867198067938208  4.7375227688923980   T   T   T
 20.3717886596412221  8.3427047107661849  9.1219424111741088   T   T   T
 24.2980061521362458 -2.4268683256819479 12.6628722144091679   T   T   T
 11.8551525793094221  9.5043969854727965 12.9062263509156345   T   T   T
 18.7183615664191336 -0.5933995899733699 -0.6962941326428727   T   T   T
  1.4753737290646218  9.0363156056822955 -0.0914080001069373   T   T   T
  6.3545975578868870  9.0745481688628331 15.0773769410897138   T   T   T
 23.3446189908224575  7.3234532980361440  7.2331793396822368   T   T   T
 -0.8414257291200448  4.3061087819841282 19.8317735358680025   T   T   T
 11.5212309582147938  7.4992686436566540 10.5544126776171812   T   T   T
 18.6825642124649143 -1.0163889477854140  2.6702095847879539   T   T   T
  6.1672761163315952  6.5373300321833199  8.4624951956114014   T   T   T
 12.6494914354640269  3.2431916971719428 24.2404145773200419   T   T   T
 21.3252048070474629 17.1236856055216009 12.8222696625960637   T   T   T
  0.7865152796630919 -0.7214891274017265 11.1114858591026433   T   T   T
  8.4069469537024641 10.4506881043995197 12.7166917418821139   T   T   T
 22.2433721191855476 -4.6989878406935492 -0.8537563690612548   T   T   T
 12.1078634303138006 10.0144354706794889 -5.4031515426704564   T   T   T
  6.1506809794756609 -1.8877748005283244  7.4041312438416798   T   T   T
 25.8843366313580923  9.4547061198112221  5.6213897467048675   T   T   T
  0.7917721928176601 13.0129558839539481 24.4671217792030511   T   T   T
 10.4059428458009098  6.1249609149443840 13.6390387901867882   T   T   T
 14.2200714288880796  9.1950471161216782  0.7471366332914073   T   T   T
  3.5439754638610115  3.1315946186038621  9.1969286078199541   T   T   T
  9.2551216725352390 12.1706725545472274  8.4502361545032478   T   T   T
 17.7938254528790232  8.0845624816352526 12.4720517608383030   T   T   T
 16.6357558089236868  4.7917052567112757 13.3769004369854354   T   T   T
 12.7239898274281771  5.0335485528290791 14.4960910438878674   T   T   T
 16.1143923097680997  1.3515787818908345  0.5122002999936277   T   T   T
  3.8073584102656390 12.2462171046969761  0.6962340411177683   T   T   T
  7.9992374789130620  3.4442540406160584 11.2934838771522053   T   T   T
 22.1617232953098906  5.0520035660497706  8.8023368398552062   T   T   T
  0.5211657201176610  9.9978601183330458  8.9925314990213590   T   T   T
 15.8769238006599966  3.1616084717629360  9.1525457285192928   T   T   T
 17.6012802859011188 10.6956235342099220 10.9645235881582295   T   T   T
  7.0993418643621187  4.9717747468197748 14.7318580156870897   T   T   T
 10.8471282304022107  7.5902733840521872 -2.1289778403308834   T   T   T
 26.7048232635968681  6.0244069528396249 -0.6961837975765597   T   T   T
  6.5093569193876988 12.7202824194528965 12.7333941277060276   T   T   T
 14.5891787249563247 -0.4986101226036958 11.5657217620687440   T   T   T
 28.1193021890854311 15.3553282780005276 19.8187481799056719   T   T   T
  8.6692759815300011  2.0139986007252255 18.0716173380457796   T   T   T
  8.6031262182848067 16.9608374807875144 14.5809582293447928   T   T   T
 12.8923110854517660  1.5588966425381232  0.1746667917289196   T   T   T
 -0.3934354696278425 11.9030079362346548  7.2945894247299545   T   T   T
 12.6021481416073176  3.2359233957202700  8.2866997299237628   T   T   T
 25.5407490011356870 12.2668463922452062 15.0633861524708035   T   T   T
  4.9832145919114117 11.1299022050512519 10.9773045497490482   T   T   T
 14.7629381881351769 12.9924352271806427 -0.0468533782927766   T   T   T
 19.5410227056973049  4.1401981322020180  7.1254157977839627   T   T   T
  3.6701194600328484  9.8969938666312061  7.4386487685141436   T   T   T
 13.2286565443651938  0.5922405896787902  6.5966284642770709   T   T   T
 21.4406706746048030 10.2944862586735830 12.0829895874592967   T   T   T
  7.2526986863603273  5.7727309386420842 17.5614936709370859   T   T   T
  7.1030137670981714  8.2450697702697351  5.9344560323661621   T   T   T
 20.9625888194767036  2.2707140132592469  0.1121084510362732   T   T   T
 -1.1954035745633491  4.7467564598118237 12.6424501893472510   T   T   T
 23.4470017971259566 13.4868883085469200 18.5853439641920559   T   T   T
  5.5553768717183267  1.3357298912290871 12.0299365151242377   T   T   T
  7.4187545879675785  9.4344121309746036 -2.8164645604561938   T   T   T
 28.0278818802793737  8.7439928150361865  3.7068602582898023   T   T   T
 -4.2677251739438979 11.9052573484400952  9.1198563924118528   T   T   T
 22.8288157052284646  0.5756880344926897  8.6301161392967529   T   T   T
 14.4659343074822342  7.8975084520599301 12.9739264503112679   T   T   T
  7.2355121292788933  4.4160468341667043  6.9552300083126921   T   T   T
  7.0265923698659494 23.6085044516369251 -0.2164461920917605   T   T   T
 25.4231523050325805  5.8965024181521324 -3.4265647367964935   T   T   T
 19.7292414583644167 15.4225071743898905  9.4721871605308134   T   T   T
 10.7788479229243510  7.2949093611550140  6.8220812301454137   T   T   T
 14.3559567888001407 13.0015143722483248 13.8872381396796669   T   T   T
 27.2071123806356816  8.0835303128326341 13.8370896714967735   T   T   T
  1.2924665396360411 13.3343626589415472  2.8880581825758944   T   T   T
 26.9322709175332307  1.2036757685864572  0.5773802206446579   T   T   T
 21.8399994327837987 -0.9124403765833610  5.5350633461433221   T   T   T
  8.0992729956186675  8.9419373653838807  9.0837034663273286   T   T   T
 11.5394708190880220 -0.4808925821515388 10.6853032067736216   T   T   T
 24.6497499925854520  6.7856332899928198 10.9291074001999657   T   T   T
  0.5861166514863494  5.0842149838652855  6.1120490288075597   T   T   T
 13.1371703117292444  2.8620499966344339  4.6620597253133873   T   T   T
 23.1894759765201144  0.0426189147955998 12.9351299889877680   T   T   T
  9.6452014665614723  5.8104591418072324  8.6612312278890702   T   T   T
 12.7199433411318577  1.6033062558194258 13.2149502154966587   T   T   T
  1.9080466308554145 11.6212794647658324  5.4072789575124762   T   T   T
  1.5793384673201691 -6.6542659851283252 -3.7068019448649698   T   T   T
 17.8116508297089062  0.3119233015821372 -4.9778792619203687   T   T   T
 19.0491534396142228 -1.9962414509908919  7.3041991948613347   T   T   T
 10.5056909812123074  6.6243352273503069  3.7201761412408754   T   T   T
 17.7879557470889438  1.3259202706439330 13.0657376381670147   T   T   T
  2.0869343728745107  5.5597886498661842 13.5835422294283212   T   T   T
  3.2901899434102018  5.5359313871436715  3.2095478874342223   T   T   T
 20.2749462422469300  8.6967659570093421 15.6201392398251553   T   T   T
 21.2100671733728205 11.7774604959995877 15.2228836879137948   T   T   T
  5.8855463274476056  5.5066992277383893 12.4241345945965023   T   T   T
 16.7525359808940202 15.9967863578160596  7.1018239642766918   T   T   T
 -8.2003783762474161  9.5448888966584509 15.7796001948698379   T   T   T
  9.5135443854381840 13.5426396564704064  5.3392632318615583   T   T   T
 16.7341181532224468  3.7775708630911025  3.0543427462314208   T   T   T
 12.0203580576252396  4.8367437857051270 11.6407544260767288   T   T   T
  6.6403097812052518 15.4071437661840811  7.9114788088575425   T   T   T
 10.5313289580171840 -1.7828040151743576 13.2199937124489075   T   T   T
 23.5599150999122564  8.6630871173173407 13.1417630578571973   T   T   T
 -1.7589925237683104  0.6362137451091533  2.8599819465460712   T   T   T
 15.2980619042732346  8.6002467526884221 -2.6054035755191562   T   T   T
 10.0825694250576543  5.9040038578581715 30.8589314719678498   T   T   T
 24.3782068931538625 13.1540864410145346 21.9085136026607330   T   T   T
  4.3735345333863265  3.0981676122468711 24.1557835951564961   T   T   T
 13.9901899133306458 13.4333101410660856 25.4420129168377507   T   T   T
 15.8280441590905117  9.6517259995952767 30.7175801961359092   T   T   T
  5.2187032492313206 13.4845775991896559 40.1807099961259411   T   T   T
  6.9086314654026690  5.6973118390694930 24.8868592635538128   T   T   T
 18.6904354129148125 15.8529619821524435 23.8773889844825220   T   T   T
  9.2678003518656134 -0.3329434226665091 25.4909411850129324   T   T   T
 12.8254372786326574 10.3540599997075660 24.5732622161293577   T   T   T
 18.5068296843881548  6.5766614515525195 40.3119109405484153   T   T   T
  7.3271013693652911 12.7549700121290126 23.9331305703428754   T   T   T
  8.8912213822749653 -2.4914315859156906 28.4467801034188490   T   T   T
 20.8451667041203663 10.8545488662695995 29.5585825764195356   T   T   T
  3.0165475145067808  5.3196917481029073 22.4590731799569987   T   T   T
 15.9871562633585498 10.7743014652160944 26.3559464820147795   T   T   T
 22.2685002504056619 12.5682212787671368 39.8670686659444939   T   T   T
 11.0768548391220438  0.9935210873522508 39.7418011176055828   T   T   T
 10.1147212125079431  4.6859437463729057 28.2206905996443247   T   T   T
 22.1916353187098530 12.8883552013229661 31.7328300712445319   T   T   T
 -2.0154168432967587  9.0234785025781648 23.5160299769497598   T   T   T
 21.8859912624127375  8.2370122336042275 19.9799445627844037   T   T   T
 19.5655865569086167  6.3710263740597011 34.7065393925347792   T   T   T
 15.5091995933539675 14.3697652032304148 40.0205747699462790   T   T   T
  8.0272162086824981  2.5127187722774171 29.3534720774096662   T   T   T
 25.5798736935731128 19.6791601755537897 23.8425086797418864   T   T   T
  1.5265097170290063  2.1798452814797575 25.8498919586707281   T   T   T
  9.9721052620297588 18.8354099448599719 17.9513856392882367   T   T   T
 20.6099042979804317  2.2762620472118771 40.3374938417894811   T   T   T
  8.7581862617577197 11.4578389454595104 40.1536971409477417   T   T   T
 12.1034340176239628  3.8953383049090995 31.5104476836179650   T   T   T
 23.5137801579579282  9.9801001235181754 31.6417360831128924   T   T   T
  2.4536607095859173  5.0932763127049263 26.0442156514732304   T   T   T
 14.7976561715569996  8.7511583736531318 23.8506093641005172   T   T   T
 23.0937864463990614  7.3838173382440075 34.1722096634008921   T   T   T
 11.9784230566115877  4.5178172218943216 38.3052524870214839   T   T   T
  3.3922070622855229 10.8152577756756028 18.6939246694829180   T   T   T
 25.4892818139914290  5.4460203850341626 29.9601595352239478   T   T   T
 27.1689122640278100 13.3555428809316830 45.6144366381341726   T   T   T
  9.7996551835332841  7.5829045526040284 37.8592725172353610   T   T   T
 15.0046004073973833  7.7550944237632118 28.8995854644201735   T   T   T
  4.0315081592008495  2.3299402343408677 28.6764286622443514   T   T   T
  7.7375966393564903 10.1811914845998999 20.1488384191664132   T   T   T
 13.5380720139591748 23.6403209799930174 18.5822870939212947   T   T   T
 19.6711555009781698  9.3771429318051318 34.3577838955120711   T   T   T
  9.7830398322172751 -2.6428325148130836 32.1805508309612591   T   T   T
 20.9332965121331931 15.2444368036579192 21.9916707092197861   T   T   T
  2.3755058384269363 14.2749500515127679 28.4227423871970792   T   T   T
  6.3037935710328963 -0.4252291096723551 21.6838087270811073   T   T   T
 20.6783491796366334 17.3633668791114246 24.7953300836802129   T   T   T
  4.3706000704316832  5.4600517937898738 34.7847493958830967   T   T   T
 17.7076491829454845 17.4790046225924343 28.6286393003297199   T   T   T
 18.6504965635975815  6.6429795853096927 22.0675374363001708   T   T   T
  8.4252100530162259 16.7644815938013032 22.3365845816036845   T   T   T
 10.3451388421762900  9.0702158270086901 23.3927269139415550   T   T   T
 20.3429089947471056 14.7373301356735080 26.3835529442746299   T   T   T
  0.0226323690890797 10.0838413320203166 35.4511073011650453   T   T   T
 14.3405609179104783  0.6861889739496104 34.5739454868027636   T   T   T
 18.8954840523813665  7.5323410807823805 31.8264651477552043   T   T   T
  3.8897330445631857 10.2096305400721494 35.1126097917271949   T   T   T
 10.4141183303584555 10.9449609646691322 20.5652126853935080   T   T   T
 20.4612593259501878 -1.4256303620411910 23.9996264177437268   T   T   T
  6.7716211034147307  7.0491791836277553 30.3851037262138632   T   T   T
 16.0985594028593972  2.4774914130842918 30.9893498242150116   T   T   T
 17.1788511369871060  3.0068277643914247 35.1303667538569471   T   T   T
  4.3059467816592170 -2.1599651658558843 29.4612361063223887   T   T   T
  3.8600574275044002 12.5927773895169359 22.9422566300454243   T   T   T
 23.2125173824884214 15.1452860129124645 24.6467062058356987   T   T   T
 27.0639127690881338 13.3590629050187140 34.9916411535715710   T   T   T
 13.1800555347904140 11.6920858037530024 34.9226613487807427   T   T   T
 18.5731051830355547  3.3048577996793425 20.0801409523421626   T   T   T
  4.2826270572591856  9.8111018417945246 23.0277579422860619   T   T   T
 12.2274318139241363 12.3971899609052070 29.2357795102101790   T   T   T
 24.7772771907915867  3.0885005452260113 28.6303508197367123   T   T   T
  1.7298352369442560  8.9476843346434745 23.9626173677102727   T   T   T
 15.0202017892932584  4.2443670028763165 21.6302934539253613   T   T   T
 25.7432500619394595 11.6975901548728487 30.5264567354891412   T   T   T
 10.2904856096238646  1.1684247780059909 30.5054121347060949   T   T   T
  3.1321493824989934 13.4153926202657132 31.9643976730221944   T   T   T
 23.0732438114229659  5.6902330603588096 27.9245463800281755   T   T   T
 -0.8587744090094588  6.3007987496364297 15.4769517405831802   T   T   T
 11.9108576586969122  3.1913141872820066 20.2677702967180799   T   T   T
 15.8605086034131144  5.7655298869257150 30.9172995830712658   T   T   T
  3.6753219123340748  6.3234783489567432 31.1072600003736426   T   T   T
 11.8810403627849777  9.8235820411300008 28.8285700975725732   T   T   T
 20.1951524321997589  6.3771059241299763 25.4998230057702600   T   T   T
  3.2030964804353697  7.8488883880736164 18.0792630856594414   T   T   T
 13.1644458428150379  6.1210943319813351 24.3236864772649959   T   T   T
 18.8043759730027276  8.8868517530520688 28.9261361603460436   T   T   T
  5.5369745455210735 -1.5007622988806288 34.4330972598894078   T   T   T
  8.9686540779586501  9.4511145793331721 30.0577942212983977   T   T   T
 21.5540165587343999  5.7097964597714759 30.1325491570086115   T   T   T
 -1.7323341355593298  9.3068018446383185 28.6473215495834133   T   T   T
 15.5719051790742533  3.4459828680519129 26.2196976461611371   T   T   T
 24.6903232958006704  3.7677515670263291 40.0526587945327748   T   T   T
  4.1793224905439388  1.4024909756016319 31.7489207517378560   T   T   T
 17.0439225995629293 12.6835955496002626 24.1428227208815116   T   T   T
 22.7604339897182690  3.0501889562691389 32.0004541989795257   T   T   T
  3.2967030350336315 11.0263467823083676 25.9757510664990825   T   T   T
 17.1814850917619850  4.6028393516611050 23.9858870991388322   T   T   T
 23.4951805389875155 14.7231602299564770 37.6342730900823454   T   T   T
  6.1973289835591716 -0.2762812477673686 28.9935741851863007   T   T   T
  9.7956542396391413  7.7446043800726709 26.5714949227578217   T   T   T
 21.4793014719962017  3.0949413277789803 28.9187094689257620   T   T   T
  1.1355257338831022 10.4727231929160070 21.2310855770866205   T   T   T
 13.5228409704501562 -2.1601742930594168 18.8000296959473019   T   T   T
 20.7924315803105237 16.6403505690982243 34.4283056256304718   T   T   T
  1.9421729684621849  1.6227906333780406 34.3863976119227672   T   T   T
  4.5447460888694007  5.9514594533715615 28.2978675304916720   T   T   T
 16.8174104324696181 -2.6744133705424269 34.8441188453199260   T   T   T
 23.0398770184071573 14.0813399448674890 28.6964471863447770   T   T   T
 11.8015524554739368  7.6163128415812595 21.2769284417992779   T   T   T
  9.0530955840468792 18.3127657386820779 39.8099614461405267   T   T   T
 23.6082303676110108 -7.3611445174229040 36.8211224359159388   T   T   T
 18.6507860298808907 13.8474130549406897 29.0123574867497922   T   T   T
 18.3285555738871508  9.8837024861166043 21.8916354382138110   T   T   T
  6.1136041780771784 19.7112135507314647 20.7824827118513191   T   T   T
 16.9548838720212878  9.1915955288195690 36.6244029437842684   T   T   T
 21.3233044757041910 -1.7691183366846914 35.0842909029638932   T   T   T
  2.5461910000921901  8.8617544313049592 29.1813341815429013   T   T   T
 14.2664588839884487 11.7500216521845307 22.2142102633635368   T   T   T
 14.5707869301312236  1.9197186787596692 23.7507535218735732   T   T   T
  2.5592063159724865 13.4764385441207217 13.9649648009495628   T   T   T
 17.4907406653043154  5.8865804937473198 28.5232455176611097   T   T   T
  3.0473115377913627 15.7247909636328984 40.6667503318944767   T   T   T
  4.8407803580310631  8.7784498134088640 31.9470830499306793   T   T   T
 14.9837440554628039  0.9388372916451396 29.0023046529206354   T   T   T
 21.9711156466993955  6.0017180243600787 22.5191463427729879   T   T   T
  7.2885090187155033 17.2434745326621126 24.7302649069890954   T   T   T
  8.7800174126241011  3.5811807148128034 32.3697463698402856   T   T   T
 -1.0187059747019385  2.4062433328328319 35.8229348110553190   T   T   T
 -0.0387114434481983 11.4948651271082962 27.4400139506670513   T   T   T
 27.0382118446215856  2.2315694639303429 22.4901729703211473   T   T   T
 24.8854769039227506  6.8329929298713674 18.4700669668744126   T   T   T
  8.9644910916033638  6.3923944833954449 21.9112069383795323   T   T   T
 12.6665516786351020 11.7312066244609863 40.0465358883250175   T   T   T
  4.8207596028577848  0.7455400113520967 36.8246393443849982   T   T   T
  6.0931465535137015  9.0205701888316767 27.6875751258224838   T   T   T
 15.6658437253377265 12.9048877198714695 30.6122389523440219   T   T   T
 20.4552673252136543  9.5176454238296930 25.4681736947935065   T   T   T
  5.0303927174918330 16.9841191230311956 18.6467031736233544   T   T   T
  9.3137520294289633  0.7553344882304177 36.8265134621868313   T   T   T
 21.7879893313915183 19.2199158456320376 38.8937898973572942   T   T   T
  3.3018855803806506  2.9805812194630361 -0.0414068338167181   T   T   T
 12.8091301322015063  7.1978560515604251 -0.5245990242263392   T   T   T
 16.7959709305748248 -0.9958462074823556  5.6057810023264976   T   T   T
  3.8722265936808458  7.0486641603666893  6.0395911379667497   T   T   T
  8.4150535765097203 -0.4429731315766473 11.5247030488663835   T   T   T
 21.3083616702094183  6.5902391513945933 11.8982981695531294   T   T   T
 22.5671971616193296 10.0655108478811570  6.1598278122690120   T   T   T
 10.2045471614671115  3.0142102864542237  5.7680893058700562   T   T   T
 14.5707629648204264 10.2636267214095440 11.4762467843902272   T   T   T
  2.3337654767099676  3.0866920354853931 11.9278840383505198   T   T   T
  7.4367695438066432 12.0221704430505412 -0.0163414310000852   T   T   T
 19.3301418060842387  4.0813737123910441  0.5370877209343793   T   T   T
  4.1000313737794594 -0.3372922154524048  5.6710478928174641   T   T   T
 16.6517686218030789  6.3545430130432417  5.5402630023572002   T   T   T
 20.9630034255117081 -0.7664090908297840 11.6702239178229075   T   T   T
  8.1790713339807724  7.1019135975760186 11.8827917080567875   T   T   T
 11.6665171643165024 -1.0238881805655489  0.3164981678933578   T   T   T
  0.3402550320694350  7.4930452138116399  2.2491222610994819   T   T   T
 22.9971586942642467  2.9523753517911366  6.0768145410624577   T   T   T
 10.2289349716549065  9.9929470004432286  5.3100046901646509   T   T   T
 14.9400494474317647  3.0794463974456021 11.6967425169904828   T   T   T
  1.8774826557850970 10.7446710121854885 11.9455681032898013   T   T   T
  5.2526787833750648  3.6128815749169689 -0.3002269853389348   T   T   T
 19.3167067586029546 11.2958476135869450  0.9614173788136645   T   T   T
  6.1265190169685617  8.7752511746532882 18.2126412943672484   T   T   T
 20.3806756520641947  0.9620759059947350 18.9443524112288060   T   T   T
 25.4899137378707472  7.7504750081341376 30.9899427658265161   T   T   T
 12.8849652432310755 14.4378266072191082 31.4261595581990321   T   T   T
 16.9770002571063436  7.6468787950365416 25.2824003137674893   T   T   T
  4.3305332511214143 14.6461082436788192 25.0733423514479377   T   T   T
  6.4562488045874851 11.1254172206492825 31.3157351899508605   T   T   T
 19.3217847873540478  4.0053167116448600 31.7911515246917027   T   T   T
 22.9682573057055173 11.7541089439038515 25.4671762170923586   T   T   T
  9.9359647241266646  5.1912500449321906 25.1991252664447174   T   T   T
 16.1590341621234046 10.5648542978326621 19.4059927697385710   T   T   T
  2.1299568250493457  4.2442176684211494 19.8271528959590562   T   T   T
 13.0424090192898277  7.1124689919361561 31.8982495467558884   T   T   T
 25.4967526624737424 14.7051033165193612 31.5522996666740205   T   T   T
  4.3177690860466074  7.4994404021046934 25.1879505008648295   T   T   T
 16.7935092739289153  0.4715506922023914 25.7962570841099748   T   T   T
 21.4575504847625709  6.1364412038260197 17.5005352086574710   T   T   T
  9.5260966480853089 -1.8776251142446192 18.6711612300670815   T   T   T
  5.8253663112228837  3.8302555737769870 31.2788475160260582   T   T   T
 18.8262579225034195 11.4137372887979573 31.6550564323401673   T   T   T
 23.5238405294776172  4.1452213019883759 25.7068316212555175   T   T   T
 10.3566411519001473 11.6103148848293944 25.6554314772942220   T   T   T
 13.0054979028443594  5.7166458203833663 18.6992680166235381   T   T   T
  0.7516173477439445 12.0173083093231305 18.9001964240901259   T   T   T
  4.2386319110289756 -0.3012151432169935  7.7366736336430941   T   T   T
 16.4321586707478140  6.3149716630738011  7.5430813518895015   T   T   T
 20.6704883842571299 -0.7455241897668180 13.8112952214562981   T   T   T
  8.0117467721519535  7.0682240748122025 13.8888787921746761   T   T   T
 11.7661663450302765 -3.1580299342738885  0.3917161864359154   T   T   T
 -0.7697023339209476  5.6662023548656233  1.5703557789595211   T   T   T
 21.8858273376237129  0.9133723945601315 11.0909026581251879   T   T   T
  9.3034126466573177  8.8158536577601136 11.1350665618389257   T   T   T
 11.8458180700662226  0.2059685461086249 19.0043533026749536   T   T   T
 -0.8937174407577596 11.6485982347827086 20.0267504149289621   T   T   T
  5.0577003288445441  1.2457068016459123  4.8421688910356870   T   T   T
 17.7118318045703944  8.0337018542325271  4.6284376755695655   T   T   T
 22.1133723007022311  4.7678648160598360 11.1787152705151946   T   T   T
  9.4110322256330612 12.3437089151849850 11.1434211944615136   T   T   T
 12.0099279150785812  7.4055735521246744 18.1746005049475130   T   T   T
  1.0851936714747303 10.3856858157348668 17.7531876110732583   T   T   T
  4.7968370599967480  5.4585854043031228  5.1209832016880581   T   T   T
 17.5388456819671923 11.7900398974646556  5.0473910547180862   T   T   T
  6.5536698459657767 -0.5942004426128926 10.6970370508030257   T   T   T
 19.2471575365265046  6.6470342981126596 11.3262971909698376   T   T   T
 22.1919027228790320  0.4775428793341416 19.9410276767009549   T   T   T
 14.8699540722441750  9.2616639187719798 20.6911441182223861   T   T   T
 14.7575458008173577 -0.9693537293686324  5.1366225344994563   T   T   T
  1.8857294498664425  7.0945182051576419  5.4715501011120411   T   T   T
  2.0763295555321819  3.6444847081528668  7.5865685396026059   T   T   T
 14.3756727114915677 10.3087481203323144  7.4515326456344617   T   T   T
 18.9370904075776672  3.5089345274368515 13.6954113020151169   T   T   T
  6.0064949447370788 10.3793801131234886 13.1067538456764598   T   T   T
 13.0175385057821842 -0.4527867947601711  1.8449055682585036   T   T   T
 24.3758176223262559  9.0548196107794041  1.0706020264512759   T   T   T
 23.1242888173628458  2.8909975213186478  8.1683697045230037   T   T   T
 10.1969177028771707 10.1620843431146390  7.2880475182574243   T   T   T
 14.6440111783461049  3.0972954332028251 13.7096736204529890   T   T   T
  2.0211387565408137 10.7662543982480123 14.0531847874373703   T   T   T
  6.5212570899064835  3.0978544282433691  1.1618869992597223   T   T   T
 18.2878904454844431  9.4072622253432279  1.4868739731117877   T   T   T
  2.7720043671990560 12.3109886068019101 10.9482836819134395   T   T   T
 16.0612998950726684  4.9151351050167253 11.1270785208027281   T   T   T
 19.1782317276469492 10.0881969678701733 12.8969325108435253   T   T   T
  8.3429813892844802  3.8067989933372606 16.4311775376955183   T   T   T
 11.1818929167101668 11.6560383040614948  4.7459170813792984   T   T   T
 23.7393360228905621  4.7053528294024982  5.2292243567281531   T   T   T
  3.2540158651075619  1.5552919060876149 10.9311981188991147   T   T   T
 15.7350162160298055  8.5399523600866818 11.0334192051385749   T   T   T
 17.0638163728361540  4.8519634019968327 20.9158105725580690   T   T   T
  7.9509277654052015  8.3206465192530636 17.1667058159736889   T   T   T
 11.0124173455230565  1.2204028074267308  5.2176318706519016   T   T   T
 23.4953508354860290  8.3672081976413200  5.1092941123154620   T   T   T
  0.3088599220666014  2.8838055021447833 11.5945777991796568   T   T   T
 12.6663007596867132 10.0295537550917846 10.6354337158094197   T   T   T
 16.2047114591938239  4.7279435180267955 18.9642582825296486   T   T   T
  1.4057861104204599  8.6846280632049240 19.0448224119125911   T   T   T
  8.2031694107602906  3.2662469277242883  5.1796088647479106   T   T   T
 21.3948045108875959 10.7476532230414765  1.0121637922460101   T   T   T
  0.3108294317892801 -0.4633095007196268 13.5886644432903250   T   T   T
 12.4030082488679287  6.7071650492287489 12.8362703391259085   T   T   T
 16.8289382845775783 -0.7785335346527742  1.0783333998588742   T   T   T
  2.2262363299589971  7.4156226049911655  1.5042485543299544   T   T   T
  8.0625250865868683 -0.5711339135927443  7.0592441298774737   T   T   T
 20.6977805041812779  6.3489139118352158  7.4524237705038283   T   T   T
 24.3378852863739752 -1.3295090433888450  2.0181870112573157   T   T   T
 14.7422908929827745  7.0084772658709804 -0.9167400850785037   T   T   T
 16.9757120357601146 -0.8620901936791133  7.6600206382400371   T   T   T
  4.0042611087404918  7.3281863705329737  8.1386568050458052   T   T   T
  8.2329911194960985 -0.3225270465990880 13.6364151696098226   T   T   T
 21.6279543796973606  6.7800836117355141 13.7727314074352076   T   T   T
 22.1708144204697994  8.1361610063784582 10.7823516204620216   T   T   T
  9.4826889028696204  1.1686091974751254 10.8885950167807302   T   T   T
 13.0562731438633612 10.4061800661173365 20.4118407050255506   T   T   T
 -0.7043200306956988  4.6972938391657610 17.2802944436698418   T   T   T
  4.8153670876962842  8.6827148386371977  5.1643470753975311   T   T   T
 17.6273946396272549  0.8113632701326570  4.7930428249771984   T   T   T