Cl48Li286P48S240 E=-2511.705410 eV
 1.0000000000000000
    25.1819793006824639    0.0000000000000000    0.0000000000000015
    -0.0000000000000009   14.5388225279766061    0.0000000000000009
     0.0000000000000000    0.0000000000000000   37.2126966544236950
 Li  P   S   Cl 
 286  48 240  48
Cartesian
  1.0455726390852520  1.6387221070823788  6.9452137089009254
 13.5998551661940557  9.0118674862640749  7.0585914014794175
 18.0865480001641679  1.7770301343998096 12.9492928470379045
  5.4315489262879524  9.0613895933958570 12.9159208919024842
  8.2626486009453064  2.3633779366442087  1.9725476318332782
 20.9411921086741835  9.6998391753624240  1.5954406058952253
  0.2284059469667984  3.2532149997471653  9.2960378049758319
 12.7714678320402175 11.0283084783134804  9.3767614653657674
 16.8927915974960037  2.5125943556539312 15.3433943328564766
  4.2864929912133540  9.7560863796733006 15.3724532771569358
  8.6239285008937294  4.7244380754985453  3.4507440553198641
 21.3594566746226384 11.8585659258047311  3.4340465054993183
  2.8831095456171756  5.2877099419212561  9.3588764271525342
 15.7105735600846170 12.5105867071435242  9.3486959613109484
 18.9277683749998396  5.9779225734731511 15.3354858659660707
  6.6309251210186426 13.0683541311532974 15.3001150808181006
 11.8193181211014782  5.1158288881409693  3.3541619607253881
 24.4658268322588697 12.3546817073520963  3.1636384112073599
  4.1852303995410418  3.7058857528392162  6.7847874224698916
 16.9823809249775692 10.8109053678741116  7.1588576407551159
 20.9624904335767717  3.7745588636188336 12.9555685801118212
  8.1799247795386449 11.0302229060698185 12.7389618871816168
 12.5819062341399110  2.4764603277031898  1.7846098184105117
 26.0681279615322055 11.0457103197967612  0.2656309298465337
  3.6688358287116114  2.3441631218531804  9.1962788972885647
 15.1879918158245530  8.9455462916714392  9.3547471164342273
 20.8801062939726165  2.4302100914540659 15.4191619497364520
  8.3460320291520098  9.7677045101628170 15.3264018242771467
 10.7357551025952063  1.7978738971482007  3.5956903632398891
 23.8088164901797654  9.1437335497750833  3.2156065910812406
  0.9079221327493240  5.5971762655007353  7.0655229255089518
 13.5152514178891110 12.8289938736222151  7.0432932094714484
 17.7757515284425658  5.2237365743354731 12.8709504552354996
  5.0897595904268540 12.6003215457213340 12.9986477788554247
 10.4499420038704010  5.7602413604625378  0.7245906055483518
 22.3975081260840518 12.9064215036482253  0.8235585667425005
 24.3260517755443999 12.7069369974586905 12.9772776903992852
 11.7132040800619119  5.3843824138719842 12.9548261657150210
 14.7887662525264876 12.9070967172657340  0.9915738047345212
  2.1584022556842419  6.2175321855081247  1.6030873517879582
  7.2459052580824670 12.7213557897186273  6.9060456225301854
 19.9074044211142933  5.2675671097510746  7.0721737181655726
 23.1661801111940164 -1.1540488631403543 15.4745301991814426
 10.5363137996198830  6.0991369250182856 15.3589246533944586
 14.9286198775921264  0.3075040321879182  3.3316503745846986
  2.2639585602834891  8.1586492857078508  3.5141402609775398
  6.4195374698279446 -0.6400235596496708  9.3177938005244556
 19.1968923656024764  7.2489799976512890  9.3980546957716964
 -0.0124359140179719  2.3101146407186408 15.3779171405527606
 12.6387981214671292  9.5723859538167702 15.3114284373912923
 17.9406471079252547  1.2878120063249539  3.2266269553856555
  5.6115605433076778  8.5757650129544434  3.7976324062395856
  9.2355813471140156  1.6998899314055458  9.3399137628583411
 22.0738320641963597  8.9053395086181304  9.3205974793829220
  2.1071450584291318  0.2472210787277611 12.9915519935373389
 14.4069914329278745  7.4264406891241732 12.7203158132754535
 18.9557162392269554 -1.1384324928761460  1.5492189328035264
  6.3683350942166808  8.1155795555188206  1.1397166212611773
 10.6057788349671007 -0.0070914134045571  7.0226179850467476
 23.2321855144090428  7.3004391032399072  6.9509622980667798
  1.9707380397443099 13.4072363094331202 15.3422203333316354
 14.5952661892757121  6.3032059613221252 15.3764712124850718
 17.1890765508714161 12.3884329860602076  3.4179883218321474
  4.8552214824381066  5.5825020993749108  3.2537890710059152
  9.5075044772038613 13.0290047626687038  9.3589974693352271
 22.2168471123357243  5.7091033693426994  9.3364013695357322
 24.0708136586234112  1.6199190993572630 12.8692481501687048
 11.3793191091732648  8.8814079153332095 12.8842357319040346
 15.8639438291790249  2.8779817831519110  0.3881304943396910
  4.2718892566280946  9.8848652490916535  1.7609660453786955
  7.0448805656944273  1.8594039067240562  7.1111487247741794
 19.8867994654743718  9.2133238111851323  7.0608024602303860
  0.8928698012385423  9.0067540567289246  7.1703983977087793
 13.6282247661501952  1.6551064169167125  7.0946601801539151
 17.9695343165438857  9.0689618514945067 12.9337396055706559
  5.4125809730191419  1.7520862718674817 12.9015097787952833
  9.1939429093106089  8.9141996219622506  1.0701188461286981
 22.1268169688445973  1.1027136090924765  0.5963282394250629
  0.2762946013458303 11.2264549354753758  9.4084917912396531
 12.7943241515850499  3.3589235924145151  9.4038490057555624
 16.8275289318007779  9.6900067543097173 15.4941607992418255
  4.2369223321018872  2.5008123266646818 15.2999018125264161
  8.5451043524262360 10.7444270510329041  3.5669017387031916
 21.1482473555519697  3.8602607646077236  3.1925145839642224
  3.5207312663740531 12.3742110472645059  9.3337452952634710
 15.1840516300393400  5.6327558528395922  9.3544009728237523
 18.9279811501851540 13.2118384421786246 15.2816295200539667
  6.2024418310947746  5.8523755158302553 15.3444615520673882
 11.5526831186142296 12.4840892188211185  3.1572906786474926
 24.3899829531743109  5.0862782474312391  3.3467748630092831
  4.2524560774278513 11.1195903671877740  6.9574020793515796
 16.9410912418810078  3.6629604264123157  7.0676224370158076
 20.7597148289021192 11.0745794026146029 12.7421925656912176
  8.2455193030012808  3.7583175571180254 12.8442743460384783
 12.1895049440396530  9.8358032523905674  0.9376111800741165
 25.1952200847712007  4.1950588010484351  0.7462009209554340
  3.0040180788658057  9.2490121765562332  9.3651873543939033
 15.9176027644298461  2.1807087281754116  9.4069606477355432
 20.8781139804753977  9.9401691971927910 15.3725212555576984
  8.3165777940198442  2.4510142721162014 15.3685913037365847
 11.3398129362345070  9.1765643747783621  3.5547516221252295
 23.9546795966882193  1.9479429002728124  3.1225560545849045
  1.0263433323543274 12.9249144621411087  7.0221676506775168
 13.5480168967569288  5.5504228544021776  7.1032978371911870
 17.6982094470363229 12.5433578340731522 12.8847389168708855
  5.1893906170817505  5.1182330339414204 12.7648957808579464
  8.5433321218062215 12.2047059463557979  0.9196664531092669
 22.7050490679334978  6.0887135861866959  1.1761755517484376
 19.8809674008164983 12.5343482941179243  7.0462059565593638
  7.1133760469361116  5.1721436353121542  7.1837055369237097
 11.7214353937637874 12.6350443268493589 13.0541699225787777
 24.3859167487385626  5.4672811407574287 12.8997208431469801
  4.1631768248386800 12.4680658884861515  0.5443922725142825
 14.6327197123274644  5.6924363471518014  0.9934437579898485
 19.1128614108779153  0.0081382731547255  9.3073032818833550
  6.5291183386100542  7.2827219691625418  9.4808402308136639
 10.6226185356265432 -1.2269883223135443 15.5321932277086052
 23.1895307750016215  6.1489533322656635 15.3319329727782723
  2.4212817984951021 -0.3134455722710424  2.9891281785316339
 14.8138723625096311  6.8226132491162899  3.6152603314679039
 21.9736065496253588  1.6156664576766258  9.2736718174764210
 12.6139578094995954  2.3011600557944738 15.3560004142577871
  0.0145626517938467  9.5988604959166501 15.3724974865316071
  5.2614601932297012  1.6121896497776411  3.1681173116664145
 17.9925351682574224  8.6450347130168019  3.2547505396918983
 23.2233813089290848  0.0127352309971147  6.8845220921067636
 10.1821232805428981  7.2742889997715494  6.7794857770839823
 14.6310251038518579  0.1538556420948713 12.9785759114493757
  2.0451050871518941  7.4513066044625322 13.0118581864765908
  6.6931767783638554  0.5714831224921071  0.2718005710519921
 18.6744435059047156  6.2376054803658167  1.1765614191519798
 22.0376143538773270 12.9155326558199590  9.2857332771654644
  9.5142402015455829  5.8613927368831131  9.4711878500641546
 14.6002919794259078 13.3260596728636678 15.4307462301800857
  2.0820935991477016  6.0729054157843656 15.4967235641761931
  5.7016797330943971 13.1005105161647890  3.0596266590896781
 17.2330463520552115  5.1999598909332674  3.3908645993393480
 19.8535751477565157  1.9189592474927673  6.9600780457648757
  7.4767966029327022  9.0088823776703091  7.0631415673057738
 11.4454375245707531  1.5497065907836554 12.9386011482545022
 24.0427571799885307  8.9168364708532106 12.9287027259124248
  3.4479953637180429  2.3675931341909471  0.8138514287517898
 14.5772588475540363  8.5640863529187943  1.6639021562763026
  9.3508001413101098  5.5980878362627386 30.1956478403229482
 21.8407914640515450 12.8248218572087556 30.1607078447677388
  1.0315246962277655  5.1787109945062406 24.5123482231831353
 13.7367414593290853 12.4591368954792383 24.6812271487234014
 17.2164533992227504  5.1507095598752617 35.9183469073581563
  6.2789743108138572 12.7376590648705044 35.8770523382295110
  8.6869887563051993  3.7655883688692566 27.8839528850236640
 21.1513149740489617 10.9197559972262539 27.8627540047766260
  0.3001458344608737  2.3932438253827995 21.8172476441029630
 12.8311312912177478 10.1817992145105141 21.9744219187406671
 16.8398849358825800  3.1433850489188453 34.0669754900412158
  4.0786280193786864 11.4732592832885452 33.9979775191289448
 11.3929030254783346  2.0359693479211187 27.8697563606971208
 24.1229092836164476  9.2691046639790962 27.8687040317179076
  3.9281895683112968  2.5344247362195320 21.8556464355739948
 16.6297064466494682  9.9255447651560065 21.8798754416874601
 20.7614153634560914  2.0240927572645182 34.2030767556737985
  7.4741040335121571  9.0063674010853507 33.5090656884164062
 12.8143142894285820  3.5796330367953018 30.1347831650799343
 25.2797422701616021 10.8340808423867472 30.1255092271120652
  4.2195730973566059  3.8319144163784284 24.2413588918529115
 16.7994619558905391 11.0225498334544909 24.4870539647526186
 20.7059395576011340  4.6006823956766594 36.3029921178759238
  8.1860777019890865 10.0121866445825738 35.7990117504563727
 11.4493248113956252  5.3838279304998657 27.9311638707978460
 24.0661455996471076 12.5414417384061672 27.8736501806999364
  1.9358637984957747  5.8079708725000305 21.8508796095392128
 14.4989569775242142 13.0935693050756061 21.8901785519654553
 20.1290149362705293  5.3687212951344954 33.8633862220882094
  7.4485918412842649 12.6186179600096615 33.6193544591652440
  9.4289321250193669  1.7175504975658658 30.2098771504859762
 21.8135747348501212  8.9784334559955781 30.1444840238445160
  1.2893235784718120  1.9356274972731811 24.4867497624740373
 13.8720852504832521  8.9597874192299525 24.2512504980949402
 18.5702152719902536  1.6927272247451595 36.3298246215257663
  5.1618544800015789  9.1886079053323915 35.9118115602498733
  7.1869843813957432  8.9652847409902261 24.2728102081860087
 20.0587227360271108  1.4998124098224725 24.7048566424711602
 23.2636518693927457  8.2696863267131171 36.1593419534024036
 11.4165823990096058  1.6466468521207758 36.3941868695100084
 15.7126894173045546  9.2556540962071701 30.0878171829217642
  3.0849401411482762  1.9546992766729678 30.1074922761376165
  6.4963434402864948  6.1349243538786569 21.8466531337398386
 19.1053164619228539 13.8337483125928795 21.9414007017411805
 23.0431342636749470  7.4649093302726683 33.5726580826511807
 10.2771168717091790 -0.2828651056993505 34.1656603447606528
 14.9869354839471995  7.4367107394525789 27.8376922804185760
  2.3012629215505975 14.5334937596453422 27.7921495080091923
 10.3811173842764255  6.2131894130242866 21.9209143858322939
 22.8802191315443224 13.5355143405551726 21.7943289701533125
  1.5018557794688012  5.3760396492309388 34.0780625829156989
 13.6629666067576441 13.0229148276338726 33.7105687526985207
 17.9422797382181223  5.6100915349989320 27.9618232998832816
  5.3090127228640638 13.0881956697133077 27.7730346646021893
 10.3256485743611002  7.4038508858804901 24.4595839200133049
 23.1818574972967006 14.7050559728281556 24.2479513655717582
  1.8721965979636561  7.6563723804891017 36.1229321998210509
 14.8160345745482349 -0.3215701684182208 35.7195428900481318
 18.8638421198520057  7.2841368897261356 30.4400417114231878
  6.4967908417673028 14.7151314441933891 29.9966470974867079
  8.3475382993684839  9.4761679598313666 21.8570038958470683
 20.8070901175533578  2.2607486682305833 21.9463732494688806
  0.4592552625739695  9.4193465552064808 33.9836237907892666
 13.4140111700042048  2.2668974182346884 34.1338194105641293
 18.3387136998075349  8.5983380333829373 27.9838284228915519
  4.7235398491765954  2.0590314544988031 27.8622224469797679
  7.4770204840067702  5.3410829896808023 24.2538925818090583
 20.1332290158202269 12.6422367005191028 24.2595586648154971
 23.4563358550115453  5.5546757846736599 35.4007022337749362
 12.5768832971590854 12.5719126866930697 36.1639760548170273
 15.7076698698989023  5.2356642608334329 30.0853768019010879
  3.1025170377864733 12.5641313483908341 29.9691568263444381
  9.4336336160935677 12.9347355194972415 30.0748707627813872
 21.5593352129145224  5.4050762907382266 29.7895634147982413
  1.0024412633059461 12.4867812082295622 24.3918304833679755
 13.4761295912452290  5.4023318643384100 24.2045074058266252
 17.2475827200777374 12.5239196390014733 36.3413566814271505
  4.5629253519237967  4.6712384165706782 36.2688502946065725
  8.5642329035451716 11.0014395471207731 27.8475879494807828
  0.2201185945541263  9.7434056602560304 21.8500352577967902
 12.7829556073984971  2.5221633025679200 21.9008585428369571
 16.6223576087346672 11.1066524557119326 33.9532646756869099
  4.4744333358399739  4.1172026577476730 33.6806039247609093
 11.5889594901975119  9.3959532500624281 27.7918518632445171
 23.9434647539424326  2.0931266400022368 27.8141056039915000
  4.0920338136145755  9.8291942210366336 21.8445156798859941
 16.6533689090048114  2.5969283229069884 21.8487324411561410
 19.8652730565386015  8.9475367584841656 34.1928113535859026
  7.2385978126465806  1.6398826363946808 33.8942614690578523
 12.7427656753509613 10.8877501289605600 30.1236339308630861
 24.7198971997607657  3.6542848082459787 30.7391547114472594
  4.1371860580984698 11.0563887760611497 24.3224037007091241
 16.7617444277860876  3.8037354633494993 24.3154726027902655
 21.0564888644948702 11.7155963824697409 35.7429948369392534
  8.2728837427174966  3.0743690145332110 36.2740330625296821
 11.5430560784091760 12.5990621224772976 27.8900244113184037
 23.9329003162841936  5.2500672894601772 27.8218268456806506
  2.0138787069704227 13.1458483827671717 21.8550035940141889
 14.6954001253425908  5.8496616245758668 21.8603368707907357
 19.4617102512582676 13.2216085560838774 34.1268173384208779
  7.4642126501433808  5.7177270067834245 34.3284997320357377
  9.3849546423204568  8.9229799376077548 29.9581525263957644
 21.5655854166635557  1.8790041820228567 29.8349059835595689
  1.2722721694499015  9.0947486654527854 24.3183541727089505
 13.8769635421251074  1.8813854737642572 24.3926758098724896
 17.8937667788281622  9.4162230863795617 36.5303048728434518
  4.4935887067528348  1.8647364872754848 35.2724953178280032
  3.0292336073575652  9.1956913893526320 30.1900323397944774
 15.6696106448988495  1.9166002725184348 30.2760338868903354
 19.7350274137257102  9.0304269824013410 24.1762518043643873
  7.3942789059574983  1.5936802117957867 24.5810495882359064
 11.0197062824696843  8.4673606718858405 35.8349779120599479
 23.7014758181407750  1.1844556573432865 35.7386409871608848
  2.3115039255795486  7.5544493373297996 27.8084530251105626
 14.9087993233161296 14.5715891131712922 27.9455188177211227
 19.1135597841734644  6.0907352915954203 21.9141356800391982
  6.5672961876113458 13.5194978556240564 21.9859815632624773
 10.5787479743916304  6.9838706004855444 33.7513892419259278
 23.0880071830875480 -0.3898356573099248 33.6558389791453436
  4.6477072337364111  5.3177051093322971 27.8601053758740775
 18.3622910915908975 13.2391350761202364 28.0027378706592067
 22.9597749049327504  6.1667461516831192 21.8802430349152353
 10.3681810695812580 13.5976602218644143 21.8500886845881475
 14.2351974951032769  5.7968556390330876 33.6682969963740177
  1.2548373471748284 12.8411775597366500 33.5294682555627901
  6.4630384951383375  7.0885759546165366 29.9806019068689373
 18.9132675623706170  0.0375718156717448 30.4465022628987967
 23.0235496868590026  7.4874314211514914 24.2941059773100143
 10.5096895150358698 14.7167572964640527 24.3631694015642530
 14.6205595434954354  7.5239841822182703 36.0616659878025985
  1.6944853353436424 -0.8765956101933484 36.1254308174201313
  5.2371770085479703  8.8053946171570825 27.8259298696989141
 17.6620771637542937  1.7413806547677462 27.9712198305307567
 20.9628871131036369  9.4934275548850309 21.8390973138344968
  8.0615581864698544  2.0596482017879048 21.7481253997228841
 13.2108568805597937  9.5786425986904646 34.0046553768754407
  1.4859424004662336  1.6943206134381004 33.8385062140634503
  3.0086019470560763  5.3557429754998243 30.1199157512730409
 15.7345470710797262 12.5183090303446711 30.0362260130128149
 20.2219650926861192  5.6004588249150151 24.5036029163793785
  7.6062029214552691 12.7763621893087063 24.4589115084205382
 12.7227671500979618  5.1816093124295382 35.9100564818879988
 24.6986134391333181 12.2922731423749916 35.5303446389677759
 -0.4983128243831426 -0.4008265784740169  0.4401637482030846
 12.6001752510285101  7.2680843381613238  0.4524918702805767
 16.7777794157645808 -0.0363034535322484  6.3944546186295694
  4.1918348392758880  7.3422153085452377  6.5370719531018810
  8.4179869520863981 -0.0099063120369206 12.4720676555037286
 21.0145657646032760  7.2787446267831859 12.4984736057997292
 23.1544178669126133 10.9133230837527719  6.3276622545575236
 10.4351972932179535  3.6896691119455749  6.4965236203924297
 14.6890975642090975 10.8936619093235922 12.4680932243971405
  2.0883005071988845  3.6393136186393855 12.4283176898644658
  6.3777534982148891 10.7103895515393290  0.4579531822516823
 18.3579519662546495  3.7761990062339135  0.6017412858704992
  4.1600478356276529  0.0304724259758105  6.2278285919965768
 16.8552796747643931  7.2663286403868961  6.4578031571127434
 21.0183367835603718 -0.0001778781156118 12.4379263167135878
  8.3821226323887696  7.2707902779009252 12.5780325369660488
 13.0130793584089481  0.2914564383751208  0.6220616533991788
 -0.0359543093681212  6.8078403030001624  0.3861516848843781
 23.0964642440507575  3.6256513915864286  6.3068082386796078
 10.4844083147955462 10.9339144192644255  6.5406688714276653
 14.7053851972260325  3.6388873819761729 12.5336849064239750
  2.1119112695362920 10.9252098276229948 12.4871620761527247
  6.1134381363029799  3.1523061221817765  0.6584826467680861
 19.2730931268883943 11.2358861084561248  0.5087569267605510
  8.3662259334326592  7.2963320140783514 18.5918564393364143
 20.7126785604390129 -0.2222716407965717 18.5995615117576030
 25.1294016360419583  7.2191573821389161 30.7801577484283406
 12.5655855974434001 14.5774839725203762 30.9133476900410074
 16.8517652937289988  7.2632709755309177 24.7784121340461176
  4.2146223513666961 14.5627902183057412 24.6768128030445588
  6.2378561066792280 10.9374467260364892 30.6608945309760728
 18.8525612582835684  3.5907864354369434 30.9767613508912838
 23.1099947614390437 10.9073122084363394 24.7138536804822273
 10.5291540119332776  3.6645621371159356 24.7406522983440098
 14.4936426731804531 10.6569688768279800 18.6023349387402064
  2.3200695366371393  3.5258761477917409 18.5814163563392150
 12.6393171911816662  7.3524840265201670 30.7870086948327675
 25.1454241564507406 14.6113197173802742 30.6611705441542313
  4.1887742566664361  7.2575721330474829 24.6974555357186851
 16.8476953730311223  0.0275890438669152 24.7887069998806595
 21.0292033101350420  7.2802365590060090 18.5876573127757787
  8.2618627998765515 -0.1893098609112155 18.6264515796053587
  6.3614448691405281  3.7029977725425991 30.8386724900457558
 18.8832061182231890 10.9124471642985590 31.0054021330711151
 23.0725657159419519  3.6652899774441310 24.6336482129550554
 10.5260952494866338 10.9266420385619227 24.7137959626059249
 14.6961043666512463  3.6589277353504688 18.5925660542361619
  2.1087926924631368 10.9369254569217542 18.5988636033054959
  4.1076860864764235  0.0635807569422162  8.2944974919561041
 16.9393952484179451  7.3012678454880557  8.5205723491751897
 21.0054778964797464 -0.0003350119523850 14.4838031010369814
  8.3455476043516672  7.2327039103424138 14.6409713283188232
 12.5323160927495785  0.1949776589431099  2.7377779731603091
  0.0814412350343726  7.2659227851495558  2.5757607569137546
 21.8842724121567827  1.7392242963829245 11.7156613672869430
  9.1997431077600140  8.9644162978410087 11.8081252394805425
 13.3629711644153009  2.1115321823576361 17.7663208556830412
  0.7835026422285114  9.3814847926989966 17.7654027046964629
  5.1135651644127602  1.7250681378985222  5.5411286385193987
 17.7897993020246581  8.9312372623266629  5.6840918756607728
 22.0917708346357031  5.6517128687148297 11.8011633714333222
  9.5000081033337906 12.9070695621588865 11.7842665222687071
 14.0269519451924758  5.5722998283661731 17.7470224944643746
  1.4231493179029229 12.8505183769544615 17.7556747911808834
  5.1614585500922425  5.7320289217663527  5.6831729344649977
 17.7343068269489201 12.8028492191939236  5.7449055831732103
  6.4728367903246760 -0.1544761488147613 11.7784985212423479
 19.0683381426811245  7.1468957792483065 11.8115480166867748
 22.9006123392897010 -0.3797365771678424 17.8542472798009548
 10.3636146456760301  6.9218028742408135 17.7590749012941167
 14.8311662436924738 -0.0467152785689201  5.7187528830670837
  2.2693536964494085  7.4091188459733939  5.8161224399722826
  2.0727450577241475  3.6413849203631230  7.9223205470798481
 14.6818809366580538 10.9033046667583982  8.0241520942375111
 18.9244794909363279  3.6286551464264787 14.2656477023297992
  6.2912876006518417 10.8713768657227732 14.2220233554690907
 10.3817743843429842  3.6185792993425085  2.1119712616144222
 23.0339792587742380 10.9167494284373046  1.9242696741482634
 23.1113192385546533  3.5959513241708367  8.3918333120383846
 10.4927383706052577 10.9805471752368060  8.5709884564796575
 14.7013039186539505  3.6704441266678569 14.5869448877203425
  2.1123557182716501 10.9312198514786107 14.5483353459657287
  6.3927786775545759  3.7078738366613431  2.7463711600975120
 19.0205035131976459 10.9411353312730348  2.6930745077406408
  2.9595169411130038 12.6551848338662474 11.7552544302846407
 15.5575402306303623  5.3782367697606803 11.8092064747588417
 19.9713452151751980 12.7775616510053780 17.3428423013846853
  7.0553372483929628  5.7406985218035897 17.7771974250859586
 11.4179740445844438 12.5431091148232685  5.6485310807349522
 24.0474600218802941  5.3374552752061692  5.6650242198409702
  3.1884033465763091  2.0604182491471104 11.6718258192625370
 15.7450234734421581  9.2648238614738077 11.7503017697789627
 20.1482246468880177  1.7629086098256159 17.7096128181011743
  7.6852444320860309  9.1998800391750990 17.7279836790602729
 11.4647659217265510  2.0383860182338402  5.8285520772133479
 24.1238087421615006  9.2297498781866594  5.6351010418640106
  0.1409805706223976  3.5172394992794391 11.7185805411427317
 12.7371366527292178 10.7717239521365951 11.7893022002509067
 16.6953443589573389  3.2755950032809524 17.7460075052969657
  4.1049538206617244 10.5569208741753560 17.7641854497282736
  8.5150955158933996  3.6217491440634357  5.7646311647410746
 21.2088028164583662 10.8895079348906769  5.6774215294974431
  0.0050515071280583  0.0117239518376342 14.2651261995209691
 12.5442036398110339  7.2415888697039525 14.2143004600042620
 16.7141765488982550 -0.3681909643517032  1.8981957144067532
  4.1756609333228845  7.5612731833432969  2.1556683907729424
  8.3486129348876084  0.0121056084604403  8.0000717036379285
 21.0525246504109198  7.2545857916188812  7.9975689602633722
 25.2333449038723074  0.0132874732215429  2.4582824473763036
 12.6637718447449039  7.3167256185766005  2.7518916604024186
 16.7896719825696081  0.0172908671633288  8.4804251364864296
  4.1681142309535018  7.2078810169492478  8.6064859541609451
  8.4559449006838978  0.0171434292755670 14.5214566864057009
 21.0235997855188828  7.3217746556279577 14.5512956375012639
 21.8797212949978643  9.0146882071363112 11.7633437757836532
  9.2837257376310109  1.7352420500801959 11.7575545773077508
 13.7367534751489337  9.1145098848820005 17.3578248115816862
  0.8966405928249606  2.0471460161514425 17.6738046903608854
  5.2189759345270339  9.0604364462477509  6.0387922706088180
 17.7139068934972208  1.6290330383743845  5.6391429905357962
 22.0903517744780338 12.9076644509630984 11.7366803255208492
  9.4554160253807407  5.6289370486395800 11.8781152136389956
 13.9105958537747139 12.6309550486554301 17.7288860642126451
  1.3895915407860446  5.5248212646625179 17.8235573727339123
  5.1808274729776080 12.9228230089256542  5.5051549917721090
 17.7825992535227151  5.5822234010048808  5.7205541759751597
  2.2412674420471870 -0.0276241264585426  5.4818245451745327
 14.8779121347774836  7.2634644414257767  5.8691904319376773
 19.0679231278369379 -0.1325788017166643 11.7413932294937684
  6.4254210467424384  7.0892442416644839 11.8818599262436315
 10.3979876904195248 -0.4065106766938624 17.8791233641362410
 23.0351301729900477  6.9244996194056867 17.7389368034031527
  2.1055494085486708 10.9505643451495498  8.0175903794584258
 14.6883181401443821  3.6407582751013021  8.0531272425230505
 18.8584333824195340 10.9008599682251397 14.1949002148325683
  6.3018265610581308  3.5739571864566893 14.2042247165056708
 10.2765827725078545 10.7447719122992567  2.0487539262812722
 23.0601909300585426  3.7327936416202405  1.7738043197699480
 23.2012372806959242 10.9160017300026428  8.4177852175652426
 10.4631111544792681  3.7140705936906535  8.5772043269520761
 14.7075011181849753 10.8933546892098327 14.5157450134184050
  2.0744441399547640  3.6094936681600225 14.4745412574583607
  6.3240039319498376 10.6784930878316615  2.7310620621233839
 18.7944435735862569  3.5117288400823363  2.6992011390083457
 24.1084616731975565 12.5795900648762409  5.5924869128009433
 11.3960818138207820  5.3855514260355948  5.7812714663623428
 15.5382914340777596 12.6479706909977274 11.7528050056769704
  2.9444962771704737  5.4098245207569624 11.7716587438935800
  7.3594775384141498 12.7991558155956024 17.5068027394783918
 19.7089557009157268  5.7284082908618563 17.7491428929255193
 24.0857062411797251  1.9878817187719622  5.5619754536880706
 11.4159916432929673  9.1857720347138763  5.9158989965854483
 15.8004643936662852  2.0228137839851579 11.8404783187763183
  3.1735752814885974  9.2847936524981964 11.7984765428845506
  7.7421650519898417  1.7587615539180994 17.7251984101480247
 20.3322548870076929  9.1847314430967799 17.7479339483808722
  0.1616061715329809 10.7891658410827027 11.8005898894959884
 12.7596460920288486  3.4663181481427983 11.8382914296564206
 16.6536811686848125 10.5239393871374656 17.8684087332586685
  4.0467781651490746  3.6311942012161516 17.3590372799983577
  8.5105670896919552 10.8616353099561973  5.8969205798513684
 21.1562647229313541  3.6358222819945891  5.6293199414831623
 21.0022234443053364 -0.0224913597508445  7.9225404170176095
  8.2468947517070994  7.0584682355653880  7.9870114154681824
 12.6195094044868235 -0.0298944030658576 14.3224604258083037
 25.1883270502510399  7.2873506335562537 14.2906119758371020
  4.3627291698552799  0.0968605055294652  1.5999055810398466
 16.5278499416911835  7.0852739133650422  2.0171088293938184
 12.6663989886613084  7.3883346339371920 28.7003491941165834
 25.1623738771532608 14.6353736577295912 28.5777487304478761
  4.1985171167888247  7.2528039568325893 22.6434189170667750
 16.7916445560329954 14.5582660263967245 22.7378475898616514
 21.4280885112550195  6.8396390541458914 35.2312427726183230
  7.9986334146343818 -0.1700036266394732 35.2782211784445536
  5.2591278749611901  5.6695652105284555 25.4623528644429804
 17.9260579567993439 12.9540150760332811 25.5151157080200441
 22.4029569347288273  5.7945868418638744 19.4275860156426319
  9.7646312456384532 13.0034973453370135 19.5496893547693134
 13.5948456981189860  5.6203213063303288 31.3742700421336238
  0.9594316655339187 12.8896499416293882 31.2215522293255923
  5.0854336043636996  1.7472372006890236 25.4126802526727253
 17.7273630491462768  8.9631172910745782 25.5700901543360608
 21.3412605300359886  1.7562273817218563 19.4581542804700973
  8.9710301813522317  9.2294705129145740 19.4225448956338376
 13.5515682876927226  1.7028937357064693 31.6363602771616783
  0.8557796359819463  8.9179519313596529 31.5210264712242427
 14.9037893932230432  7.1225430412321842 25.4626455194272019
  2.2670885987975029 14.4236263852583093 25.3863462991456679
  6.3822549038695122  6.8628320962270468 19.4545555889722479
 18.8997662549956580 14.0431721377851311 19.6171541448401605
 23.1313718086867475  7.1387634782949121 31.2580317041891931
 10.6250956998294566 -0.0255146861711521 31.6066004628559085
 10.5501218139190893  3.6817933450645155 29.2753363385085663
 23.0438960822411438 10.8902531405493761 29.2049088141218505
  2.1069223487110205  3.6460689722855286 23.0849251999626581
 14.7682637989255543 10.9454790678107567 23.1963370724473634
 19.0050053898198215  3.6021369494432052 34.9826427598712897
  6.2957038443152848 10.7694549147386542 34.5833542303919614
  6.4415463587534445  3.7482972993773820 28.7696341496349177
 18.9058734985828174 10.9036530200570869 28.9242965074569760