Li P  S  Cl
 1.0000000000000000
    25.1819793006824639    0.0000000000000000    0.0000000000000015
    -0.0000000000000009   14.5388225279766061    0.0000000000000009
     0.0000000000000000    0.0000000000000000   37.2126966544236950
 Li  P   S   Cl 
 286  48 240  48
Selective dynamics
Cartesian
  0.2147619696433016  2.9723017942834047  8.7781745069406441   T   T   T
 12.6377798820133691 15.7736253849117496 15.8902332495732210   T   T   T
 15.8193805322782008  0.6614429470204295 18.2963565127351586   T   T   T
  8.7230684484951801  2.0349222491633547 17.2897521226616284   T   T   T
  4.7775578464676585 -0.2920874019220524 -0.9378846798364094   T   T   T
 21.9246015160382548 10.6428852139717911 -2.4515278844730681   T   T   T
 -4.3683757394675871  3.9639939435192506  7.5493396270961366   T   T   T
 15.4120717983070108  6.4968938260112861 16.8368257564994366   T   T   T
 17.6404691943761911  5.3622897877924949 14.9748523940816298   T   T   T
  3.2706166862490238  9.0703525658679069 14.5157883439629742   T   T   T
 10.8365470556433472 -5.2935672114507808  1.9872425508453431   T   T   T
 24.8559622762332211  4.0383784048758695  2.9937089453511048   T   T   T
  0.6605944820982945  4.3955998864052601 15.9019871157792441   T   T   T
 16.0980362788519784 12.8741782599095025 14.9769608315913789   T   T   T
 23.3781274849750247 -1.5417217442272333  9.1842909898373080   T   T   T
  0.0971917322845699  8.1137682596897314 16.6520978599468990   T   T   T
 17.7440979142380364 -5.0635651980996865  7.5080801411715647   T   T   T
 18.4362950537889105 10.9621755475905509 -2.8477236088673381   T   T   T
  6.6693430923614256  0.9019578150058442  7.5718664072769357   T   T   T
 18.6826669830522611 17.7320460416959520 11.5188565256669264   T   T   T
 11.8883956166795439 14.4138300844585814 22.5380277594385525   T   T   T
  9.5485869907456635 10.3553534934852891 17.8072727659214642   T   T   T
 12.4361997592317142  1.2960621428081058  0.3151607119226870   T   T   T
 26.5983743710695038 13.5168955465612477 -0.4314430826380681   T   T   T
  6.0171819099714998  2.5915911108695489 11.8131368868167961   T   T   T
 18.4547578470519795  8.3496614618097524  3.0779921568824595   T   T   T
 27.2501105266207695 -2.8792173068454159 18.2529825209121128   T   T   T
 12.7035632423484692  8.5996914715686614 23.6559046122816738   T   T   T
 14.9733945439598575 -1.0950125531094179  3.4393063814241245   T   T   T
 17.4310478750071951 10.2629565123457560  0.7860787960866542   T   T   T
  1.4840188996825303  4.9915532613845022  6.6973280993994395   T   T   T
 17.7550798213719787 10.1736895025836453 11.2999942920595835   T   T   T
 20.2028102391413498 -4.8985413951809615 15.0641662502418043   T   T   T
  8.3016430469479250 -2.4042261153504652  5.6926856902801592   T   T   T
 20.2096307753461666  5.9245924687610643  3.6746575061121209   T   T   T
 21.4594162038484129 12.0757537593206692  6.3892303763481886   T   T   T
 25.0703051449716909 12.2450669720696190 12.0694549052211997   T   T   T
  9.8607685553599413 -8.7650694830335318 15.7576835386208032   T   T   T
 13.0982225225738915 11.1662501788256705  7.3320041686444846   T   T   T
 -3.6837127622108308  5.9914628381172790 -2.6180048091317545   T   T   T
  7.7221092365715025 11.9180395520503346 13.4226624274870527   T   T   T
 15.5816825316294363  7.7269637398242423  7.5369081716185393   T   T   T
 26.5422004469457171  1.0251388674051780 14.1024124792999288   T   T   T
  9.0352722807811041  3.1757560588431049 10.2224084627794127   T   T   T
 22.2294567092377520 -4.1499814285712455 12.6971817588933504   T   T   T
  3.2174071770054553  0.6306777630352386  2.9788441485252495   T   T   T
 11.1203245447436814  1.0527763935823575 18.3106877255297178   T   T   T
 13.2328544221887210  4.1355614354601231 14.6689622235690678   T   T   T
 -5.6421867275482294 10.1080948507757924 20.7617374955797338   T   T   T
 10.9552691129988506  4.9838940455509579 12.9209429525864579   T   T   T
 12.1566554835587830  4.8990965148119869 -1.2060079056446740   T   T   T
  7.6173857359416646  9.6486121511016982 10.8339892243746245   T   T   T
 10.0025454939236838  0.9037522680479830  7.7221928404020295   T   T   T
 28.9509342573001867  4.4807451448679227  9.0171681345118646   T   T   T
 -3.6947108992314779 -23.3686462359164047 19.4003981097799851   T   T   T
 13.2689385382127565 -1.7099039656859651 12.0550509391337464   T   T   T
 11.2746608219133879  2.6862342443795297  2.8491809782312152   T   T   T
  9.0364672330580227  8.5848144727284499  4.0257737096101032   T   T   T
  8.9076447334480608  9.3991408302286779 21.4764548659692878   T   T   T
 21.0150509781573547  8.0059100768644029  6.8704585044605402   T   T   T
 -11.5319373248192640 10.9470357159583571 19.6081469083069457   T   T   T
 25.7785546907936549 -2.0407314375901753 14.7840744651665528   T   T   T
 13.6803652109477003 12.4285445834407113  1.0309159430330723   T   T   T
  2.5703033574410616  0.2918144368088469  7.4916808782165472   T   T   T
  8.5962998278881244 15.4841090238907135  5.1980524704100866   T   T   T
 15.9869684170907043  5.5847312663431357  9.5345660413566193   T   T   T
 21.7387271328167984  3.5170449100403252 23.8818982704098950   T   T   T
 10.6496708665274049  7.2911780127715273  5.6701830835680918   T   T   T
 23.4846242915737342  2.0478767667525477 -3.2387978833316993   T   T   T
 13.8958332241029190  3.6380004629206977  8.2225057467618257   T   T   T
  8.1151676659788894 -2.2664983543357482  8.3463825884666480   T   T   T
 15.5192400925087401 12.2254569756328024  9.3269953829413002   T   T   T
  4.7597278026702678  9.5491035523762378  5.6666456846134619   T   T   T
 14.6787750046462833  2.1002278607959881  6.0746054912891454   T   T   T
 19.1933457886830006 14.5294649199341528 20.2508335952699099   T   T   T
  5.5739533862385002  6.6552115984312135 15.8828642447698041   T   T   T
  6.4240494149670697 13.2355754192911341 -3.7129198634476355   T   T   T
 23.6400911987927813  6.2999409097239898  6.9164595116857077   T   T   T
 -5.2612378764159251 12.8299704526383778 13.7029085550070757   T   T   T
 16.9852868869306803  2.7375490856049853  9.1761371577399800   T   T   T
 18.3083937839385733 13.8825383659295944 36.2402890135261089   T   T   T
  7.7999752487473746 -0.4941350294218272 16.4770065019342802   T   T   T
 11.3305145764112680 13.5776423325547171  1.0650533509850113   T   T   T
 20.8626011498970563  3.1916216266283084 -2.8039137761942166   T   T   T
  3.8027744430886949  4.3983001791179577 18.3182757581821534   T   T   T
 12.4934532105088998  1.1452818351299794 11.5659074741766421   T   T   T
 16.3142796839135400 15.5372578386824145 13.9015775400755857   T   T   T
  0.6888882945751097  0.7182173760264323 18.5461268816886786   T   T   T
 12.9343391996699495  9.9773391271588103 -0.7170165983446987   T   T   T
 20.5355453188435710  1.9723545734456243 14.8741438960708798   T   T   T
 -2.9421406277258089 14.5159900930987575  5.6014689088086094   T   T   T
 17.5937631839129622 -2.9588102012737800  8.0352626953346480   T   T   T
 20.2271044103174162 18.6036158493710211 16.9151348946461901   T   T   T
  3.3553098987679797 -1.1195605698778424 14.8867510817750031   T   T   T
 15.1504310361155188  0.3313425980146726  9.3130890852967152   T   T   T
 28.2680311870312657  7.6844995243467871  6.4260393673870535   T   T   T
  5.1146907339557455 -1.5094433372284952 11.6080184486100002   T   T   T
 15.5512754354842144  4.9509157669286132  5.6864043962024526   T   T   T
  6.1964341810810977  4.1415008620510951 17.0958947364322924   T   T   T
 -0.2793479724485589  6.0960217709365043 12.9679089913162873   T   T   T
  8.6565905868540636  9.6461264484396700  0.3693104100045482   T   T   T
 27.2951473015845529  1.4117570808304958  0.6237647946282716   T   T   T
  1.8201322778572639 11.2325521039006482  5.1220526819293077   T   T   T
 10.8006330445237460  4.5001026357415475 18.2744134008317545   T   T   T
 15.4038633098207143 21.8698312090492735 21.3580402775854701   T   T   T
 -2.5092307222404537  7.5836287889668030 16.1822095669603385   T   T   T
 13.7234704920612582  9.0577447383773375 -3.5982601577892028   T   T   T
 25.9150237618901187  3.6778768157445021 -1.2126333964952296   T   T   T
 19.6836705714091522 15.3978855374421784  8.7596349532550857   T   T   T
  8.0451059014629873  8.2169787835126726  8.0715633352713230   T   T   T
  8.1654465668872867  3.8836070841560977 19.5608206329162826   T   T   T
 20.3974909716320134 -8.1220725669634319  9.9145322408956140   T   T   T
  5.0810136738204212 11.7251547752837411  8.0914989262030250   T   T   T
 10.7648271438333047  5.6530879795066387  1.1684895296467084   T   T   T
 21.3549712534635923 -2.8941054978809593  8.8755754428853812   T   T   T
 14.6384601029716990 -3.5466419088916683 16.5150133747192527   T   T   T
 27.3116809955343562 -3.3561784973729893  8.4424955949402722   T   T   T
  4.4596398687492851  6.8436800496955046 -2.2730676126739273   T   T   T
 14.5084898217177098  8.4008791546737385  9.9848225176479861   T   T   T
 22.2897696248869188  4.7178877876475838 10.0202200973152387   T   T   T
 11.7657220533391396 13.9617431697605596  3.5810402928780887   T   T   T
 15.0500289711571735 14.1289444431790585 24.1529980154823960   T   T   T
 15.3683518377006276  7.4082345903293687 13.7110520276184662   T   T   T
  6.7418269641271467 -4.6242630720398630 -3.3894513841601999   T   T   T
 15.7197713812072575 11.3642775766854456  5.9314881993152504   T   T   T
 30.8359923440430705 -0.7622170103167069  2.0673848621983351   T   T   T
 10.3958272803523641  5.2621453474891382  8.0486110288892529   T   T   T
  7.3746301146391620  3.7073228428390221 14.8344946784729519   T   T   T
 11.4896560559140113  8.3118576210085706 11.8759379793382731   T   T   T
  0.3071165869939969 -3.9736785560692631 -2.9293763324136526   T   T   T
 17.8516081496664789  2.9073717510312855  6.4897476622456187   T   T   T
 27.2900124833194546 13.7605236488761413 10.5553988250629001   T   T   T
  3.6862233166374798  5.9521247064156295 13.3243429488840963   T   T   T
 13.5029724358178029 11.7558049965254590 31.4953655428059740   T   T   T
 -2.3748966165051804  8.0144960924552535  9.4985722315341459   T   T   T
  8.0603490226185333 17.9010730353600458  0.4223967185585692   T   T   T
 19.4261058723548103  4.7120548714348809  1.0278563575143578   T   T   T
 23.2778585289346331 -2.9284645051582388  2.7344826294254383   T   T   T
  1.1068374226444766  6.4687464504043817 10.6592648659897922   T   T   T
 23.3684717983481036  3.0093709929151871 17.7095932701658221   T   T   T
 27.7066094893645278  8.2628342179345395  3.2675201644207701   T   T   T
  1.6533973486703086  1.4395627969369700  5.2534349045173485   T   T   T
 17.3038947054303449  7.4671212604633155 -0.1212447618155682   T   T   T
  8.0586678826551132  0.6031583740115285 31.5854642719143470   T   T   T
 17.6460645481773994  5.2001880066239430 30.8756076816946425   T   T   T
 26.2099446397761575 -2.8238133919577857 28.0668438692982889   T   T   T
  4.6907623709820534 10.6644034295873169 16.5514291845143937   T   T   T
 15.0764425169772220 -1.3385269268756943 34.6570197388642356   T   T   T
  8.4417305871705643 14.3340022943678349 36.1069842337634270   T   T   T
  5.4165717980749344  9.2402781212512544 28.5519422697867462   T   T   T
 20.2349724487043545  9.5635424160860865 27.8602017937208686   T   T   T
 17.4951637791463916 10.8642110202377822 25.7883915184310553   T   T   T
  2.5630675173845345  9.4668585428263832 25.1607420257740202   T   T   T
 17.7489807907289290 14.0214668186408531 31.2120478615970036   T   T   T
 -2.9747179339123027  1.7795417671545277 40.3264326360138909   T   T   T
 11.1073615534292163 13.1591840575511547 30.3917849393124087   T   T   T
 24.3499438743623884  7.4306803157059358 25.6642343860749769   T   T   T
 25.1433454430982053 15.0829154238791432 25.1137805719316702   T   T   T
 19.0324862620518971 12.4995695291371938 23.7884174306751710   T   T   T
  2.9652584165228495  8.0511777601852970 30.0239553595052939   T   T   T
  0.1787981035432462  6.3616146006123024 34.5463162075758845   T   T   T
  5.8808868719097687  4.4547222712152106 23.7046416672350944   T   T   T
 18.5479443229032093  4.1276098928404634 35.4906387364664226   T   T   T
 17.3483814129453862 19.2520381853423892 19.8559008367740404   T   T   T
 21.0332011533354049  4.9299815325297631 14.3736176071863078   T   T   T
 21.3602235963809051  2.6585887600083349 36.9836268716267398   T   T   T
  4.2365414054597057  3.2356724461398194 43.5273352065153318   T   T   T
  5.1930751936384967 -1.5434406555981353 30.4637822972117753   T   T   T
 26.6290737167052747  2.6024916756315499 23.6297351952244803   T   T   T
 20.4338125344555870  0.6803424671817627 23.3362109343113673   T   T   T
  6.2174393017473406 14.7575255686255780 13.9563570382638389   T   T   T
 19.5966310303067139  2.1373840855148809 27.2914021926543100   T   T   T
 10.8282396658725997 12.2367455628037867 35.7384677635454153   T   T   T
  4.4656956405197086 15.6846461450523584 28.5554725594292549   T   T   T
 21.7513636858696771  7.9717240386091328 25.7769431593865690   T   T   T
 18.3947954317653988 13.4834394347201112 16.9246986237647477   T   T   T
  9.5718752224338015  1.7589600888096903 14.8290646714563188   T   T   T
  7.7335453693830036  3.1517698032938908 33.9896019538927874   T   T   T
  0.6044490207853586  9.2259946831848580 44.0292124673852356   T   T   T
  4.4937897986551789  3.8778934420887032 21.3976519953288502   T   T   T
 15.0801909937887295 11.8362197422335136 25.7197104724092149   T   T   T
 17.5136460132089447  4.6122964708062311 40.5370479182082590   T   T   T
 15.1974357710660719 15.6800967421176445 38.0686489541511435   T   T   T
  8.7385045739696015  7.7324258402629047 29.7867264234882541   T   T   T
 24.5539280583974673  9.1224797621482487 22.4035546113973929   T   T   T
  1.9034277742149086  6.5359520053232139 21.5365205570900073   T   T   T
 11.1765845790304521 10.6769112024668829 14.2531314614018765   T   T   T
 14.7732555416778162  3.0688442518937680 35.9913425986433140   T   T   T
  6.2222986102486733  6.5647560541298802 27.8117194185102115   T   T   T
 14.2267499281333105  5.3253446049605371 29.5166453361791312   T   T   T
 24.7065333156320399 14.0428103960478481 29.5732121084657429   T   T   T
  1.8314614006080587 12.2382492308136790 22.7561990390112108   T   T   T
 11.7768079190010422  7.8013937949311849 16.4827784781303706   T   T   T
 16.2813844058416102  0.8643399976929871 33.9807376838220705   T   T   T
  4.4008059900046677 10.1814519745025400 36.7794745689654548   T   T   T
 19.0843570955647373 -0.8780855973202929 27.7808504507953842   T   T   T
 -1.3592571457228095  9.6734777187308438 30.9500351428129257   T   T   T
  7.0150152401933479  1.4708425034776704 22.7757959327209285   T   T   T
 21.1059029268682217 14.9172686755818624 30.1569458717283680   T   T   T
 20.7979547681723531 -4.6317630791132887 37.2831830603695664   T   T   T
 14.5489079397239500  4.3535189114838788 39.1245552670613961   T   T   T
 16.9079451573512962  3.6063237032212112 26.7985307853798744   T   T   T
 -2.2485091922481835 10.5087030037456799 27.9684823743606579   T   T   T
 12.3123969767299801 17.5035487242150296 30.5470530667508200   T   T   T
 18.2538887263892882 20.0939648089038805 22.7765538652436810   T   T   T
 19.4886537894299678  8.5984266225938697 31.6565364222166110   T   T   T
  6.2464428754799819 12.9329063119436292 28.1259264463454954   T   T   T
 16.4211157621956509 12.1498966431976392 22.0908954575947831   T   T   T
 -0.6428652950180395 20.9848182831738370 28.8937987605881048   T   T   T
 11.6186239347589506  6.2352972575072059 20.2177790708386240   T   T   T
 15.7829436124364086 10.3295701916056473 23.8575256535988665   T   T   T
 20.3667416066601987 -0.9166273356629767 33.9405340030333207   T   T   T
  7.2870235597557773  6.7137888349263211 40.9931908819755222   T   T   T
 12.6548364346199662  0.0650059417026396 34.5435066237795638   T   T   T
 30.3830737096612680  8.6820435008248431 31.4119727951451964   T   T   T
  9.2611349595993300  7.6427092917232775 26.0949124356880660   T   T   T
 21.2518319998842387  6.8409880924523119 22.7579921124571740   T   T   T
 30.2800751900109795 -0.0146935161387024 17.4493283202360594   T   T   T
  3.4821104257281368 -4.7234495486744468 21.7988985674184548   T   T   T
 12.7315233062338322  1.3969003936229629 28.0469801961382892   T   T   T
  2.7888350739103389  1.7736949445927330 34.0837640354907023   T   T   T
  7.1588337044320598  6.2756815373381247 31.9150596767526196   T   T   T
 16.1221475400635121 20.7555451510127718 24.1207045719692310   T   T   T
 18.9338880174967485  7.3426394009136500 17.5547606336605604   T   T   T
  3.3694994310696713 13.1915538590176489 25.0903457770182925   T   T   T
 10.1568352975309697  2.4522852144636724 35.2618161895169351   T   T   T
 -2.8782204110354188 18.6551206754332313 31.4219897802016064   T   T   T
 10.6478791955308019  2.7591939346798546 23.1796970058745515   T   T   T
 24.3324526040322198 16.6150776946256009 22.4792995753682412   T   T   T
 22.2801762374098118 11.6706297714088052 20.2146541703341605   T   T   T
 13.4879237370781357 18.6552911720075052 22.1094431280278556   T   T   T
 19.6692800579883205  0.8610962641823603 40.4659382969219479   T   T   T
  7.8057864620788857 16.6276722117576625 28.4135428478879426   T   T   T
  6.0404205481565674  7.6468636352639265 20.3073806191731094   T   T   T
 23.9101220212007988 16.4924556735608725 31.1394326203785319   T   T   T
 29.4230552322885792 15.9769304392635370 24.3610149361148771   T   T   T
 12.9271286921601583 20.1578398699956409 26.7611979085940739   T   T   T
 17.1119037883303946  6.3829863712730370 33.7134256994566499   T   T   T
 13.0008985537774890 10.2746288176424443 40.0660307451357198   T   T   T
 10.2991326453923620  3.4439527896100066 27.9732680984062654   T   T   T
 22.5576908599540999 12.2169586818400795 16.6935297936805433   T   T   T
 11.7561325948135540 10.0615127340277084 27.7162422091068663   T   T   T
 19.3356022059608854 16.8494346150543066 31.6502870357830695   T   T   T
  2.5200077377170405 -2.3843104703018878 38.7721568405366526   T   T   T
 11.2040050991104927  9.7229344851990405 30.9122861671141820   T   T   T
 18.3410291237129996 10.2154067008671632 29.6103991486706022   T   T   T
 22.2426605186057351 10.1771374598595550 23.7013046735963009   T   T   T
  9.8527969386752758 12.1143052640973252 23.6007306199183340   T   T   T
 17.2058877853175503  7.8325547665941455 27.5338673603390482   T   T   T
 -0.8288181409747720 22.7196993433517065 37.4405723395780399   T   T   T
 20.8548209616724556  6.6494597779676026 28.4184720972628284   T   T   T
  5.2638554223724840 16.2496824310934507 31.6145826265311776   T   T   T
 17.9179079352889090  2.3614145281045507 16.3292834754115290   T   T   T
 -2.4670479378000825 13.9485292595912931 25.8291964295797953   T   T   T
  7.1085958924490065  5.1029883844067623 43.6731615207354054   T   T   T
 19.6604880913846998 12.5515512648851306 38.2351041477009090   T   T   T
 29.5819374115247875  4.1686808606792196 26.1712591438623008   T   T   T
  7.0838845514641493 10.4493630900472496 15.8395167853049870   T   T   T
 29.9287560263197605  4.5982426561280949 29.7823167652942971   T   T   T
 -7.9791387099205702  9.8397523510671014 15.4894986503349514   T   T   T
 -1.9903467514449984  5.3539034432349979 37.1983297433660169   T   T   T
 25.9090741214811828 19.1465094108300882 31.6937314139018476   T   T   T
  1.0844651746323981  3.9693728541982729 28.4974272667463779   T   T   T
 13.4570457282284401  5.7534846475897998 32.9343849766942185   T   T   T
 19.6776240842402323  2.6742941873149304 19.5554864498518697   T   T   T
  1.2197515430311352 10.6842302287938828 30.5311820548405635   T   T   T
 10.2724658556164208  5.1815171016491082 33.6786540363648044   T   T   T
 20.2824081552099713  6.9077190825095531 37.9632467813889747   T   T   T
 -8.4744669354340445  1.5197143455445865 29.2375173869377285   T   T   T
  9.5365382030461685 13.0884246560939523 27.4568247319944270   T   T   T
 16.4217977514425719  1.4934159861522023 21.0370337919276125   T   T   T
  6.1942388088772775 10.5632749075957157 25.0085897379793103   T   T   T
  6.7837065977165185  6.9413374083204351 38.4445325511007354   T   T   T
 22.9769084266236270 -1.2996679086682796 36.1824801606493054   T   T   T
 -1.6040213019731453  2.9355255612691153 27.8569471997516729   T   T   T
 16.2202356245758565 17.7623454312939941 23.1645176781718583   T   T   T
 22.6407788969435586  0.0244787884743358 22.0172975848787225   T   T   T
 11.8821055795237065 12.6816792206848667 16.7195183142167387   T   T   T
  2.5581771846745216 -8.2810490680669346 37.2030541333491414   T   T   T
 23.8104445639816120 12.5489549862612826 31.8861082727664211   T   T   T
 27.9472986212498782  5.7226750504663819 24.2352255933184857   T   T   T
 11.7237255042947837  6.1028906728829826 28.9269379770600601   T   T   T
 13.8425783525334349 -2.1645492850788131 28.5437072268950978   T   T   T
  6.1600151376289460 12.7225936811692648 22.1166312943519081   T   T   T
  8.9158320658694876  4.2046619080432812 41.3953750605609088   T   T   T
 18.3930734050762936 11.2404012093211776 40.9447058023107076   T   T   T
 -1.3588036122620746  1.2658736911845476  0.1126964176413378   T   T   T
 14.4054421974392941  6.7635407981138007 -0.1706893043108466   T   T   T
 17.2167278382039619 -0.4548155398789976  6.4002562819227462   T   T   T
  4.4258053523163730  6.0729928768894510  5.1246258492903580   T   T   T
  8.3204487491786292  0.2284336844620512 11.2340682195047616   T   T   T
 21.6633437634432795  7.3209644440080357 12.4793104440995091   T   T   T
 23.5133786441412305 10.0354274294657344  5.7948808340796321   T   T   T
 11.1202885480411187  3.1301184731935674  6.3818467902018972   T   T   T
 15.2961959927722049 10.3535716645469762 12.3178065297641606   T   T   T
  1.5324805056524713  3.4328570283507562 11.6958792814762820   T   T   T
  7.3508609985954010 11.9931808694447888 -1.0524519543807878   T   T   T
 18.7801670924750290  1.7417227177871322  0.6150469603248863   T   T   T
  4.7314298584518975 -1.0029511860479758  5.3173977762397140   T   T   T
 18.0574798969041161  6.6572471006393279  6.1573409856063153   T   T   T
 22.5046968292307881 -1.0528986282516117 12.8363965582700335   T   T   T
  8.7131994797556036  6.9360551934254326 11.1181656073093738   T   T   T
 15.0071903032889420 -5.7681705681777533  0.5136678870449339   T   T   T
  0.5328899904484784 10.4068233984171172  0.3552142082251281   T   T   T
 23.4111381043675379  2.8811112393531424  5.9368456815556625   T   T   T
 10.9677807780781560 10.7106954406914241  5.0504476577386068   T   T   T
 15.6968368998329666  3.0331426692210965 12.1106302950625793   T   T   T
  2.6096618282650521 10.8122027245312360 11.3048465795948090   T   T   T
  5.2287909309120284  3.2715742706687485 -0.0269035435700151   T   T   T
 15.5332950644422958  9.6433670007337291 -1.5179624868823267   T   T   T
  0.6682734467520579  3.7245332980616084 19.7900850262732284   T   T   T
 17.2231810221301842 11.1103495600271955 18.2048776656320044   T   T   T
 19.8532238533772833  5.1730946941609508 32.6975643874941255   T   T   T
  8.1663671383087468 11.0164708491680194 30.8549742564705305   T   T   T
 10.8292794389840719  6.1909579640068966 23.5839303645520459   T   T   T
 24.6934236250485206 11.5077969584480932 25.5614803762484613   T   T   T
  1.4955166174454038  7.9179571493128664 32.0514524489618822   T   T   T
 14.2217235078124915 15.0835473010520005 31.3259793912776701   T   T   T
 18.8416968810485201  8.4813286453037833 24.6280343665929635   T   T   T
  6.1874441262659339 14.2230874811775863 25.4089137378622496   T   T   T
  8.2712176600133258  7.1497734364480605 18.4603424573709169   T   T   T
 21.8803330556757238 14.8549057079683813 18.5448788690557151   T   T   T
  8.5592375206450697  4.2149908412799357 30.5502655654448070   T   T   T
 20.6106385958561766 11.2741217935158033 31.1774633209474032   T   T   T
 24.6334419543519907  4.2315907895770604 25.6128418353386103   T   T   T
 12.3581251790068318 11.4436655655284376 24.7782719804237175   T   T   T
 13.7320108363705078  3.9665649487074321 18.2579666937516407   T   T   T
  3.3332881339929585  9.0741470201978522 19.2657209139198997   T   T   T
  2.0307920969572795  0.6793173832495909 31.3582945162892344   T   T   T
 14.4172854027157822  7.9685597315736505 30.8373523084298995   T   T   T
 18.1464221471486447 15.9368756764230532 24.8821868224882969   T   T   T
  6.1975767917914455  7.0323721921311595 25.3142742369585321   T   T   T
  9.7063770204509456 14.8514799745234498 20.6344857259309364   T   T   T
 22.5219634606171155  9.0016039111835120 18.4646111472884478   T   T   T
  4.9038014489737156 -0.3777378226820627  7.4093887013050539   T   T   T
 17.8291548644590065  7.1424983787045564  8.0510767978577036   T   T   T
 22.9174030602312122 -2.5021367203256974 14.2024254037285349   T   T   T
  9.1451885279527527  8.5334922666997493 12.3078213903435927   T   T   T
 13.4666865191776406 -0.1285584062129624  1.8950606256830087   T   T   T
  1.8898789555347695 10.8360415255302236 -1.2004767300502404   T   T   T
 24.1845043911778284  0.0412057077020513 12.2895389154379426   T   T   T
  6.9825586002721280  7.4341257810042221 10.3091573304762623   T   T   T
 13.8881097067710275  1.1914201012084937 21.1870116656308554   T   T   T
 -1.7914279895002951  6.9961511524146376 18.5545929356042301   T   T   T
  5.4214433303738492  0.4534820731298042  3.9682350692984452   T   T   T
 19.3586621430675017  7.7303617784797378  5.0602410384838175   T   T   T
 21.5067271624680281  5.2047337585905016 12.0056765004844976   T   T   T
  7.3702609318910879 12.8862085940966224 10.9291950538709379   T   T   T
 11.9740422867144360 10.5349004019838475 17.6214247083624862   T   T   T
  2.2688554650762467 19.6379255819705527 19.8692877031847139   T   T   T
  5.4913005380644861  4.5071724995407747  4.4855730790079784   T   T   T
 18.0889289701899862 12.2829527515940065  6.0288139077849081   T   T   T
 10.2106250848114897  0.2533786207142629 10.8046642996287989   T   T   T
 20.3535776543777267  8.4022075770318096 11.1995791018693343   T   T   T
 26.2001367632006570 -0.1425955912708134 15.9571399389797630   T   T   T
 11.5225433653315257  7.1932901178566588 14.1997942530789221   T   T   T
 15.2284788274225349 -0.3355679915980570  6.0059283904261855   T   T   T
  2.4687500291113325  6.0343837114201033  4.5672973697954671   T   T   T
  2.4885326202533085  2.6969189711546768  7.5195222000597832   T   T   T
 15.7144528780498511 10.3909321529812892  7.9945825719258989   T   T   T
 19.1580628885616342  3.5517323628052120 14.7267714474694014   T   T   T
  6.0922936621219446 12.4633577759946981 17.0127322227079674   T   T   T
 12.7941605590612824  3.5297983363884380  0.8696530567164039   T   T   T
 24.7094729364425483 12.0684377945964840  0.8895700888160746   T   T   T
 23.4041048692233034  2.9613673860888192  7.9693658852797471   T   T   T
 10.4253428968446151 10.6135409420395419  7.0524563240262532   T   T   T
 15.3394116084336467  2.9868243681322295 14.0392841528490830   T   T   T
  2.1108066631350715 12.2612995531263174 12.7220927740945449   T   T   T
  6.2045916791685389  1.5098101339910028  0.3628599997245190   T   T   T
 19.4081679678875290 10.2149536214298919  2.0540403501685329   T   T   T
  3.7365602970959308 12.0838311310287310  9.9432602522857891   T   T   T
 13.8977156165721762  3.0137268838874558 11.0948724502987481   T   T   T
 26.8785807466404165  8.6207557028818975 20.3070132391649985   T   T   T
  7.1435603114875210  0.8380814734127033 18.5580826184879264   T   T   T
 12.4465622595611762 12.2201163251492098  4.9678583946000012   T   T   T
 24.1228164746587410  4.5373841986168566  5.0242639913224165   T   T   T
  0.8842873870612480  1.6403055179878581 10.6844565440734023   T   T   T
 16.2191895200708416  8.5275853385531732 11.6987133287778793   T   T   T
 17.9167963026340757  1.2575760224187964 19.2854517016093858   T   T   T
  3.7853925572629916 11.7349776821521843 19.8598089596665481   T   T   T
 12.1596245665574489  1.2323383385519275  5.8231667894595853   T   T   T
 24.4049196718854127  8.2747154102956628  5.1852816372562538   T   T   T
 -0.0389366717922361  4.5125366004249043 10.9731325686886194   T   T   T
 13.3407927351630562 10.4325337425812670 11.5319253735778542   T   T   T
 16.1482141438037132 -1.6798037853804177 17.3213382155370397   T   T   T
  5.5786622646393083 12.4813084774358565 14.9522890389193979   T   T   T
  9.0963543867472278  2.9072577776696904  5.9790872352396907   T   T   T
 21.9069045111377640 10.5426457456358769  4.6164121449567830   T   T   T
  2.6891429189786673 -0.6892199390150122 17.1940533886539697   T   T   T
 13.4343682188934057  6.2062038658724257 13.4705554499263034   T   T   T
 18.0720772370730280  0.1018558474140824  1.6869383574001735   T   T   T
  6.0559419559836813  4.5901862731949112 -1.5046130165142546   T   T   T
  8.3899214560794917 -0.4812927889102481  6.8844089052142259   T   T   T
 22.0042326157796779  6.2397094166702018  8.2246351058316929   T   T   T
 25.5663965126552313  1.2275686902145961 -1.1948038362186428   T   T   T
 12.4848548532753849  7.2443774297126939 -1.0603911236229000   T   T   T
 17.2271805612970574 -0.4567116161135781  8.5452808457624769   T   T   T
  4.6829137780010841  6.2204005000298928  7.0973764133711033   T   T   T
  7.2716133561605050  1.4747573122650901  9.8481955303139017   T   T   T
 20.8304912208793631  7.5055663581799719 14.3269583462202341   T   T   T
 23.4947481276562584  8.0890173590788592 12.4119247231699195   T   T   T
  7.8743828500025419  1.0377653969163698 13.0820149572392523   T   T   T
 10.8360694363910373 13.6344887649837254 19.6079548081234094   T   T   T
  4.1625891622975351  2.4382797084912085 16.9251285149169064   T   T   T
  5.0510614135299301  7.7389536163148849  3.8655571404884159   T   T   T
 18.4425024256478984  0.9305305233363786  5.8495432974452362   T   T   T