Cl48Li287P48S240 E=-2537.554053 eV
 1.0000000000000000
    25.1819793006824639    0.0000000000000000    0.0000000000000015
    -0.0000000000000009   14.5388225279766061    0.0000000000000009
     0.0000000000000000    0.0000000000000000   37.2126966544236950
 Li  P   S   Cl 
 287  48 240  48
Cartesian
  1.0674339412730280  1.6374556931786890  7.0444854806127992
 13.6481774568561693  8.9800816579674976  6.9611716088220152
 17.7870130708866228  2.1534508655029203 12.8570537199193620
  5.3514550621633754  9.5655212605657702 12.6896115541846761
  9.8453132476933547  1.6277551075877488  0.7350955478988452
 22.4854199693042958  8.8678420680027035  0.6000131966367898
  0.1552564445196577  3.6701595341193070  9.2682240164140683
 12.6636753540655072 11.1737181462262392  9.2408273297903296
 16.7374553881161070  4.8009070253226058 15.2631645101129116
  4.1570690208110088 12.0783681601871251 15.2728349355111277
  8.7248570129296059  4.2841841145060773  3.3041289115975898
 21.3187038354762812 11.4516139529417043  3.1874276595000177
  2.5102703206686376  5.6731809867802649  9.2558465195691202
 15.1060399920812802 12.8735599745267617  9.2935108715184498
 20.8228537579953183  5.0323973843598884 15.1924973449423888
  8.2266308537278263 12.3858639522403706 15.2858930361354552
 12.0055052001488924  5.2809879188903279  3.3126833291097051
 24.5522494837789651 12.6006357539366896  3.1699248840561465
  4.3570280748308496  3.6144559273050825  7.0882702777387072
 16.9931598701758020 10.7852387169945949  7.3132290654379393
 20.9029367611111354  3.5318027976638238 12.9363580574056325
  8.3593329261778724 10.9462091469785232 12.9697810579709021
 12.6336951320204083  2.8402961285802366  0.9338174340234529
 25.2526090028828243 10.0926409980833309  0.8588740090380069
  3.0454784643488311  2.1551474364775935  9.3994042712302015
 15.0334543372796343  9.0106961819506637  9.3572910641282707
 18.3522306145369605  2.2506891267828739 15.8842652719675534
  5.9356888552150737  9.4829101402786300 15.8040708040558222
 11.0952270033597600  2.0664230755326840  3.5809278223050613
 23.7518329880191708  9.3550144757937250  3.4737589837953493
  1.0208504500129536  5.5302416311087983  6.8399859856079566
 13.6152156231015393 12.7657420297214212  6.8402624954832385
 17.9547190980153530  5.7658809788261554 12.9514675480620163
  5.3401410432356338 13.1260887301419960 12.9981881211436399
 10.1664308411281610  6.0184940825435307  0.9952087156851851
 22.7145524607925289 13.3013581478230485  0.8027540976720201
 24.1101928571028701 13.1065921379929442 12.8082833942518395
 11.5364967325236183  5.9166420493709211 12.8159329546766418
 16.1517743411223975 12.5256554568330358  0.6668033762965980
  3.5605413957268337  5.2964930014530882  0.6864386444983790
  7.2917180112616355 12.6168472163736443  6.9742294202914854
 19.9811182339670772  5.3190404518816985  6.9890238083986347
 23.0246674638684610  1.1696034373978490 15.2603902388387702
 10.4143054454765682  8.4146343625439162 15.2935010007581305
 14.9788438287280297  0.6152044565738463  3.2417980331392937
  2.4470391502623303  7.8848118676383070  3.2400906852363538
  6.3841713324588127  0.2249169880582537  9.1978134898955535
 19.0636706917520229  7.4644636413353034  9.2448898839492344
  1.8798657139855266  1.4408685888888968 15.2200468283450814
 14.5868765191275589  8.6754198054263991 15.2633850602689236
 18.2820728911321595  1.6553569957845802  3.2586615083957522
  5.7238669296569977  8.8975453801781796  3.2444687405381685
  8.6360189082828072  2.0775308823277161  9.2854639486788830
 21.3811885320848845  9.3228094500709275  9.2516591988790555
  2.0109657322911243 -0.0028017224144743 12.9047561251408673
 14.6479004609557393  7.2274992549663111 12.9469973235319440
 18.9188283529910173 -0.7938477435406943  0.9155695128235566
  6.3499539709585768  6.4634687390549193  0.8848659895393360
 10.6885248477813093 -0.0221523869558132  7.2982292808523503
 23.3377086533737526  7.2716053964605125  7.1983851933044276
 -0.4719781856978060 13.1641653818189752 15.8673603674830055
 12.1639397870859796  5.9314602014590898 15.9183633656873305
 17.3711595804113443 12.9708990510987601  3.5422738631664821
  4.8370862687783429  5.7120543972768969  3.4948807185223059
  8.9473751997794206 12.8556373327385653  9.3683862489294825
 21.7840788626682205  5.6830759621382940  9.3584810426664937
 24.2019344869577253  2.1786772255043729 12.9688456452150085
 11.6607204259591128  9.4367424292976665 12.9786899455056677
 16.4660219842936186  2.3937739009129499  0.9691383171600750
  3.8911626183452377  9.6624908749490857  0.9147485774430695
  7.3114177998940724  1.8585440155244657  6.7808358890815779
 19.9434772444137174  9.1460296385874997  6.7949875617524755
  1.0920928530216869  8.9074904252559524  7.0177325123569529
 13.6886510177894181  1.6624041326100352  7.0435060025536957
 17.8297976752270522  9.4809580653671919 12.7821809031497402
  5.2574126506566579  2.2410680026264513 12.8131481077804388
  9.8606280733645608  8.8820819855696129  0.6920437824578024
 22.4151589515168759  1.6512924533725191  0.5411313293644433
  0.1953442456168388 11.3243415255437228  9.2558152106669702
 12.6972032760728109  3.6514618084993375  9.3112287277538126
 16.7577506805854455 12.0606106092831613 15.2703542923377888
  4.1016486679236390  4.8880192434355720 15.2559380831485427
  8.7098207981562012 11.4740649917790787  3.3225202806447456
 21.3197263256628524  4.3495435925780841  3.2076110623839544
  3.0692145347651816 12.5901371465920047  9.2844162370831764
 15.1203196517203047  5.6695551831041726  9.3326330272892584
 20.8260340269085695 12.3054276616784364 15.1932023438193671
  8.1902876420840744  5.1234334365648344 15.2336736209253303
 11.9580579987854332 12.5606494885084388  3.3126923089414611
 24.6212292854566286  5.2609740606612192  3.2142760932547914
  4.3852044549407250 10.8581918838117719  7.0656941148005510
 16.9848024864242433  3.6503046121223881  7.2024226041612831
 20.9296775260528420 10.8081572463429918 12.9407553242048330
  8.3208628368054889  3.5651791457883606 13.0188784115339882
 12.6439257987933527 10.1221634225155572  0.9241443588925748
 25.2107975017114398  2.8406204147534999  0.8619825824712614
  2.8589226572470761  9.2593732643620221  9.3580405221833587
 15.5001326703649429  2.0886167664957704  9.4249418407223295
 18.3809528112636364  9.5003427691269362 15.8588826149900637
  5.7279355863821397  2.3044595169229511 15.8775393154805915
 11.1391723283151531  9.3454260904051747  3.5169301713913197
 23.6114735377056313  2.0700878616618916  3.4476699697702649
  1.0502727695247533 12.8713994299057095  6.8835535791735314
 13.6082092698703008  5.6191214477692863  6.9833864088853597
 17.9362747929769455 13.0587339791120502 12.9693430486801446
  5.3735318128889915  5.8495411122235712 12.9334252532511638
 10.1222433326591190 13.2980462751966755  1.0513823066438039
 22.7843673420074211  6.0444366325631771  0.8593295632102536
 19.9826176631744978 12.5668645665920824  6.9956921988332521
  7.1963542673817340  5.3923838395573327  7.2177779931395705
 11.4800794094609895 13.0735221086997626 12.8667959651532904
 24.1056368871020581  5.8733636534922322 12.7578473755314210
  3.5465741762234102 12.4748873542957792  0.4119481589369397
 16.1300336663731052  5.2261567886726397  0.5002187077597106
 19.0132770770424280  0.1405060150157159  9.2471183043894847
 10.3653472793370991  1.2299292959779791 15.3253781723412459
 23.0797654400661045  8.4084468296885913 15.2589883814835243
  2.3974533719573343  0.6026982693186490  3.1386374113699747
 15.0368405542777701  7.8871068264565798  3.2154782925597849
 21.3540221188917876  2.0345587453675273  9.2623513241901598
  8.7643214996143453  9.0398311737060784  9.4471642706101022
 14.4762064406517563  1.4008322214803435 15.2411223837599028
  1.9562046968824969  8.7052953849395998 15.2225485296289538
  5.6487844649469636  1.6640516657157622  3.1102283038369065
 18.2466018136969588  8.9723763439616189  3.1705919275380254
 23.2944408804467002  0.0102416579860809  7.1749331122751707
 10.2769744946733592  7.2738282826548666  6.7419564774780829
 14.6004252462699711 -0.1368026446597184 13.0046754059308487
  2.0287995803279908  7.2497816957759902 12.9086762510730821
  6.3258966547208226 -0.7832524063007816  0.8423842000259688
 18.9430608599538317  6.4864439715307105  0.8652621887903910
 21.7655034480583680 12.9603264881168219  9.3504064452706235
  9.0363275736342459  5.7741660186130668  9.5015546442149237
 11.8771780586870630 13.1262416421104557 15.8448863341015649
 -0.3419988199500524  5.8324738817245372 15.7823102565740854
  4.7581797900468530 12.9523018284484959  3.3627780265877223
 17.3805309895564051  5.6854780954286870  3.4530089175972223
 19.9159010662746034  1.9020894410749021  6.8257179787931017
  7.0702290694803693  9.1072190893469269  7.1431585923874508
 11.5726477745924452  2.1849889686332347 13.0150822775720663
 24.2102095014857781  9.4404805649676096 12.9409832509851359
  3.8118037504996072  2.4325080956449123  0.6816882101874732
 16.4302625395687585  9.6728867865004169  0.7648311147595954
  5.0982326060660865  1.9715929365145712 29.9600345154475001
 17.6715857746363376  9.2381737979233822 29.9781180841310935
 21.8790869632332168  1.8172749058317641 23.9401159944610384
  9.3166586515777166  9.0881031001910717 23.8797196407076271
 12.6015996177611278  1.1862784229464665 35.8008283064151343
  0.0118848212562202  8.4296741247368399 35.7225373775350974
  4.5917391907083509 14.4891852772528971 27.6722720327842886
 17.1597734285189496  7.2126966281655109 27.6785497570938404
 21.7410620964506016 13.2967067121460651 21.6174295402131591
  9.1816637918707880  5.9465310579522539 21.6701160257093193
 12.7010015486058627 14.0218439235504153 33.6649326475185546
  0.0720129262869105  6.6635033482909840 33.6506329546510798
  7.8187200552426042 13.1299222253060535 27.9789324285955203
 20.3442659416031368  5.8378146693736914 27.9697435307433153
 24.6862615766681017 13.0331608762665994 21.9746435954430446
 12.1161476046664287  5.7517467191056495 21.9660502525630967
 15.8296127572637708 12.5486018585359655 34.1505994424308241
  3.2364345341560319  5.2589373475684038 34.1253388570133467
  8.3936143822636922  0.0311649185593644 30.3952561785349822
 20.9947698935527249  7.2946874221585025 30.3736844511865627
 25.3294386959995634 14.6416488675853973 24.3251272187825656
 12.7048466956304225  7.3413134187749085 24.4085846876051740
 16.5882304139305887 14.9244035151594225 36.4047718424008622
  4.0059702797482837  7.6417463174097540 36.3706638342732944
  7.8546998027345971  1.4003059206585842 27.8760416440522008
 20.4006085211097563  8.6710765387295492 27.8712912751269855
 24.1687048202514774  1.5682785980841505 21.8082585018250086
 11.8339913404203330  8.7325107570965486 21.8668624379177032
 15.5853005377639757  1.7269000321165195 34.0403844722813673
  2.9810173540888694  9.0248833046975214 34.0250972608180220
  5.0923542624133900 12.6486860565669748 30.0225872076909468
 17.6708084711437614  5.3881532359035917 30.0587391709429923
 22.0593761902386234 12.7079515453005314 24.3186495049316562
  9.4976977193170651  5.4279307475598273 24.3471703731926965
 12.7572353602071296 13.1465508113574323 36.2870164081878812
  0.2403700461695921  5.8219265079498639 36.2758402275745411
  3.0177261388596306  5.4652693548560869 23.9593767100855182
 15.5883657398449866 12.7301829442856853 23.9131457309071713
 18.9207804403912725  4.8082540690444331 35.7689602036408161
  6.3217930994940694 12.0986811915197787 35.7368609285624430
 11.3823242665332884  5.6027092290959528 29.9980407899340307
 23.9682758809334828 12.8599085033728660 29.9456590339899158
  2.8864273208964448  2.3681777152526502 21.6389684547317493
 15.4500209392933545  9.6668152515652590 21.6208240628454362
 18.9653899085217290  3.0901275665471295 33.6526252953567493
  6.3806340040363771 10.3710094747144677 33.6498239424258614
 10.8791398768134666  3.5992549982514404 27.7039367294617769
 23.4552008749287957 10.7963028043200246 27.6785935986444116
  5.8203574207539397  2.1452663910027834 21.9659544721415863
 18.3905363066505352  9.4022942730208268 21.9528863433756811
 22.1393209689047197  1.6422822810574407 34.0974341092302708
  9.5432716038717640  8.9329426384068533 34.1330952603108457
 14.0711026348854631  2.2054643662452449 27.9960092549429547
  1.4868798535087555  9.4731538117468208 27.9583181395570364
  6.4552153934031455  3.7484612501854229 24.3337030740850082
 19.0217246347534399 11.0011047796112855 24.3389022617241331
 22.9017837861810598  4.0610583745424114 36.3394559395006098
 10.2946661573713403 11.3113402769025964 36.4085484219182476
 14.6934967531093115  3.6599884432200698 30.4078039293478888
  2.1090614907135445 10.9224675001796694 30.3562325749180211
  5.1827440918960130  5.2200226103538858 21.7651234750687621
 17.9312655892411890 12.4467205470777404 21.8023947720017652
 21.8528308481437854  5.3568169182977492 34.0191683590525642
  9.3056916307045991 12.6495238134360992 34.0222062366757001
 14.1461417314907933  5.0248371922717547 27.8987632567252000
  1.5347918171820156 12.2998615967359815 27.8362524349575793
  3.1881792175766814  1.8018816206208044 24.3311447573560500
 15.7557843265893460  9.0838569639408213 24.3113354457033886
 19.0679101267416833  2.2002694709971240 36.2599244501610798
  6.5069408701292017  9.4716581257175090 36.2624036076652487
 11.3787488243060704  1.7533175393016971 30.0713745234851473
 23.9780661753982507  9.0186356178920501 30.0533629586281172
  5.0887336365138536  9.2340462296287136 29.9772352007749205
 17.6743546591879586  1.9620987940738239 29.9758769577051858
 21.8867496803801451  9.0954060359554063 23.9633687463850862
  9.3076849817066378  1.8321606845210154 23.8982378927873533
 12.5991930657723934  8.4563737691978869 35.7920728754741830
 -0.0024474370826039  1.1833714163627245 35.7230681224414539
  4.5760838552070844  7.2115991227713536 27.7052697925529223
 17.1736961173850453 14.4781293539474891 27.6796125181538137
 21.7117857494780999  6.0693018777707710 21.6287246732536360
  9.1715167356808838 13.2477165587374692 21.6565108568856814
 12.6814124493715692  6.7295847033719776 33.6666180050512054
  0.0740056396559417 13.9863330842619114 33.6153130355509902
  7.7645734684580159  5.8329019217542326 27.9848239529976546
 20.3901164496224645 13.1246315657788681 27.9744993171707996
 24.6586245412878355  5.7748903576444555 21.9699268983754337
 12.0908353112004647 13.0320368164100540 21.9255364608337509
 15.8326914321412318  5.3005377037094217 34.1139744181022522
  3.2422179860318732 12.5754441186383623 34.0624555905897424
  8.4095273351024797  7.2978629854881794 30.3894698950845061
 20.9766474882362495 14.5640505786247587 30.3878422547702343
 25.3362581850461943  7.3745413713164707 24.3183799551969422
 12.7360190421827237 14.6326961725772833 24.3581379872265593
 16.6441240795109699  7.6630961560461994 36.3178350965809642
  4.0335849332045459 14.9212321325373605 36.2867484696699520
  7.8368185385698119  8.6666895376213056 27.8681812940737927
 20.4465599590107665  1.3885415838446291 27.8751991798019638
 24.1108571922389743  8.8544740425678015 21.8034110356398827
 11.6425815846847520  1.5321702827863499 21.8046731558218347
 15.5500911574263121  8.9788664800708027 34.0219761119464081
  2.9651916672594685  1.7139712054610210 33.9803157150925799
  5.0875364274507806  5.3877767570617925 30.0617908310550348
 17.6745369991434060 12.6542809267142786 30.0558545888782831
 22.0552571865947300  5.4262435495206960 24.3185294540706423
  9.4904056016070459 12.7367337226263988 24.3664122135873136
 12.7627838473348518  5.8637927924534710 36.2848730827070511
  0.1931288014013876 13.1018001428225777 36.2367727899191649
 23.9770821007149664  5.6048898912982175 29.9792360664573430
 11.3801496844504779 12.8660816845583952 29.9851331075091316
 15.5875380968532244  5.4395890867931733 23.9308440758879577
  3.0253370782003750 12.7386512812715313 23.8532517262839825
  6.2877038396431857  4.7999771998021501 35.7496621871225173
 18.8725638648536460 12.0657729363347102 35.7712891159873365
 23.4607204222967525  3.6304570044619147 27.6804220074264151
 10.8788215734522815 10.8352295283767290 27.6797988841316069
 15.4426556111287923  2.3808472738580297 21.6355308113093621
  2.8745340971836173  9.5851242229365567 21.6194307415821321
  6.3906214051706733  3.0305860713652706 33.6607601164851289
 18.9548560919119069 10.3069031635228594 33.6661227757836414
  1.4741355514916599  2.2091418123876823 27.9587144427717966
 14.0798468922815250  9.4879796104200693 27.9824765537319493
 18.3870311006855474  2.1257643009701730 21.9583686545231380
  5.7969141922721974  9.3615815350958904 21.9572841419729521
  9.5584593650051044  1.6616865539857990 34.1367616747068041
 22.1256786953535034  8.9169511108296824 34.1132381338271955
  2.1117047449198130  3.6698734189317741 30.3634594699638392
 14.6905006317765778 10.9353020803260588 30.3971443849086533
 19.0249150424673523  3.7225137692395078 24.3364800611750738
  6.4017099452704374 10.9763295616114025 24.3902936261196288
 10.2935171917521444  4.0142727533744713 36.4117828583928969
 22.9073882330510230 11.2461979762054654 36.3307298657586202
  1.5390575119945060  5.0386543251221587 27.8624045295452909
 14.1310078797206646 12.3062963875398808 27.8881167840917499
 17.9235345953934413  5.1751372642498676 21.8045718953251431
  5.5620957136468983 12.3650947177359587 21.8644154208144563
  9.2876003172803774  5.3788105689174275 34.0420575942131478
 21.8616726476691561 12.6154557314143165 33.9932973625896793
 23.9643470081334229  1.7587174843597466 30.0281383085957643
 11.3773263366113611  9.0202559750403388 30.0587695229787890
 15.7679987099227592  1.8039225588774019 24.3190903532478444
  3.1949133202449294  9.0660175162127601 24.3181152459038330
  6.5253279838395164  2.1945478311692814 36.2913940503670176
 19.1362639109804462  9.4682020673756462 36.3128083283248415
 -0.4930309929649184  0.2630202264852218  0.7855112650076429
 12.1120209138208157  7.5374228939535568  0.8819045477858496
 16.7946553595169412  0.0329443170536950  6.4189929640376748
  4.1557722869542415  7.2956121015360047  6.4171200649180786
  8.3260582408971544  0.1972811318829129 12.3439409831662772
 20.9526325615408204  7.4231371986503643 12.3637607865063419
 23.1169123848697282 10.9678845544553365  6.3682741664132960
 10.4715734426280402  3.7091375943667919  6.4878292269679338
 14.6733513557842326 11.0424053472276160 12.3562954872013897
  2.0255867856793626  3.8448944096294824 12.3846583648092068
  5.8649358485257830 11.1630793320962134  0.8215702614552397
 18.4323120757702306  3.8931258129515469  0.8420449974551422
  4.1814963617500851  0.0588238762219763  6.3059328091338864
 16.8246677161216809  7.3164942960808057  6.3830472625712158
 20.9445850224741754  0.1563345658373222 12.3573495233337844
  8.2899784087955126  7.4956338577521544 12.4685065345716666
 12.0587303643722912  0.2684896978810942  0.8762169925924864
 -0.4016495133483307  7.5187589288869559  0.8263384595873368
 23.0970039424988158  3.6849180949061515  6.3622884405363234
 10.4203398972901358 10.9337537570363121  6.4554816597339508
 14.6321861445748898  3.7938770689126127 12.4135624668663542
  2.0581550471975190 11.0876628153118517 12.3897703305976137
  5.8291842864017651  3.8939243450916399  0.8455657136405530
 18.4193154541768607 11.1636566102456989  0.8526038719831324
  4.0963492518146483  3.2259232874785417 18.9633140922080798
 16.6151715455061577 10.4013881758074813 18.9530110102166205
 21.0269516525664422  3.6349338360388619 30.8353744981704487
  8.4355698375978303 10.9037000402411461 30.8400974174425926
 12.6941844791703353  3.6048713070673410 24.7919277149231121
 25.2738729826924740 10.8749696699158473 24.7562042088632879
  2.1383272215448628  7.2676567823031428 30.8486403268139782
 14.7378974538001781 14.5354763244428007 30.8521554835463014
 18.9653029344920370  7.2412589751142242 24.7655113382915495
  6.4003083645821821 14.5232644796699013 24.7824208067378535
 10.3432811647932041  6.7488408111132037 18.9859643842614538
 22.9541590696486892 14.0478051615646411 18.9468227491194163
  8.4343868616369235  3.6353713056513510 30.8549984294210340
 21.0224510951022303 10.8952041214898845 30.8351673422613288
 25.2625611352618442  3.6132940619377178 24.7650066981251591
 12.6881781268339981 10.8904238087200298 24.7775770322150208
 16.6203951598695845  3.1361745307577573 18.9600955316394533
  4.0410316060715115 10.3620896628287724 18.9346958559647476
  2.1366737995708118 -0.0033111545293069 30.8014267334661227
 14.7318258546771279  7.2726053807273328 30.8472688095386687
 18.9744749763358165 14.5113293440091109 24.7718903378044466
  6.3918097036346619  7.2356246165211511 24.7770594870412282
 10.2657511509826342 14.1008582059194421 18.9865784184977073
 22.9969433186689507  6.8093929130939754 18.9372839326078939
  4.0897538727392098  0.1287551674841881  8.3746682974882987
 16.7944768183364346  7.4215847969281947  8.4332020261866543
 20.8899717986019162  0.1858360512129703 14.3893873881496770
  8.2136330064975684  7.5509851183709298 14.5180978884199057
 12.6163073281636056  0.3244525912344352  2.9284063062436165
  0.0773166924987735  7.5870119130527822  2.8776339215709918
 22.0031874446937294  1.7666814688782704 11.6095541863212368
  9.4335708429279084  9.0859666149068747 11.7664531180049163
 13.6738443830218905  0.5881940517243454 18.4645063429716352
  1.1607666727902466  7.7850940364597889 18.3287545788997548
  5.1529221711101121  1.7162884468367130  5.5530602033852290
 17.7745811541659826  8.9781692857889581  5.6000962249796764
 21.8371079403130963  5.6554664446881908 11.7280733515062057
  9.2442984343883587 12.9843321384776722 11.7155459366481249
 13.9150685941810313  6.1062193994052230 17.7614932478450882
  1.3239253076583113 13.3202631020120155 17.7809676009174957
  5.1570453297549781  5.5891262608166983  5.8186640194345207
 17.7637381042554310 12.8432524680922402  5.8833855119897960
  6.3838134769112882  0.2990660562146921 11.5960799730930315
 19.0091373279214721  7.5406286917933185 11.6372825100607677
 22.6665199614125719 -0.6927149374701476 16.9449072289869278
 10.0592708993467337  6.5726125673122002 16.9802555877212669
 14.9080313952639454 -0.0129008662682140  5.5821096580578455
  2.2767388992412103  7.2361228771609287  5.5395446234036934
  2.0839239108744620  3.6656562201713929  7.9301723710820182
 14.6464064694124332 10.9183163200629210  7.9589487840514561
 18.8260478474484394  3.8954587709024016 14.1673555078228723
  6.2651206249009501 11.2396753375919083 14.1690432453104886
 10.5478896614778392  3.7922689744690006  1.8140291284376850
 23.1493023083612748 11.0498302660735543  1.6878028002382786
 23.0240014080328592  3.7528072529755510  8.4258929012656445
 10.3319598818814384 10.9896208176400556  8.5106055868196826
 14.5722743869792275  3.8329052001871347 14.4458945650549317
  1.9856305444960947 11.1221732457347144 14.4207079177495938
  6.3744766582685930  3.9756090404961695  2.8801401480207405
 18.9426546592045497 11.2875929198013090  2.8974323367716739
  3.1207350265386964 12.7143438800833053 11.6718672325128399
 15.7278276974274931  5.3845652231162413 11.6743807279776473
 20.0040260316373377 11.4793346630291069 18.4015006371970067
  7.5213614799450221  4.1662846245452201 18.4489745245174710
 11.3959811620289102 12.6009969377553670  5.7039435855216283
 24.0481810215515530  5.3554359148259127  5.6109715203612778
  2.9554513221656595  2.0891262983226397 11.7750506560038826
 15.5742465068373761  9.2935037040434452 11.7001641661749041
 20.1659503547056964  2.4007111991160435 17.7386050569199796
  7.6209170749296229  9.7118540910142226 17.7879592897593319
 11.4641471805107269  1.9924977649178965  5.9254215581436878
 24.0973083945442390  9.2483275675104757  5.8126361905098856
  0.0876474494049477  3.9299455156974483 11.6345324498814726
 12.7255205909228089 11.1709975378308339 11.6367420519882998
 16.2978883046889393  2.9633282420800175 16.9589258581879037
  3.8161865363409846 10.1783521036211901 16.9239607903938918
  8.5941834516374911  3.6952596918130842  5.6453394240349972
 21.2217488246583343 10.9077913515169271  5.5472876077154485
 -0.0647887147300694  0.2940281029446123 14.1531649932049959
 12.5531961950237143  7.5822386460790483 14.2033903483191786
 16.8310997943762679  0.1554387358411308  1.7745132132342609
  4.2639841827727887  7.4286747170020835  1.7333914350860866
  8.3496539949834148  0.0440325605467250  7.9276807845796302
 21.0042871918469949  7.3149708952188828  7.9156632934661015
 25.2009194856934293  0.3779423699635716  2.8308873517265511
 12.6591589122827131  7.5856646002027288  2.9260813729171504
 16.7013074793503478  0.1395215878931841  8.4771963529368080
  4.1429523267080146  7.3885484198950184  8.4400286437297414
  8.2403453271977884  0.2321739993664353 14.3749208040650043
 20.9147297188369414  7.4542880916588219 14.3965018337630877
 22.0125597099001062  9.0292174225927013 11.6080628708605200
  9.3724685928518721  1.8176102738464528 11.6098941893990784
 13.7258490907979720  7.8857190459452449 18.5329518055401010
  1.1664464363559393  0.5997269404383401 18.4615453262611524
  5.1239056632923949  8.9445055848741681  5.6082432815620376
 17.7527908958070988  1.6962302566574139  5.6529515969200448
 21.8417252837917530 12.9352525423415194 11.7209239986171028
  9.2416475257224437  5.7290124693593754 11.8911944348442624
 13.7645055822159303 13.3807546360469605 17.6110773783855450
  1.2719169371081609  5.8902512483973615 17.8930959308004169
  5.1524977176006210 12.8949858611025352  5.7067714471404045
 17.7972755637778057  5.5979941332043950  5.7979057909609928
  2.2811147151462503  0.0323721120854647  5.5098066388657170
 14.9238781037906474  7.2639712624332367  5.5729963969178540
 18.9984003664152468  0.2742436758706671 11.6324576166691962
  6.4484782808631813  7.6053767976963291 11.6048631553361723
  9.8819699878008080 -0.5867947111900899 16.9920426247906491
 22.7822200505061403  6.5559956241530051 16.9361347846139516
  2.1035322691133409 10.9432731925395892  7.9108763981705019
 14.6615246825200298  3.6870663774161541  7.9760173899969837
 18.8439201373323151 11.1764656039288024 14.1590354798213180
  6.2080384604668222  3.9604216079108401 14.1873257013133394
 10.5350330400527579 11.0498446588254762  1.8022214390513760
 23.1298757774539254  3.8085314668112868  1.7000409419516547
 23.0489525477021715 11.0602610198775260  8.4290183874494602
 10.3723292081193268  3.8017050277212738  8.5404647875421755
 14.6279036905286262 11.0744445008562558 14.3879360559802354
  1.9275830235985503  3.8821369792345939 14.4204370702838141
  6.3525244371381246 11.2111053351901813  2.8713616324797311
 18.9600238111832979  3.9567080096037115  2.8860589972357920
 24.0739891254069960 12.6174656332548754  5.5883308878537559
 11.4840516909114836  5.3536060220689201  5.7184192048493303
 15.7307107066172875 12.6683769114961642 11.6349495316662743
  3.0900079916803707  5.4397902768866890 11.6292068753352744
  7.4239229409514955 11.4987310384300780 18.5340224849310751
 20.0099013283063982  4.2214692813983605 18.4134885166278259
 24.0836737692704972  1.9869629231407377  5.7741923534763870
 11.4530607182845259  9.2442582619464986  5.8528394773981640
 15.5094328130974635  2.0195282577333242 11.7872367044591879
  2.9915138691111771  9.3525567715046201 11.7486196027526439
  7.5896507972330403  2.3720546528604376 17.6992867091387183
 20.1721033460550707  9.6418606160822105 17.7755709046279406
  0.1204383135295630 11.1972462622054021 11.6418653409554143
 12.6904801984776121  3.9354777684686977 11.6841724576150927
 16.3257788774177328 10.2225149572587917 16.9434934701147348
  3.6740326933753993  3.0523733339075663 16.9847963031598397
  8.5377537362770788 10.8503158627131864  5.6416669996233448
 21.2042351284908719  3.6391969386379674  5.5382167406477576
 20.9537128761067528  0.0473037322325922  7.9148701261089576
  8.3508847846974739  7.3082277073325583  7.9407328829607113
 12.4839399057793816  0.2835053469720844 14.1918642712765593
 25.1349936949297330  7.5664989967177059 14.1186134592252088
  4.2064552077046171  0.1502059415959419  1.6188872421584912
 16.8445857243303330  7.4269638992641012  1.6847035449649248
  8.5776425343728384  3.6284437426794889 28.7909209388267975
 21.1526192920591214 10.8850874190989444 28.7705393077139995
 25.4188083406752945  3.5530370648636933 22.7202632504550266
 12.8701075535061946 10.8403339336770763 22.7359108199920712
 17.0261477086911874  3.3595450120830765 35.1243778104415298
  4.4228796845207876 10.6469756465595573 35.1213462305648392
  1.0547091501737693  1.9897826631858735 25.5984955099570293
 13.6480985250102478  9.2593435110332134 25.6173625155149089
 17.2888912766740965  1.4632692594511245 19.8477807240545943
  4.7264441685581193  8.7045183433862565 19.8408061743351603
  9.3574615246633872  1.9565505859285015 31.6329852200422685
 21.9548378824349157  9.2206809694524843 31.6134888267399923
  1.0217403333756119 12.5842747565669910 25.4473566363230752
 13.6154524444901028  5.3139824812358576 25.5066547031236937
 18.0624467908754909 12.0139432233328947 19.2191384313008378
  5.5785843844455876  4.7945291283411438 19.1911181890813189
  9.3677860965443625 12.5890108375269989 31.5804571641078375
 21.9612072621045051  5.3178453615888586 31.5819728025742883
 10.7058668273615414  3.5361642584625845 25.3553941394059308
 23.2841993236753311 10.8205053858766753 25.3312152994832935
  2.6301792413064331  4.1786456747078784 19.9738570863826261
 15.0614116177107675 11.2778843800562285 19.8585876439023927
 19.0210570334513740  3.6467317763462304 31.3428099343388311
  6.4255019369780584 10.9215437732245917 31.3386415607346933
  6.3252284290031735  0.0285129236816700 29.2026823720148272
 18.9029370733320938  7.2951711260692660 29.2076324694941754
 23.2348500007261798 14.4685190240833013 23.2085968934423086
 10.6675609017567101  7.1773197589760942 23.2197161375318721
 14.6205269308003292 14.3468464844570835 35.2482714006234303
  2.0276015706329642  7.0716629974615293 35.2054159249245586
  2.2818527857506994 14.5280699547351162 28.7388485749550888