Cl48Li287P48S240 E=-2517.999595 eV
 1.0000000000000000
    25.1819793006824639    0.0000000000000000    0.0000000000000015
    -0.0000000000000009   14.5388225279766061    0.0000000000000009
     0.0000000000000000    0.0000000000000000   37.2126966544236950
 Li  P   S   Cl 
 287  48 240  48
Cartesian
  0.9965027658401507  1.6541415103699906  6.9969093768424981
 13.5475834972671816  9.0772151131038932  6.9764618419539977
 18.0121432787503579  1.6865526126736807 13.0958388630819549
  5.4454088436467254  9.1247335968693104 12.8122515999012254
  8.5391393538105529  2.7616890470024287  1.7075479723420939
 21.0396435328700520  9.2894602262286714  0.9972357477939721
  0.3344761631593070  3.5568872712961910  9.3931502675387364
 12.7450456536099619 10.2731467608672418  9.3803565004222023
 16.9039193469905733  2.5004549724990577 15.4416076171380343
  4.2722550954758702  9.7938784526988591 15.2803662729837022
  8.7096845504500457  4.7619001294320737  3.5481175046178763
 21.2039082234214931 10.9586983958484065  3.4380403570878637
  3.1802404959033526  5.2676532953440809  9.3148838690911138
 15.4941541165063033 12.6255916129747128  9.4152545151330571
 18.9818552971321459  5.9639695895792189 15.3952696565915730
  6.5413284808605345 13.0982446770032404 15.2687442130958360
 11.9930818002024964  4.8908518425897665  3.8314084086381603
 24.1862507261620578 12.3441716682715121  3.1892146616760231
  4.3749470960772792  3.6762834213957549  6.9909059271355929
 16.9189799715189899 10.8972158817850229  7.0758203521428467
 20.8082462245488777  3.7977904574333179 12.8791056046327661
  8.3983239360929680 11.1107708717586799 12.9417054501157107
 12.7022684662407599  4.2716773640785455  1.1076633243087415
 25.7135348722426684 10.1311691528677947  0.7968149439059042
  3.2748432843806348  2.0301411510309006  9.2873254812299759
 15.9326142162719115  9.4499430931914450  9.3873588878849397
 20.8958806875719354  2.4886154597380958 15.3684626126543673
  8.1793941021431475  9.7617182462902363 15.3633860132400830
 10.9942615549442699  1.8430757653662071  3.2830851887971293
 23.8746995360014473  9.0079141447636975  3.3099060159401814
  0.9858085576037869  5.5857792706059772  7.0480368850918049
 13.3358158380273206 12.7587076669038311  7.1435264967811412
 17.7610534344774855  5.2202962422313499 12.9132345895294609
  5.1057514507350064 12.6023797932750146 12.9023486286015885
 10.6819805534234895  6.2453997108806796  1.8100275935139094
 21.8140716208681056 12.6322516361983510  0.9490445079596883
 24.3613928167341918 12.7803139290679546 12.9286319043371449
 11.6328346436947534  5.2445879409068219 13.0434429948295545
 14.6067597177004362 13.2934807641705213  2.0322298983106410
  2.1822777044443704  6.1229594373708247  1.5559881400250888
  7.3574278968426130 12.5474953069578934  6.9239758835133696
 19.8629722946655392  5.3519174758545924  7.1793432807264752
 23.1862348690170137 -1.1289222862503345 15.3772993188252425
 10.6274445477070518  6.0732604076282630 15.4654050659581479
 14.9688076366855380  1.0896580575083363  3.4535401006633277
  2.5446726927209258  8.2264028417530959  3.4152895920427433
  6.5391494782411526 -0.4535738549393115  9.2857431759149254
 19.1058999611254059  7.4619984356899991  9.4525426926099225
  0.0483986463431887  2.3321076288108435 15.3897099448331200
 13.5032149571722471  9.0120891212921084 15.1570939480703917
 18.2275452983776134  1.2464938926542775  3.6002696451300804
  5.6430369561606124  8.7469515961677509  3.2565523392836275
  9.2480162772799375  1.6148244509131722  9.3379221646735537
 22.0701621934420125  8.8466538263165528  9.3877399996286286
  2.0743439553052183  0.2485613573259020 13.0367165387986823
 14.2769434357633536  7.3108760744557175 12.4661280225380846
 18.8856682914686047 -1.2422457751101261  1.9338382887182610
  6.9250427187623025  7.4641304249908931  0.4712311069745382
 10.4952340899092071  0.0633250128836425  6.7836116421569468
 23.2436099691283680  7.1752332361468723  7.1168598848662645
  1.9487936536706738 13.3588807123139528 15.3582125499342617
 14.7080031517050287  6.0388852626739462 15.1601217808842392
 16.9760235671126871 12.4895662066302808  3.6789587095923801
  4.9825881034569690  5.5288119596613141  3.3237328281507881
  9.9721512826411782 13.2434733392902757  9.1951197238238329
 21.5309723884393378  5.2879209153631210  9.3903116776736670
 23.9350115106064898  1.7493305798625371 13.0845564814076525
 11.3291567092865257  9.0265392344821720 13.2172124358832530
 17.0173974835497610  1.8989687965443667  0.8714946853123645
  3.7255322223690759  9.1807561112759828  0.8985256549737483
  7.2363276767533300  1.9919581968410696  7.1086143188922764
 19.8127564253180353  9.1599406701350929  7.0933842246168375
  0.9735405492479903  8.9187896363288885  7.0247262843910390
 13.4315374302921491  1.5244325870743265  7.1833080533249083
 17.9395726034609702  8.9156834098557134 13.2448031227771015
  5.4048731809316894  1.8000372769464503 12.8495454880647308
 10.4258377949617742  8.6745298831632542  0.6328435738015954
 20.7418307068674750  2.1477638709898557  1.4560731923654850
  0.2272057760957533 10.9391108182075669  9.2983218039883795
 12.7918359956512742  3.4987573849212650  9.5143031041909722
 17.1294460062678304  9.8003313528227611 15.8456034598157842
  4.3016838519928609  2.4784861621652476 15.3195486428211840
  8.7528206011461034 10.5253976952076318  2.9999838733810744
 21.3706051704679432  3.3147490146373544  3.7103385912319515
  3.0403851158436397 12.5305255032740686  9.2991838582028858
 18.8996963313360560 13.2084911741767925 15.4182119019641171
  6.7590715979649536  5.7309643094605525 15.2980145073366227
 11.2900038806793557 12.6420841471013929  3.1227461779509555
 24.2698653904115638  5.0902905682600341  3.2270300919321100
  4.3501596893180752 10.9556560844591004  6.9182620619818618
 16.4834171770786604  3.6365391800738731  6.8727807347967316
 20.8621994075975827 11.0397186879613596 12.9719874029438014
  8.0895068021598817  3.7813062877148851 12.6321965007802248
 12.8814522304945314 11.4623599390042425  0.7147746153580162
 25.6228058006008723  2.8546750180526930  0.3061446570978600
  3.0724275137351111  9.2725043194435628  9.2637444797129227
 15.8037394716743638  2.1775225776881357  9.5273718148809028
 21.0111275514561449  9.7666575473462611 15.4656278790738302
  8.3114936881058430  2.5084655562920939 15.2868727969922240
 11.9973332855882528  9.4490350943260157  3.1529825271136720
 23.9622345001177450  1.8302834751925496  3.1204109989329476
  0.9703948413184982 12.8445387198660121  6.9246721971688459
 13.7553553571387202  5.4235739408837729  7.2775109092459545
 17.6966324866802438 12.4663029308805609 13.0717256482024666
  5.0376524807966687  5.4130950073690354 13.0715500146468226
  9.6973902806689534 13.3772009945269854  0.4225452790438720
 20.8205260843573114  4.9383463220655015  1.6653271433591630
 19.9308044113162737 12.5400158147061553  7.1758005572671291
  7.2238045554446613  5.3822747951042240  7.1621064780546506
 11.6244655464687678 12.6144881106089493 13.0153494310555384
 24.3528863898002896  5.4646640034943346 12.8447670446600810
  3.2766738802149131 11.6960005401750706 -0.0474596207659355
 15.5899225062278504  5.0877448521865176  1.0104390406768389
 19.1086144796041104 -0.2664523355092002  9.4556678867661095
  6.5689783523364529  7.5596544382167696  9.4005669928383266
 10.4383545518248511 -1.1835469979728779 15.4439401715387969
 23.1833659892016435  6.2407000200666198 15.2854940695582542
  2.5201541235409484  0.1559893617893043  3.1441056661620848
 14.8936306822436926  6.5818694936257414  3.7350405132017008
 21.5090629270263491  1.9819870093306653  9.3779491562753989
  9.8580495461276829  8.7203044093668982  9.3164909207240925
 12.6061318386135159  2.2607979500910509 15.3945975986730232
 -0.1022860827066659  9.5289084138813198 15.3340994402304069
  5.7782203371263883  1.5153260613395223  3.4609606161500501
 17.7974485687284485  8.6580933522654409  3.2365529086041569
 23.2207031736803842  0.0518805427528149  7.0318461586976406
 10.5673297172357543  7.4598988900238528  6.9539602187123126
 14.6704986892204357  0.1018708447413573 13.1211859717161747
  2.1506402409126406  7.5024227025998274 13.0166248365569910
  6.7179970725065639  0.7224666288006096  0.7911124637648687
 18.3770830517564505  6.2770293596215412  0.7176306187221346
 22.2790086982767974 13.1062722842099095  9.4285460883113696
  9.3115815495201453  5.6276171850423466  9.3346491887035938
 14.0907904147861149 13.0634931202686708 15.4662396961521313
  1.9447200556344111  6.1011733535057999 15.3384493487255931
  5.1725135181754496 12.8260167657586361  3.0817776243762012
 17.9003670244536899  5.3811466158003336  3.5626628225213537
 19.8645754983070084  1.9055968183474561  7.1605544783658441
  7.3297597056184545  9.3054966301789328  7.0264247810254163
 11.4497248954901387  1.5316529725581407 12.9160016447191293
 24.1358374974547942  8.8216846478480004 12.7206590035816181
  3.8765324392773564  2.4975047317346184  1.3807598015783711
 14.6971150018409826  8.3047491646023932  1.5416613655419644
  9.3441720889671540 12.8920708782533691 30.1233704270089575
 21.9451907295349677  5.5759251775619125 30.1070855568091424
  1.0980145570511253 12.3495751173865767 24.5119157466177313
 13.4331605217788486  5.3517627804367978 24.2222629605955717
 17.8803200235057815 12.7063884769374074 36.4506684893626485
  4.3019539481401088  4.6001035983239058 36.2982342008615362
  8.5560571251830613 11.1180614897773431 27.8478415734896529
 21.2162030516369668  3.7167120865960364 27.7705799520760692
  0.1714509379816787  9.7640626320596606 21.8282092805765124
 12.7156756891948497  2.5734156025949524 21.8299805476041087
 16.4076736104135286 10.8482243350871776 34.1476189382083390
  4.0569484707027845  3.9034376268581363 33.7423403837859937
 11.3833643949485239  9.3641311383481565 27.7695063791025589
 24.2031301210851559  2.0252650637771685 27.8389896490186075
  4.0407406355626891  9.7568266190936530 21.7867877637647247
 16.7295159605821446  2.6674363505183956 21.9509456068170437
 19.6357522222378265  9.3080303731649945 33.6329293338240163
  7.5331770608854152  1.7381560698002880 34.1426756971110237
 12.7801587521476510 10.9619941592462240 29.9702224208491579
 25.3195233557528709  3.6761180996709584 30.1470142960109015
  4.2461266641006574 11.0182491878516995 24.1855016302140449
 16.4523763586041198  3.7896829162786867 24.5432462180665674
 21.0127443632969779 10.4655092343761407 35.4997198299067591
  8.1279335223134890  3.9686754558179591 36.1615353736724643
 11.4064600834792937 12.6894010715488523 27.8227705833841306
 24.0603022885062678  5.3041209695522697 27.8374718459108266
  1.9853792922832194 13.0832573143722541 21.8844235910797167
 14.6049017984795917  5.9025062793772349 21.8229841185911617
 19.7295499347752177 13.1308110725757956 33.9325002079320512
  6.6859396665906203  5.8481744054702620 34.1539928859950734
  9.3392250785899833  8.9435691509399113 30.0100959451216909
 21.9797235548730896  1.6165306381969180 29.9620681469827836
  1.2447960583996422  8.8989730706530015 24.1611193603717318
 13.7437397803722057  1.7942488171703463 24.2345418018858147
 18.8245905346305165  8.9655427655691202 36.1930310228923204
  4.4377025806357677  1.8396658952660327 35.5083966612619051
  7.2761098007536207  1.8355702529074094 24.2359429024741893
 19.8138494997616448  8.9922660118617923 24.3208795754721265
 23.2607247281764664  1.2766656818274154 35.9524199700497320
 12.7392662403363115  9.1148289087028136 36.0718315718605993
 15.6290281229580863  1.9692543319308777 30.1320900622648224
  3.0797004924312139  9.2159549985141354 30.2449017203534112
  6.5437270465495248 -1.1585046678261635 21.9244636491316989
 19.6949010627453518  5.8325475179970434 21.5547116170349184
 23.0052477043186698 -0.3050270418445690 33.7652617861747615
 10.3418480306713878  7.8583191945270885 34.2356460919589907
 14.8877824718455578  0.2028920799047756 27.7653315278612816
  2.3028446973850114  7.3569316051304492 27.9048821054605547
 10.2534638484059215 13.5699903374430040 21.8435304310006124
 22.9195013254123126  6.2018361375334141 21.9751835948502148
  1.3901518985784311 12.7805219625220552 34.0893599225460804
 13.8433986486542739  5.5674723185483135 33.5093950522572115
 17.6726412840455680 12.9766008148082932 27.7534472043799880
  5.1680007275207087  5.6091635726677653 27.9176462776870835
 10.5399429582861845  0.2636082176739488 24.2176639640815772
 22.9649042398726770  7.4509483901967863 24.4381977792731782
  1.7396365006440511  0.7164191200599174 36.1935035796480022
 14.5471118855894286  6.5372072608657152 35.8692344382315014
 19.0473297646105912 -0.0286581561276845 30.0245305600300263
  6.4312329332343428  7.2102822025184921 30.1879730849580845
  7.6636085740378226  1.7291297976532878 21.3788463986141295
 20.8940203050650055  9.4244046042192036 21.8015141888274684
  1.0151535959171798  1.8326281369546851 33.8285098630375103
 13.3162380761293395  9.2730110769810654 33.5583639696066456
 17.6684612154929361  1.8109291204607827 27.8707062500801790
  5.1549984987222173  8.9185441428265779 27.8983889422599951
  7.6015820330892758 12.9160233096495372 24.5399948555529299
 20.0636318549270101  5.5053271372329480 24.3691655684167472
 24.4574513844402155 12.8947360576288261 36.2734857925305363
 11.6593816466376783  5.4999169879233465 35.8746530256791303
 15.6823874344722700 12.6124469351773403 30.0354929084165505
  2.9872746150837282  5.3370400550415606 30.1428360637418074
  9.3119143214627975  5.5868145268839058 30.2663854620760482
 21.9473580561026367 12.8261579775368606 30.1357927289564316
  1.0161146706641107  5.2927087833443700 24.3344813918725293
 13.5717521013728515 12.7779612612528961 24.0394724985689052
 17.2193637000828907  4.7701185133416075 35.7897025618600111
  5.8052165023599329 12.7377517667046991 36.1483018953214952
  8.5799101767218744  3.7969981780889679 27.8480897976205064
 21.1574609070156114 11.0039446033630082 27.8574735460453944
  0.2336643852790875  2.4427222323106683 21.8583195929360592
 12.7170794291924700  9.7389527205048996 22.0378506305730575
 16.8547115000041501  3.3560883427041208 33.7248640130005199
  4.1173683799233274 10.9194294185925838 34.0695958244267203
 11.2351344698549180  2.0120232739097350 27.8035392935495160
 24.0973979461097869  9.2618255963685296 27.8651489167119308
  4.0340677874565491  2.4919406047034265 21.8254436309258431
 16.4181420160269624  9.6269393483165047 21.9153731614981773
 20.3990183269574423  2.2181876914278886 33.5410579848985080
  7.7485973754843167  9.3466549179703851 33.7217340428766121
 12.7535865550811458  3.5672005577956987 29.9943450280466166
 25.3428618738210858 10.9101423845369521 30.1802763383092660
  4.2536068150306807  3.8200680250778385 24.1803876006231313
 16.8177778779123841 11.1656701076379115 24.1980873774688128
 20.9779619437546145  3.6783223025198586 36.1291863168683847
  7.9894659870603482  9.8679787758342954 36.2377484656288686
 11.2733122587103374  5.3438573710491042 27.8344074199440499
 23.9765666315195034 12.5743076235954430 27.8404206716128506
  2.0850461505202671  5.8320697472222633 21.8417986484291653
 14.5076383211253717 12.3116483953079392 21.1787299209635975
 19.6324305380402251  5.9889287481794664 34.1510937222661894
  7.7757229418936529 12.6291077480618377 33.9337629606714088
  9.2606497150408398  1.7506582183925037 30.1491079560732373
 21.9654484539689001  8.9226033884310976 30.0638234034986915
  1.2844209536527262  1.8530312198035566 24.3688728296175725
 13.9286177236441091  9.3233563501368870 24.6351948426192244
 19.0688707712327989  1.5497286633241196 35.8546854090743849
  5.7039483732254403  8.6726570253446980 35.5058529973240127
  3.0236308411964203  1.9540484222290699 30.0617181709469534
 15.7123426083595756  9.2993830317433783 30.0289200177932436
 19.8402228162554017  1.6702524582459077 24.2734328421907151
  7.3151038803959247  9.1320703235133109 24.2492418380359531
 10.7467502027971396  1.0528932332614127 36.1809543489096654
 23.6412044480129993  8.9212784345852274 36.3111723067026233
  2.3409818610983586 -0.0351443752552349 27.8287863053969211
 14.8110530972288625  7.3490770754086414 27.7902915221510156
 19.0442844870963341 -1.1128356307152372 21.8686875997758960
  6.5316731971672501  6.0473141120133551 21.9816649641087523
 10.5154531031548313  0.0292823572341655 33.7427804973032508
 22.8547880805089214  7.4733129062747983 33.8834298679783146
  5.2148077224419529 12.9468153958407264 27.8550953964038932
 17.6828177492763636  5.7074301373197329 27.7314820787818412
 22.9686814834535014 13.5125314121690128 21.8371062657421326
 10.2584869378167056  6.2567381730560845 21.8382851336162318
 13.8965386104337085 13.0293469488830151 33.6553001131101297
  0.7978626493609325  5.3917715435773799 34.0900267272063786
  6.4380670350667053  0.0238185627462560 30.2198232119196888
 19.0453607428071123  7.2408255972155757 30.0050246229683886
 22.9979090230623378  0.1462530124660640 24.3416897140530999
 10.4333166605737766  7.5050879362116829 24.2963826014657798
 14.3905837531983813 -0.6394575139271096 36.3003949295214312
  2.0104871622792531  8.0556505772500202 35.7942136052995181
  5.2586968372438410  1.6198919616938305 27.8669044612158459
 17.6868545319053538  8.9984131903905400 27.7648949761702006
 20.9680011640334953  2.2252301685906919 21.8393966719336277
  7.5762495133790972  8.9402973365232743 21.3794975981060915
 13.6309452014287231  2.1484741208688840 34.3427755878849368
  0.5211070782746172  9.3894171707380316 33.9780078084444881
  3.0872814309556689 12.5583145435459471 30.1481730343557608
 15.6588739894615294  5.3156836231395710 29.9684151470591758
 20.1380456712079692 12.6511480976454802 24.2274979858920325
  7.6157772904137087  5.6866203192786351 24.6288220845105350
 11.9018568291786817 12.1189374382548216 35.1474892968285886
 24.0387188872195239  5.7960641253872014 36.5553881005208936
 -0.2412389645227313  0.2868749740546884  0.6269422163429857
 12.6954498628397126  7.0589357287851824  0.5025634982620755
 16.7385275951898365  0.0217906476366167  6.5658675774523525
  4.2541714058474360  7.3079462159107997  6.3652794664178973
  8.4059239198127536  0.0096622350675356 12.4044447780567264
 20.9904614288625453  7.2775185194104042 12.5178706288025499
 23.0716383378940506 10.8847051771091277  6.4049381289798921
 10.5119835340625425  3.7041477400060421  6.5423398842813114
 14.7164859579989766 10.8494052889610852 12.4915695737038046
  2.1121080414489826  3.6486324353197928 12.4589536790022493
  5.7823214632968023 10.5764535140097689  0.3907087485156392
 18.9264507121705066  3.6237688929017988  0.4569369404530899
  4.2369743266837201 -0.0126305858507899  6.3221485114221077
 16.7888908515634121  7.2745671333686976  6.6036018634694535
 20.9814601885007797 -0.0130494678963280 12.5448118206640800
  8.4428065516007074  7.2755956801014090 12.4546327363076497
 12.3942832451678200 -0.4788145409663647  0.7303180714520116
  0.3113216454523379  7.6019390037268941  0.6039500997793118
 23.1496217575794958  3.6250543299414839  6.4579574656944638
 10.4836156441143249 10.9391213002816308  6.2413410897964878
 14.7235276515212234  3.5947219427885040 12.5955587370098456
  2.0873768894815692 10.9358934565028214 12.4354216508141722
  6.2560347978928608  3.3083413900672598  0.6493493665288397
 19.3432077079979834 11.1728875589033247  0.6409073880441418
  8.1570537599766890  0.0046057736349455 18.6031599911133831
 21.3111798611366723  7.0792382481756286 18.6172881106767001
 25.2109639056263788 -0.0285937107532466 30.8244101844008753
 12.5168330739714939  7.3247372474042569 30.6610250756667035
 16.8459128386479158  0.0922480085750960 24.6573514585967075
  4.2205320314797916  7.2646372229610261 24.7659395723671416
  6.2839506586802463  3.6380676988966263 30.9183193244514740
 18.8137252826678498 10.9672773688054939 30.7954992292541689
 23.1202189409016299  3.6328008440534396 24.6819652841690029
 10.5518003685561670 11.0278815509093988 24.6977955255688926
 14.6854166767249783  3.8065237425857430 18.5854247742517629
  2.0612843203614437 10.8529645812339055 18.5611923564291637
 12.6072454281634734  0.1057124911817058 30.7684267977058212
 25.1492972633438221  7.2685266784950331 30.9240525462635780
  4.1989320474657834 -0.0056125802287587 24.7107234545309140
 16.7345123105343525  7.2663210583398294 24.6303784565815853
 20.9244625566555165  0.0006143587528123 18.6093777223545374
  8.0415466586141751  7.2153627527504733 18.6255157111436631
  6.3029603628768029 10.9308182446157183 30.8698627212634058
 18.9003897914317420  3.7341480358172396 30.7118973030632034
 23.1210366302446637 10.8920380794258591 24.6964350551071341
 10.4914033598579675  3.7315051505380459 24.6854567189660479
 13.9336420812207606 10.4020842571163215 18.6322237223087619
  2.1254465663190905  3.5818786922346351 18.5834361059781443
  4.2324327986331669 -0.0656145249443855  8.4086961933188142
 16.8263836512838409  7.3376218374865232  8.6338165780816443
 20.9955510833166841  0.0084612683476778 14.6040282135029056
  8.4889067434668739  7.2977081447852612 14.5096829718644198
 12.7148109679310402  0.0634549251592057  2.7822939198667727
  0.2533246922387590  7.2734685801521337  2.7526628143856411
 21.8258647935107462  1.7294425445811807 11.8278069820448710
  9.3206074140890589  8.9922796645151593 11.7337628398262304
 13.3973994778082020  2.2190418435034758 17.8006652388126945
  0.7480042498624316  9.3035603076326776 17.6996521689484609
  5.1964583895742669  1.7143216842340168  5.7320934194339426
 17.7120591139957426  8.8866953639565889  5.7023349077701324
 22.0487409327450727  5.6459094608385074 11.8070311016998843
  9.4892499279116524 12.9625444252916981 11.6586639216036723
 14.0010221976688101  5.6509203832891179 17.6435084112878187
  1.3665607789086733 12.7877939853374230 17.7431034476670106
  5.2370417760957633  5.6251125969886502  5.7019669305868979
 17.7922451777879580 12.9256879538454488  5.8797634138244579
  6.4552593682107373 -0.1078931990169660 11.7110418462624448
 19.0403285557820077  7.1652769973188075 11.8505769509881596
 22.9421365258605512 -0.3612921312685705 17.7655228176075823
 10.0969386199962248  6.8649610193845154 17.7649928379450337
 14.8325422575724382 -0.0440529653541698  5.8017724117328466
  2.3246462364051048  7.2809637472244502  5.6735584105335528
  2.1682914899888126  3.6239978597432860  7.9696021819893783
 14.6570365457827840 10.9230747269450994  8.0626528731933504
 18.8988629484071318  3.6219791826898833 14.3155265587161171
  6.2627776093786869 10.9015929981690913 14.1637844691364130
 10.5687402850318879  3.9460315178485974  2.2167409420368722
 23.0037723867153510 10.6959625993032983  1.8328834160606773
 23.2745994321816667  3.6123712587980812  8.5198409644370052
 10.4411059817399199 10.9739588521732561  8.3061829288262494
 14.7065452564861356  3.5551994926239106 14.6629741201306096
  2.0708607921577786 10.8991980478812547 14.4926075751146755
  6.5654548240471646  3.7751471841959088  2.7633983571028620
 18.8359694940688769 10.9057123247316401  2.7296849301077954
  2.9291549258060123 12.6932310382480971 11.7478801198924536
 15.5652761176160102  5.2947697346509832 11.8574436979065503
 19.6096428185850762 12.9483862918315857 17.8156356423372628
  6.9605820968943188  5.7135912521479089 17.6262585784949373
 11.4302687212838254 12.6280290080876476  5.5271836681034445
 24.0728075742728471  5.2963316501290958  5.6858976527122325
  3.1687030478882541  2.0233306590163118 11.7355558369703630
 15.7596213619252872  9.2059003768256247 11.8039086689170016
 20.2387550702476169  1.9329534218121571 17.7465937941762277
  7.5521843447441634  9.1523279336120584 17.6876022638905788
 11.4745305256853580  2.0860891536624275  5.6944520275338792
 24.0123976890568791  9.1885164722942125  5.7253528947605350
  0.1617672049607599  3.4984375964882557 11.7979924956729167
 12.7501639024675946 10.7090285004004819 11.8633854411578934
 16.7007756785639891  3.4008676497121346 17.7775060789072050
  4.0700569633389474 10.5199140813106240 17.7249313256539054
  8.6031452836569997  3.7920577371920055  5.7966728257354667
 21.1033855537527018 10.8559385954988379  5.7913616939191686
  0.0048845295506337  0.0371633646396946 14.3172525300472646
 12.6138736271368881  7.0940373842782511 14.1595845891282899
 16.7743990962521217 -0.1274835415181203  2.2572005730815832
  4.3356920092782936  7.2492366821721745  1.9495102064622363
  8.3824467612433953 -0.0018283332815336  7.9140596486099559
 20.9923242792445350  7.2552481986951429  8.0796794105496623
 25.3377076550425571 -0.1389273397857297  2.6786338470931454
 12.7491491958224969  7.0768532046372687  2.7839021327935685
 16.7614968083666689  0.0337315192352131  8.6428837818772362
  4.2816553994378133  7.3124645906530388  8.4528597903829006
  8.3900190372100436  0.0238263980646187 14.4566871164713611
 21.0253987670764921  7.2989058050191122 14.5676857698203026
 21.8672421121091318  9.0191123385600758 11.8052664634443634
  9.2775845243962198  1.7702256630910724 11.7404235629195721
 13.1323448041733108  9.0166444193872852 17.4616432601439477
  0.7969843530920485  2.0207594489457814 17.7504459340328786
  5.2102508358187531  8.9782470624397064  5.6376739956444588
 17.6973108843950762  1.7359746253189201  5.8991496831859145
 22.0708373259653250 12.9039482353574009 11.8569738449972917
  9.4578968256504670  5.6105535389607306 11.7528327405488806
 14.8116433135101513 12.2109747510755753 17.6662698741265523
  1.4155600999884037  5.4896332043836606 17.7477078499208609
  5.2229098854150386 12.8917071049776677  5.5633689209782506
 17.7181116031836687  5.5253161918590630  5.9650310046753461
  2.3136182907175127  0.0114240074933521  5.6031250967609889
 14.8084528308006629  7.2006644516695930  5.9895841535445298
 19.0371610952816148 -0.1897809242463848 11.8701536159880980
  6.4762415943662637  7.1527486534709466 11.7954749747112864
 10.2921882057769896 -0.3304377596032770 17.7506248052643762
 23.1204730551702582  6.9616423749877070 17.5447282838536900
  2.1039393145809071 10.9034555626245684  7.9068227239526188
 14.5391892691202251  3.3961787100364691  8.0512675847685458
 18.9268230183602952 10.8753467794233263 14.3902365882822938
  6.2825385776171592  3.6122434391751432 14.1682754991637587
 10.6822102853011227 10.8836935267965522  1.6009294622336270
 22.8446808448030758  3.5875754152940020  1.9461243061276285
 23.1016613125998909 10.9283941366418684  8.4893192869918668
 10.4652176891374289  3.5752298831646550  8.6119079310590489
 14.8257114328493813 10.8881311178722768 14.5420897208613606
  2.1407033462908069  3.6486962586075258 14.5215023971781783
  6.4069691353981559 10.8738001289481048  2.4318375626794047
 19.0986007509714568  3.4127144284074391  2.7885648845018358
 23.9856028519664584 12.5501892976213050  5.6269573026569670
 11.5650065249223886  5.4125311752758956  6.0578490168731305
 15.5761934344168296 12.6053735992743690 11.8143652556255621
  2.9595959325569203  5.3912121008660705 11.7452712913523758
  7.1377949176642694 13.0307901640013739 17.5431137860246125
 19.8442392133777581  5.6963811909877027 17.7121617445422395
 24.0365727351045244  1.9534544463243106  5.6364292890880181
 11.5070058640681712  9.2844710636907219  5.5472740831648064
 15.7805440645393045  1.9464858032666965 11.9160788997788316
  3.1676158014120954  9.3298658288441523 11.7024395135550865
  7.6880061392933516  1.9357607916387298 17.6533817292238169
 20.5640196568187825  9.0533642502067391 17.8206581543424214
  0.1395781836291348 10.8241736722060296 11.7383349019442349
 12.7653946968376868  3.4208656804757549 11.9136323069552397
 17.2806279178603397 10.2360237960054246 18.1849353376666478
  4.1272661414305984  3.2349384670633219 17.7357739956812601
  8.5679885337944768 10.8772747587565455  5.4829221881579020
 21.1549373134044316  3.6516750162596283  5.9393064222673342
 20.9964554145766122 -0.0080195039595396  8.0885383407473732
  8.4078623892245670  7.3317521581646847  8.0004538897355619
 12.5332223992715601 -0.0889172483322255 14.3243849368617937
 25.2090161943095303  7.2697261434838767 14.1812696570306649
  4.5881905347535303  0.2646201981966326  1.8538375251804391
 16.5754876837653384  6.8661629236457529  2.1984506832189612
 12.5967058933303733  0.1565098651468377 28.6846343383565525
 25.2054273638523121  7.2574900188037237 28.8318150441061718
  4.1888728499601848 -0.0340050741205028 22.6628173069982566
 16.7578533453192335  7.2313663327803432 22.5946742978484423
 21.0719579423766383  0.4164000377612913 34.9845565830770724
  7.9270547143596977  7.5809865549412594 35.4085391298140166
  5.2557150603818288 12.8996260562839158 25.4312766825352234
 17.7929435435858316  5.6337949543884269 25.3609431309839444
 22.3281543200694550 13.0566274312336930 19.4612131194696900
  9.5430729466116571  5.8012470967456169 19.4989335501188172
 13.5668589884759108 12.9064090762591057 31.3331494828185342
  0.9297185635066642  5.5694312233023267 31.6065138637906919
  5.1049161561826395  8.9972280588199549 25.4665059057433076
 17.6980450655103105  1.8174951997424091 25.4459088865091623
 21.7955447049667157  9.0810932410399730 19.5334085389952392
  8.9859912478674868  2.0425323213413225 19.3169751383244055
 13.5841542257179189  8.9922617632876367 31.2435025555025199
  0.9723855289738528  1.6959805649654252 31.4351812892667617
 14.8992405704555093 -0.0488578914037373 25.3533214418299480
  2.2827712983618871  7.1403950296475411 25.4954406948306058
  6.4612859016905526  0.0566616467549671 19.8823119245802644
 19.1494891938530039  6.7918080198256900 19.3770002990252337
 23.2376509697703142 -0.0148147759197971 31.4010994373415997
 10.6257401751187430  7.3742620924007394 31.4554699984801367
 10.4759453223695633 10.9846232027797370 29.1652667417150795
 23.0997861419432802  3.6264606443539913 29.1454957767874987
  2.1188139096681082 10.8388920783096978 22.9907875118137390
 14.6607918621394742  3.6684024388544616 23.0016938979758301
 18.6747808970467588 11.0909752911710058 34.9079568910347717
  6.1293545924716701  3.5692514491248084 34.9368858262301387
  6.2642681741656574 10.9436330293742934 28.7809517726485495