Li P  S  Cl
 1.0000000000000000
    20.5609999999999999    0.0000000000000000    0.0000000000000013
     0.0000000000000033   20.5609999999999999    0.0000000000000013
     0.0000000000000000    0.0000000000000000   20.5609999999999999
 Li  P   S   Cl 
 190  32 160  32
Selective dynamics
Cartesian
  0.0093817151424399  2.5700146545314837  1.7851609252516469   T   T   T
  2.2155089561626680  6.2914539241103560  5.8552128061732116   T   T   T
  9.3880854558551725  9.6463376664773861  2.2654943162517536   T   T   T
  5.3648803283019255  3.3121603336429493  8.8208400884100406   T   T   T
  3.3797745861966888  8.3777021671323144  5.0482682823424838   T   T   T
  2.2882914309885112  0.7473250459604402  1.5554750321203268   T   T   T
  2.6987500232201760  0.1822035233571890  7.3744649318789284   T   T   T
  7.9182868039613608  7.4792059894377703  4.8892615937494810   T   T   T
  7.8034685814939735  2.5680854095623755  5.5228266803992030   T   T   T
  7.2981973408996126  5.3199010637526403  2.6138828910626777   T   T   T
  1.8271947391440444  2.4420944804168840 -0.8395253800540031   T   T   T
  5.4275422070991040  8.2561258915787388  2.8235160905132557   T   T   T
  2.2707425861088693 10.3808186580277066  2.0945114835059657   T   T   T
  8.5807578019841166  2.1253539419381671  9.9944478555490246   T   T   T
  3.4233522381424679  0.3615381569719318  4.1222416698102595   T   T   T
  3.6299137249959190  9.7745526322792546  7.2659282444418025   T   T   T
  9.8019855921218237  2.5983263533101963  7.3506283499291198   T   T   T
  7.3781434177656440  7.7674855214566012  0.2859623061711883   T   T   T
  0.5697884145036299  7.5632718548979119  8.6759416479010483   T   T   T
  4.6363355035687581  3.6952251668744309  1.8217468095881815   T   T   T
  1.5590562938671220  3.4695871316971325  4.5432893437487314   T   T   T
 -2.8805070062116065  2.1361470530871900  9.7284525943145486   T   T   T
  8.1139883306941005  4.7874133140514399  7.6951688752448604   T   T   T
 10.2210596317065097  7.0077176333820264  3.1101783713122857   T   T   T
  4.5206720696111589  3.1448755057748619 14.4597926531126202   T   T   T
  4.6413394879546406  7.7921113627232055 16.8252883578408969   T   T   T
  8.1205816044013801  8.0372775861537189 10.4378112048149880   T   T   T
  8.0793292937451255  0.8375121672742478 19.1902687619906160   T   T   T
  4.0612859894271329  7.0876653320248231 19.6153874439889577   T   T   T
  3.7941289548599118  2.8570473319786966 10.9793604313292388   T   T   T
  7.3667844426674272  4.5923300889354834 19.2323771523870093   T   T   T
 10.0388013593801126  8.0564067835388506 12.6019970083589410   T   T   T
  5.3598072602462032  2.9086295093980752 18.1038215936436941   T   T   T
  6.7134506881006226  5.6673876443872970 12.3699613998635378   T   T   T
  0.0037761468049491  2.9344030782535953 13.0238416153805190   T   T   T
  1.3103864703526114  8.0173365133474093 20.3188114478565041   T   T   T
  8.0319633159489179  6.3352811723088198 14.5991368114574609   T   T   T
  7.4013420799051595  1.2361819724132084 16.0954030810244362   T   T   T
  1.8804454590279096  3.4367735720495203 15.4896391458265015   T   T   T
  0.2634830922955531  7.3923412620946776 17.3387005891702373   T   T   T
 10.0994880437557288  3.1688997833174382 17.7821357985889890   T   T   T
  7.4898546538533912  9.9009411300189178 13.0582767944324694   T   T   T
  3.1984416956389228  7.3712038298485565 10.4296913059658074   T   T   T
  5.5475077826361110 -3.0481502389622435 12.8362953449289279   T   T   T
  2.7632399891227784  0.4861272368967384 13.5059476625011925   T   T   T
  2.5044402189346808 10.0168517438002009 18.3330233144301360   T   T   T
  8.6415804624664219  3.7286318740063997 15.9089110727560197   T   T   T
  5.3192763527586484  8.4676582064863251 13.6437539606830125   T   T   T
  1.2060226532197946 12.5626893813719338  0.4992751732928238   T   T   T
  2.2395744250845868 19.5083708641250837  9.6235513560327330   T   T   T
  8.0940022532843461 18.4809260059584588 -0.3249995290595813   T   T   T
  7.0662920751624148 20.9531080623754988  7.1827614380883453   T   T   T
  2.5806066049212473 18.4187614931878016  5.1678727744782993   T   T   T
  2.8225757683121504  5.9251730218382548 -3.9067974183419421   T   T   T
  6.6029368323065913 12.5058656114851399  5.1301420658300225   T   T   T
  7.4878616506918343 17.7572692744750427  4.9784919716225762   T   T   T
 10.0152680822413593 14.0223805902020224  3.4886519602805413   T   T   T
 13.4931301992595625 25.0524920322681552  1.0455472136742796   T   T   T
  4.3677508525268580 13.0723320960974263  1.6155070662523721   T   T   T
 -4.5040676658871250 12.6265149001879688  7.9982817710513441   T   T   T
  5.1424156396841090 17.5298189000753055  1.9995367345567701   T   T   T
  7.8035376902370928 14.4322705016281905  9.6701448452374734   T   T   T
  3.9472174020279827 12.5159225663902429  4.2102548776098594   T   T   T
  4.7190201802957477 18.4381489929354814  7.1108267113531296   T   T   T
  4.9880655717900373 14.3328695571648854  8.2214831348227335   T   T   T
  7.6489135575884264 20.1449162261083430  2.4577557094598195   T   T   T
  2.2950780112123543 16.0761690576353047  7.1250525738583894   T   T   T
  2.1113926579807933 15.2091640717184617  2.8602622581227570   T   T   T
  0.2481178092671862 13.2112624178466547  3.6100854231492523   T   T   T
  0.1768004199603873 18.6085562134445937  7.9514535292371908   T   T   T
  6.2230049596083212 11.0686311721757349  8.2499003379421598   T   T   T
 10.3830212449621548 17.6450693627519470  2.8567682458387456   T   T   T
  3.1836313844873145 15.2352919562697497 11.1806846661579815   T   T   T
  2.8382572461461457 17.8292876788451196 16.1294865298393333   T   T   T
  9.2376882575522252 16.0330880150247026 13.7058694525622595   T   T   T
  6.5810595723959215 12.2062046229874941 15.9392910666209229   T   T   T
  3.2066453393719163 15.2520326099596506 19.1256292619069228   T   T   T
  4.0575918828411748  5.7580068927185550  7.8421665845140751   T   T   T
  8.1415293686557675 14.6133689514068603 17.1426131196220268   T   T   T
  8.0218535466390453 18.3078059587269522 14.9744629098372695   T   T   T
 10.4705822956592556 12.8609116264555468 17.7336879952004409   T   T   T
  6.3609885037635383 20.5901109267912688 13.1195558797902851   T   T   T
  3.7078711004199940 11.2138103584776658 13.9527558110571039   T   T   T
  2.0675375899401014 20.0210380499270215 19.4636689421068851   T   T   T
  7.1501601962904369 17.5497552735158990 10.6326286424037466   T   T   T
  8.7489550010217680 12.2339692918754377 20.2866119766159585   T   T   T
  2.5784945399834949 14.6366570285252529 15.0414058368471490   T   T   T
  3.8583818065276505 20.3465194000862510 17.4999095233167665   T   T   T
  8.7211139396312749  9.9775642960917477 18.2101571755944178   T   T   T
  0.4617559410793282 18.1307687221406866 18.5675577883429170   T   T   T
  5.0007926970617813 13.4507705675795179 13.2554604737414934   T   T   T
  2.2077690768262528 12.1602203771822062 11.0946891923987039   T   T   T
  4.8221840329272672 17.3150854510354080 18.9479755543205854   T   T   T
  5.8378915499629711 12.7349498972806714 18.6924360431223704   T   T   T
  9.7174782096093519 19.0412820070435487 11.8420128317866631   T   T   T
 12.2149154721787152  4.6795752338183094  3.7098174085468618   T   T   T
 13.1168670257108388  8.7044816752562699  9.7213255365791511   T   T   T
 15.2780093463572104  8.0607795512536207  3.8594653321057240   T   T   T
 17.1195896467543918  0.3733113139535613  6.5551404530843937   T   T   T
  7.9043729732469137 15.3941511461898077  6.6024090108580085   T   T   T
 12.7595732552310785  0.6369629479832200  4.2230392929439633   T   T   T
 18.7990687528390907  5.5909635189910176 12.7856913548983933   T   T   T
 17.9967244867682226  7.9191734134206726  0.5685217891913157   T   T   T
 19.0362178119446455 -2.7796465420085248  4.6386562933547504   T   T   T
 18.3812344196296138  8.0804757735727701  5.2401105587115939   T   T   T
 10.6458529748058996  2.5747761834523391  2.2799284409256129   T   T   T
 11.1194374982434212  7.8862200193925345  7.6829206016486049   T   T   T
 17.9274458262529208  9.9091712219111283  2.6824684972283812   T   T   T
 15.3432744551372569  2.8064430412119492  7.7223413711657427   T   T   T
 19.8642598299559836  7.2758731154493663  2.9073429754134139   T   T   T
 12.0611129966990553  5.0067369212481783 13.8141692899479445   T   T   T
 20.2525221678486247  2.2532206410061559  7.8067007205730974   T   T   T
 12.4192653311111076  5.9795017723101145  6.2525881764533695   T   T   T
 12.6125993513732197  1.1187175691289850  0.8562561917089632   T   T   T
 14.8852686251773676  1.9813168071411367  2.8184254836580216   T   T   T
 13.6503135869269254 10.1866906440373626  2.9999876254582580   T   T   T
 18.6891323333330774  3.9632315616410887  5.5255282181452330   T   T   T
 20.8345118139293106  5.5478243983642512  7.2501687979032727   T   T   T
 17.8134102273845087  4.7700121360795702  8.5639408990820964   T   T   T
 10.5970729338621243  7.0253378410231537 17.7271720377251825   T   T   T
 14.6541670725374047  8.9762339669105007  7.5545776283347088   T   T   T
 18.8050997557514137  3.0753892825580271 15.5932525710711225   T   T   T
 12.9069923965901516  9.0639904310288184 20.0054218487861206   T   T   T
  9.6977206361611135 12.0368778393048057  7.4721764116783707   T   T   T
 18.8681976965327678  4.7195887225826958 17.7660448596039942   T   T   T
 19.0322351397030261  8.4739395023637201 10.7751392804202286   T   T   T
 19.4900732815398996  1.3348761532638749 18.5167577608395888   T   T   T
 15.8556471535733134  6.9800924770877000 12.2103891511316291   T   T   T
 13.0437271953056602  3.8611580747445253 11.0534455171780319   T   T   T
 15.1378185755306998  6.6480245365617492 18.8512640477130802   T   T   T
 17.6943859219067079  7.8116046973018101 15.7905477337861893   T   T   T
 17.5246024524292423  3.0746413529856422 20.2489294015779890   T   T   T
 11.9714173174789895  1.0371345661195175 14.0233659071879675   T   T   T
 14.6411077682782320  7.5230342382460238 16.0925103129549569   T   T   T
 15.6390490332581571  2.7725549310354500 18.6732000014549797   T   T   T
 16.7573082778834177  9.9193353791226127 13.8419510437127098   T   T   T
 12.8396600901203666  9.5045981813226454 17.7074360847602605   T   T   T
 10.4013647890409278  2.4407771305362904 11.6561254555746014   T   T   T
 15.0407699434830722  2.4592826636976910 12.9555392919954357   T   T   T
 13.1001513566769479  4.8703429989305063 18.1545231002633614   T   T   T
 16.5322962026568518  0.9231604267596124 16.9571236471566280   T   T   T
 19.9515345816902183  8.6995445360964041 13.7411721956859427   T   T   T
 13.8008077304162136 11.9273934069191831  5.0737808053654430   T   T   T
 12.7457884425555559 15.7918287329206954  7.8810053329412746   T   T   T
 17.2712488591052704 17.7661124837535880  0.6420159570565139   T   T   T
 18.5072425480707494 12.8193004319980659 10.3516308601403129   T   T   T
 12.9633397142385913 17.8107655568298071  5.7058241546988890   T   T   T
 11.3815032951355040 11.6821343015786194  2.4812579059456183   T   T   T
 18.4213186368721651 10.6383753090176629  8.4592285864422401   T   T   T
 15.0657587430360209 18.4961764562266637 -3.1456197408289643   T   T   T
 14.3372889887385071  5.5502330805624576  8.0168514618714486   T   T   T
 20.3971678813655188 18.1294513309814889  2.0239798190785998   T   T   T
 14.3891186781950040 14.2349104446110708  2.7770461962069746   T   T   T
 14.8765560997677202 12.8701451199786252 11.4792763454293834   T   T   T
 18.1462847493627066 15.8355586518192091  3.0780497272671989   T   T   T
 21.0083653202526648 12.5071460362955911  7.9415712808713224   T   T   T
 16.7167515525114894  5.5165498468340521  2.4569318962050106   T   T   T
 12.5782215299590430 17.7865498480919371 10.2198639365759849   T   T   T
 18.7035406120093484 15.2549682893669516  6.8483998849764465   T   T   T
 15.9606642848893738 18.3389418407975384  4.1196066315232631   T   T   T
 14.4803333676291413 19.8478274773738761  7.3057228550338591   T   T   T
  7.2611456303743438 15.6196101973972485  1.0954432941461785   T   T   T
 13.5291741047820633 13.0735755007161849  0.2201124117918667   T   T   T
 15.2941437821191624 17.3855873539256649  8.4761377329407264   T   T   T
 17.8213786365634448 12.5160089467696221  5.5612494969843347   T   T   T
 17.5096530850494361 20.2932022883058849  2.3299662483887555   T   T   T
 13.3813326938626460 12.2857671777160569 14.9560762533258451   T   T   T
 12.2034463590719486 20.0307310915865031 17.9926475463802120   T   T   T
 21.0171564563967905 13.2375758073747907 13.3663839224414076   T   T   T
 18.6794675805009120 12.3539070613662556 20.4593824685999053   T   T   T
 11.0251665360919358 18.2923825776983406 19.8981230856671942   T   T   T
 10.7926655924164177 13.0187127318935403 13.6533601719748976   T   T   T
 16.0050561474854760 11.8561286803956847 17.2727018671885375   T   T   T
 16.6225757152242579 17.0017765542253088 11.3937957863004620   T   T   T
 20.5961851211031970 13.7200863668288431 17.0950221735360586   T   T   T
 16.7712168344926411 17.6554730312021846 14.7069799682383433   T   T   T
 13.4465834465757261 15.5341537834955066 12.1463811283124077   T   T   T
 14.0964626102701427 17.7632793377717135 20.0202675529718377   T   T   T
 16.4351790032461693 19.6297370827760957 13.0476964976243366   T   T   T
 19.0517256191952953 10.7331907456026592 18.3193803632638392   T   T   T
 19.5427604855909181 16.2099700010673757 13.6305355560971435   T   T   T
 17.3762766911455842 15.5304461869953929 18.6015297982584045   T   T   T
 18.6165158580840853 13.0234753129915202 15.4327301839211213   T   T   T
 11.9506822971704167 21.0283308213067102  9.1247930422453418   T   T   T
 12.0478218160814912 15.6060467308627313 17.1718213557888646   T   T   T
 12.6788536180814262 10.2967653344589891 12.7220792106800715   T   T   T
 11.7322671337384410 12.3535255662859758 11.0140127967125689   T   T   T
 12.7559794894238294 18.1063023239955214 15.4609190296836605   T   T   T
 19.5366883962084970 18.6064570069511461 10.4102357567431607   T   T   T
 19.9696336389383049 19.4635318458583271 13.3168180048072511   T   T   T
 -0.0989214444773006  0.1763988117542780  5.1097130931632897   T   T   T
  5.3786593321284988  0.0323522864439364 -0.0835034975430360   T   T   T
 -0.3353141577168400  5.3679774050333577  0.0650694279467788   T   T   T
  5.3257026491537163  5.0390769541334324  5.2069088051547840   T   T   T
  0.6057759071249526  0.0410489546968115 15.9416780520692285   T   T   T
  5.2519723880151314  0.0407733382637601 10.1437722365970107   T   T   T
 -0.1040484629605085  5.3057488435178533  9.9672737259509727   T   T   T
  5.4809479655252247  5.4663089226934467 15.6338254042123133   T   T   T
  0.0901957804072527 10.1501123575192729  5.3700471018702736   T   T   T
  4.7886047728783181 10.2567831606209481  0.3587782431791499   T   T   T
 -0.2339087884111589 15.3206349816127965  0.1395453153024125   T   T   T
  4.6808212857241847 15.3366343311534905  5.0341688240302371   T   T   T
  0.2715201852445555 10.2979017660143590 15.5585458440144890   T   T   T
  5.0514109720486502 10.3866534095544605 10.6573291039048641   T   T   T
  0.1325747500129647 15.7960012021240814 10.0000250534804618   T   T   T
  5.5043249673757524 15.6418341327802626 15.6782937480163636   T   T   T
 10.0598888552135879 -0.3363414191967206  5.5894213033693720   T   T   T
 15.2438290599585500 -0.1924390938888161  0.0227672829921864   T   T   T
 10.3643871639076171  5.2673933590644655  0.1073275389025245   T   T   T
 15.2578644009372333  5.1684475179627443  5.0569043912673282   T   T   T
 10.0106433907959893  0.1573213277701269 15.6166051597529076   T   T   T
 15.5510926537391985  0.0569776690495966 10.5164024222144459   T   T   T
 10.0704614727554613  5.3286855503706985 10.3078943979070168   T   T   T
 15.5503413951438425  5.0333751334658512 15.2832215115633190   T   T   T
 10.2184945372458529 10.4042942196842620  4.9349649825873634   T   T   T
 15.6780247141701512  9.9299280885239121 -0.1185146658903567   T   T   T
 10.3524459691894215 15.3953523062182036 -0.0488732151715415   T   T   T
 15.3422749876600157 15.1960915720147991  5.3680544178480938   T   T   T
 10.5325690584397567  9.8814126460339153 15.2045780138001376   T   T   T
 15.5461999168252696 10.1084763066081287 10.5141077503383720   T   T   T
 10.1623811284121466 15.3497171340726872 10.6132756764329805   T   T   T
 15.3237111318724111 15.1710176403395192 15.4129378332376046   T   T   T
  1.2016498999918024  1.5121394484937172  5.9970322278142927   T   T   T
  1.0403686454709771  8.8040511964810726  3.9340613450218571   T   T   T
  9.2990561177007525  8.9849843220907175  6.0016592746379240   T   T   T
  9.0912052502792218  0.9337475221524466  4.1612712566679191   T   T   T
  6.7068791572888191  1.0906352216892985  0.9993492541203889   T   T   T
  3.9662952620452687  1.3460932987067433  9.0249901291650492   T   T   T
  6.0392529794568661  8.9105292444022677  9.6960437201087544   T   T   T
  3.8343126436069155  8.8444975472121357  1.4533165376483852   T   T   T
  1.1352336372686007  6.2025077847754826  1.3506085395090495   T   T   T
  9.3151989637318575  4.0969456807168561  1.3911839864464790   T   T   T
  9.2752538596209373  6.6529991192858411  8.9837858586885666   T   T   T
  1.0899024918196354  4.2433285501613929  8.6868502218950905   T   T   T
  6.7382545094597308  6.0190541378879470  6.3501255727584134   T   T   T
  6.3364797614026411  3.7606774450288687  3.9729584752695488   T   T   T
  4.1385042578928681  3.8313258949873847  6.3107733823365120   T   T   T
  3.9900773420010589  6.3158313973432509  4.0950481023390957   T   T   T
  2.5708157225935100  2.7559170199354317  2.6047786459094415   T   T   T
  2.8493469785617309  7.7600361854105664  7.3097643744842049   T   T   T
  7.5870286783997747  7.6813981384351013  2.6162380003628356   T   T   T
  7.5689735791688264  2.5803539949968006  7.7583336914632692   T   T   T
  2.0975463803932075  1.2073945778834647 16.7898078005449989   T   T   T
  1.4117402524928679  9.1578540065223155 14.5045716265050082   T   T   T
  8.9774389466293858  8.8623248646936990 16.0031636747270340   T   T   T
  8.5627732290608538  1.3083681708110264 14.2867169260234039   T   T   T
  6.4076331157020618  1.2868062057510350 11.3046611591084858   T   T   T
  4.1167737593680753  1.1715524147694489 19.2670054852026169   T   T   T
  5.7473727977170732  9.1766394858879323 19.4488928672520061   T   T   T
  3.5529062110069525  9.6816962992175117 11.8411509705727021   T   T   T
  1.0485672317167527  6.5538456756009120 11.0530316719433568   T   T   T
  8.5735457285902719  4.2070509045824735 11.5367810500417054   T   T   T
  9.1018597686057792  6.4131773815435622 19.5600721489710025   T   T   T
  0.5917505390439763  4.3162254337894881 19.1396226852759455   T   T   T
  6.8263737574450003  6.5903864649364339 16.5742989617106744   T   T   T
  6.5333219338378461  4.2408382557460103 14.4085657585762554   T   T   T
  4.0674896802310707  4.3075983869144894 16.7688125056175892   T   T   T
  4.1122204120980230  6.6372192037035367 14.5785884236061403   T   T   T
  2.7231935686404314  2.7432467395767830 13.1128291189093371   T   T   T
  2.4602299636748608  7.8964105819288708 17.8954593143734257   T   T   T
  7.6438557031591188  7.6991653404010858 12.6490334859975757   T   T   T
  7.7503748155470742  2.8687045519404970 17.7916894588365508   T   T   T
  1.5927661041138177 11.1895355448484484  6.1610893413760088   T   T   T
  1.0256981580054290 19.3734801810927166  3.8187334658477918   T   T   T
  8.7456939517358077 19.2186886579317147  6.8126125389319361   T   T   T
  8.8507495317060556 11.6565262719655465  3.9919495434114580   T   T   T
  6.0292239885926380 11.3632602764248478  1.5483151148923546   T   T   T
  4.0947910940047390 11.6860909418923047  9.2404862384472501   T   T   T
  6.2824396664049411 19.3373386153070896  8.8535400072802801   T   T   T
  3.8584460276613775 19.7091558294027678  1.2172410559737750   T   T   T
  1.2056299933102845 16.5033489652890140  0.8707648898471195   T   T   T
  9.2238475188444653 14.2276859390605352  1.2206042153953571   T   T   T
  8.9823143433855499 16.5771553871070765  9.3186314120326692   T   T   T
  1.4197743379603063 14.5961686602034977  9.0181967512968235   T   T   T
  5.9155346882574253 16.4440882185057973  6.3049126257807186   T   T   T
  5.5972994957611375 14.0327229325937246  3.7963879565000669   T   T   T
  3.3539148169225270 14.1920316577474015  6.0201249957055696   T   T   T
  3.7518352714136265 16.7885538267750647  3.9553834301224837   T   T   T
  2.1747584466813539 12.8538274322074546  2.7028034189759809   T   T   T
  2.2708184982816420 18.3776474209619920  7.2517243117098760   T   T   T
  7.6375625293824534 17.8185081947525035  2.3729253591088790   T   T   T
  7.2883810661819854 13.2374642320331244  7.3953089718043152   T   T   T
  1.2833714353230921 11.4622963888287472 16.8859487936352366   T   T   T
  1.4882761400569500 19.2481014744879104 14.7004946776050627   T   T   T
  8.9456093304700577 19.8420637980985504 17.2483039966942044   T   T   T
  9.7672047002054345 11.1047950347471804 13.4805818084442084   T   T   T
  6.2448677938222730 11.5583479868456251 11.8410299148037677   T   T   T
  3.4217531387237288 11.5834050435553824 19.8045296586648050   T   T   T
  6.3017206987757399 19.3212056171359237 19.2420384135544396   T   T   T
  4.2772787421986660 19.2718362774716638 11.6199094819619102   T   T   T
  1.3701760818600979 17.2844157908785974 10.8190463401041743   T   T   T
  9.0901660065981158 14.0716947716480156 11.7671205705367186   T   T   T
  8.9400250159236965 16.4239157491914440 19.2926802953734295   T   T   T
  0.7235057136824193 14.0744812879578998 19.2820669164528056   T   T   T
  6.8715082267296017 16.7319682530652116 16.7068104162531981   T   T   T
  6.7204234531035913 14.4272129829376574 14.5205471802012731   T   T   T
  4.3284482481361879 14.4540066484162271 16.9922081547266188   T   T   T
  4.1278090108294494 16.4910611171112009 14.4158446456429896   T   T   T
  2.7558531974346954 13.1775428170174624 12.9308530045800509   T   T   T
  2.7048589573394657 17.9499665119121303 18.2904439951416578   T   T   T
  7.5571100719040549 18.0059060114735487 12.7563799726322973   T   T   T
  8.0089066916998792 12.4508169748389932 17.9902105632817211   T   T   T
 11.5016518062088515  0.9400616586712434  6.6849890769506333   T   T   T
 11.3389936365901232  9.1517263122490764  3.6374801001717363   T   T   T
 19.5074387318073690  9.0774865272852239  6.7842933625889295   T   T   T
 19.0266705840120238  1.1355545305479955  3.9934466726382789   T   T   T
 16.3381348650854079  1.2925163177067902  1.0152892591874496   T   T   T
 14.2760452360902672  0.9298093971299466  9.1574954439827625   T   T   T
 16.6219004673615274  9.0074273265879032  9.1903911927588666   T   T   T
 14.3220832529483335  8.7859659425664187  1.1683055959812807   T   T   T
 11.6166376491017598  6.3728120356438662  1.3409131313272300   T   T   T
 18.9364668790408146  4.1994618470867664  1.0723627594033507   T   T   T
 19.1899842357365031  6.5042948908787919  8.6766198570907207   T   T   T
 11.1607091949239550  3.5892199055170138  9.2698288989649402   T   T   T
 16.1338894336499976  6.4044286018240300  6.3721615445570636   T   T   T
 16.5220579873118965  3.6808174698684248  4.1688864226468469   T   T   T
 13.9477341724974604  4.0727446228413342  6.3411540014519678   T   T   T
 14.1465228819631026  5.9170519722894310  3.4633405836694280   T   T   T
 12.7832724339610557  2.6188768988454463  2.4590741338702031   T   T   T
 13.1577212573958473  7.3494193011312392  7.6231002839601230   T   T   T
 17.3710885943802751  7.5796616302905164  3.1523522445664085   T   T   T
 17.8187880107715557  2.8169524774357115  7.6062536757728569   T   T   T
 11.2736247199897281  1.5354055880948734 16.4734295441823093   T   T   T
 11.7720148861505542  8.5311398171893575 14.2388385070055552   T   T   T
 19.6284466865748470  9.1248146652117423 16.7749256784319982   T   T   T
 20.0154098252567678  1.0915619294573329 14.5521494244417742   T   T   T
 16.6117422445691219  1.3138799945313251 11.7198544063496310   T   T   T
 14.6565862866201400  0.6711351077769530 18.8318349113525088   T   T   T
 16.7329807825600412  8.6840952617203175 19.3928443024762629   T   T   T
 14.3858436499251585  8.9092939050260718 11.9011701972444559   T   T   T
 11.4568651684763392  6.0892354139029550 11.4623470843677211   T   T   T
 19.4344258146250866  4.0479547353688048 11.0025884389063915   T   T   T
 19.3839842534224971  6.9625354766341792 19.7497282775488401   T   T   T
 11.5323185879075076  3.9424798003656605 19.4603127197888526   T   T   T
 16.6498091106724360  6.0550013758827879 16.6927747757642777   T   T   T
 17.0260660179741024  4.1786858572644601 14.0054164187253143   T   T   T
 14.3679836096760063  3.6276601536651998 16.4421313158240920   T   T   T
 14.5973169296720009  6.3840735475492423 14.1440514140219058   T   T   T
 12.6443812077902358  2.7831581952538849 12.8931891704872132   T   T   T
 12.8646022623509904  7.3983199679108544 18.2343418597276496   T   T   T
 18.1057652010343375  7.9238788609927404 12.8277661304095734   T   T   T
 17.8189187075564845  2.7043203146848316 17.8819180135168807   T   T   T
 11.4116468541743838 11.7831892065747699  5.9167714993234641   T   T   T
 11.3921544927726810 19.0880195793769332  4.4674733463783802   T   T   T
 19.4715363193732713 19.3986010219064013  6.4343618927393589   T   T   T
 19.4335577484756925 11.3605892675896527  4.1956978926856294   T   T   T
 16.8685480250011537 11.2696572935139443  0.9375879579776383   T   T   T
 14.2030624162937880 11.0373636180925754  9.5328442448635027   T   T   T
 16.9979763009123204 19.6397241603078001  9.3570845503357365   T   T   T
 13.7974322572906907 19.6957993653540200  1.4638430263301898   T   T   T
 11.5055768035591850 16.6391744571824418  1.0619892280269596   T   T   T
 19.1820911493250676 14.2642906549854178  1.5023229182377524   T   T   T
 19.3210225597171927 16.6871150763354663  8.8934352849951406   T   T   T
 11.4891397264195732 14.2360200243780053  9.4995433310375308   T   T   T
 16.6894249740949832 16.2847902960699287  6.6578835815786750   T   T   T
 16.3582841056821238 14.3064111675683119  3.8587620668146720   T   T   T
 14.2628033368823193 13.6551703502546822  6.4064225575336211   T   T   T
 14.0512802446984342 16.4553681120342219  4.4301349761422779   T   T   T
 13.3430441301335154 12.4157164052936633  2.6554360911836135   T   T   T
 13.0580008485813170 18.0779067207167827  8.0641678051773855   T   T   T
 17.6961859072917349 18.1629211306767999  2.9055062677630761   T   T   T
 18.4372196245819282 12.7918703991710672  7.7775871076777188   T   T   T
 11.7561841121579675 11.1766692455910484 16.2837011435397088   T   T   T
 10.9259676757850777 19.3753295405075932 14.2964689961318570   T   T   T
 19.8790758036568747 19.6545700116484952 17.2942150213879771   T   T   T
 19.4160623592141945 11.2403653042883409 14.2539002092582212   T   T   T
 16.8358612589986265 11.3639282434258959 11.5674862495553974   T   T   T
 14.3342089707854576 10.9175438322104217 19.1589527879103443   T   T   T
 16.1094267739854828 18.6934679186438046 19.7468859431171353   T   T   T
 14.3063108017278999 19.4459290962045372 11.5380368917146026   T   T   T
 11.1515568913166483 16.6325213760030124 11.9084435781961098   T   T   T
 19.9126762950877136 14.7210702790239729 11.4467651138682154   T   T   T
 19.2174521041414081 16.7245820408585644 19.6978593802589685   T   T   T
 11.6795846504469516 14.2476877886396167 19.3408692033376042   T   T   T
 16.4765852039599636 16.4928026522029469 16.6981468364484726   T   T   T
 16.8477104732858578 14.3100841862254136 14.3195047909239737   T   T   T
 14.2430130961329553 13.7830618866859353 16.7074062528679619   T   T   T
 14.0393677549559399 16.3989382283140301 14.2471161489287663   T   T   T
 12.9031521231776036 12.8412907416700932 13.0225918141032988   T   T   T
 12.7708345015793956 17.9576471178718080 18.0074755139699008   T   T   T
 18.2611894708657800 18.2613059771442678 12.9804399028672979   T   T   T
 18.2588082470583259 12.9085962399764771 17.7595202172902589   T   T   T
  0.3589951315645639  0.9488758374696816  0.2017259184877527   T   T   T
  5.3614562758248772  5.1086674442665831 -0.2750415156640556   T   T   T
  4.9170872461350772 -0.1187452676301608  5.8279290264854167   T   T   T
 -0.0071287999352970  5.3514533007590641  4.8324750638521765   T   T   T
  0.0152233769255242  0.0164367696107157  9.5037757533585729   T   T   T
  4.6327829818675834  5.1747878948920460 10.6754172475656794   T   T   T
  5.3044132791835557  1.0214168954941418 15.1215070192276553   T   T   T
  0.1438594585741360  4.8351549527386082 15.2831534573355974   T   T   T
 -0.2653650274883614 10.4612187642118997  0.1919491350380107   T   T   T
  4.5139008269989018 15.4212529283198272  0.3197480766303281   T   T   T
  4.9272787443957951 10.4392323227218622  5.0831236546470775   T   T   T
 -0.2321103439892810 15.6285612498082731  4.6890755032954194   T   T   T
 -0.3199138307988625 10.6193756439971931 10.0928959140932708   T   T   T
  5.5877502806511163 15.1502468514144599 10.7344719186053368   T   T   T
  5.6049946879951493 10.2708825401651715 15.2257484523211470   T   T   T
  0.3811078867308971 15.1737492951009294 15.2005383210586444   T   T   T
 10.5320571378317549 -0.0658649447361056 -0.2196585084394439   T   T   T
 15.6429360093189711  4.7244183897239758 -0.2595616435369061   T   T   T
 15.2426185895230901  0.0138154923279157  5.4521568455482248   T   T   T
 10.3742950845257980  4.9821227448520231  5.2640244215046366   T   T   T
  9.8333400289986859  0.2406916473588786 10.2483394528174419   T   T   T
 15.4977115622916717  5.0137955493843220 10.1088091954905028   T   T   T
 15.8774586998062652 -0.8813343191073258 15.6019279153072095   T   T   T
 10.4413014537494604  5.2187065985047818 15.9877797651788551   T   T   T