Li P  S  Cl
 1.0000000000000000
    25.1819793006824639    0.0000000000000000    0.0000000000000015
    -0.0000000000000009   14.5388225279766061    0.0000000000000009
     0.0000000000000000    0.0000000000000000   37.2126966544236950
 Li  P   S   Cl 
 286  48 240  48
Selective dynamics
Cartesian
  2.5028271783846527  1.7487164481434336  8.6621598498696191   T   T   T
 13.8352691496078393  8.7893708231830541  9.0209155931218454   T   T   T
 12.9904726670788513  4.8131149466537462 14.1767136058781524   T   T   T
  4.3984696884916552 11.2723844397129511 13.0879662957695100   T   T   T
  7.5348133140665148  1.1929224651753023  5.4837798880209272   T   T   T
 23.1844573981478987 13.3627125618045532  2.8058021604183847   T   T   T
  0.8048929026690712  1.5330873633981386  6.5611740263922886   T   T   T
 18.3748397175297171  8.5786109692520718 13.2626611540971382   T   T   T
 14.3649238743868501  7.4306724041440786 19.9735221032570642   T   T   T
  2.3800265976549722 14.2082703868652569 13.9802377451002862   T   T   T
  6.7482111046267894  2.2601951514196132 14.5744369532129916   T   T   T
 22.7255028474389462 14.1657981341104904  6.6373173424514409   T   T   T
  0.8723928970093611  5.5049396748553878  6.5794635940782671   T   T   T
 14.4940637576933362 12.7744029191161150  8.2634037945081520   T   T   T
 22.6918711726065396  8.5770525920915777 14.5570839035603647   T   T   T
  6.0790370216927334 13.6870359525843401 19.0446204616710801   T   T   T
 10.1342076560917356  7.0622390739046352  8.8078255674585826   T   T   T
 20.5676793687482800 16.7117728856533319  8.5246757050334860   T   T   T
  3.3131244882959310  3.7047936091005687  5.6619014127588310   T   T   T
 13.1632551414744619  9.0230086679653443  5.7292791746609835   T   T   T
 17.6632805725686310  5.5260151547069380 12.4782615869749645   T   T   T
  6.1708183910823919  9.5011976268540241 14.9856767085370368   T   T   T
 10.1028491577920985  1.9192737708452106  3.2209801044857866   T   T   T
 27.8130145736801850 12.2978236346407694 -0.0221835332911628   T   T   T
  3.3743699168681198  4.8559457521488243  8.5593994955728014   T   T   T
 11.5578255191932300 16.7078767743200274 12.6662945704262366   T   T   T
 20.9265510765066978  3.8970470499745380 12.2738350894073562   T   T   T
  8.7259715211688409 11.3795756348573054 12.4980388651841743   T   T   T
 13.3079908864079695  4.9828806540593593 -2.9154609672842824   T   T   T
 31.8397335726332216  3.7458869836803359 -0.4495276434078718   T   T   T
  0.1448173413042534  4.1014204782719226  8.8760209927640101   T   T   T
 12.5832056914743848 11.8962513896288264  6.9881930409214874   T   T   T
 16.5803618413362770  3.6886840826257896 14.6637010323682091   T   T   T
  6.3928558372575326 13.7798111259039935 13.9551212985428776   T   T   T
  2.3718808104609139  6.1116315611747511  2.8235096967652251   T   T   T
 24.4165207597325917 12.8885302438278373 -3.2175326325083633   T   T   T
 25.2640612519622181 11.6437180068986006 15.3688951577859729   T   T   T
 10.5718061294890227  5.6824655392436414 13.3627313967016139   T   T   T
 16.6097111368997545 16.4576130228820006 -7.1094926484366772   T   T   T
  5.2742937517421042  5.1879149059032468 -2.3107944951063768   T   T   T
  6.6292024543543144 14.8050583474460513  8.5047713453832898   T   T   T
 21.6824868089740619  8.7271513113888055  8.5546341285889493   T   T   T
 26.0443052415577014  1.1036684484150858 19.0408889900284954   T   T   T
 11.6025635342157027  9.1957031861612908 13.2235230382195184   T   T   T
 14.7530582100462002  5.0620636196003783  5.3642447464116501   T   T   T
 -0.3979724305465574  2.6536948472422726  3.5315073794670386   T   T   T
  1.1731722422059927  5.9625653103768173 14.7141168725432774   T   T   T
 19.8976037105205492  8.1443632926826908  4.9780156812427654   T   T   T
 -2.1535152396056314  0.4688816738939441 14.7409745502013205   T   T   T
 14.9339657640255901  7.8668747462162640 13.0314474229802251   T   T   T
 13.8602444538543708  2.6244576082914808  9.3457824632046940   T   T   T
  5.9720261171048605  5.3950856470576865  2.6738995424459175   T   T   T
 12.1047026699195932 -1.4024484004122084 11.2541358230161102   T   T   T
 22.3181850743192101  5.7071388573431729  8.2589621032177405   T   T   T
  1.3783503712628629  0.3702878940319431 10.8098583371414936   T   T   T
 12.8913023906513029  7.5617692203486522 15.7555929856794936   T   T   T
 22.3227197583510701  5.0993705150538169  3.1486451374095736   T   T   T
 16.2257606534595453  3.6162916084494761 -2.5478760164756955   T   T   T
 10.5007440128473952  0.2453760704228962  6.1342326513243517   T   T   T
 20.8099575718690275  2.8182693029747106 15.5650603336560156   T   T   T
 -0.7198109166084289 12.7014700971218719 19.0809670111544278   T   T   T
 10.3238617514746664  8.0863046467773572 18.6686687517505447   T   T   T
 18.3122403629078434 14.3185021037366820  3.4167343557694565   T   T   T
  9.2537392367240034  5.7808107739107211 -3.5744400850347127   T   T   T
  9.6137469759848848 12.9264976870217581  8.7135001304930064   T   T   T
 18.5219670955152651  2.7851321914276657 10.9533964355865034   T   T   T
 25.5991916159441786  2.5813140067658824 14.8015538668029709   T   T   T
 13.2615286256487597  6.5189724626069552 11.0709548002424416   T   T   T
 19.5820035023384662  6.9187718201247490  1.5588335391433985   T   T   T
  6.3930473093619486  8.6333497920992599  3.0358706414615297   T   T   T
  9.5463810705646583  1.5799361713883830  8.6576075418722613   T   T   T
 19.8590526975442998  5.0250801994993761  6.2800605586112725   T   T   T
  0.9981556239166945  8.4897582143102426  7.1104913329199091   T   T   T
 16.0281104923327078  5.4124086964517000  8.7428708952180347   T   T   T
 19.9382206190576241  9.0761439596433355 24.1638312539491906   T   T   T
  6.2169563124951210  2.3412055373917720 20.8374991743506470   T   T   T
  6.9157485760117083  6.7848194750585717  0.2445161713615580   T   T   T
 24.6954884700003845  1.3771722703831262 -2.0695346707533750   T   T   T
  1.1016562398441625 12.2115037192415308  6.1363633591833375   T   T   T
 12.4873738832355041  4.3822717815193331  2.8032484226875520   T   T   T
 16.7520512036306783 11.6254514603825410 14.0720095303053156   T   T   T
  4.8747868002803871  5.7065522126985453 12.1792723568127688   T   T   T
  9.4424387445226508 12.2126290226261709  2.1375136988055066   T   T   T
 19.7849968054848304  0.7987436858218631  6.0332616307201450   T   T   T
  0.4101007748883638 11.5351043526817545  8.4874708353839967   T   T   T
 13.6605845917710820  1.8764141404984760  6.3512704777114548   T   T   T
 20.9760472784865186 11.1295183110231957 12.6888363014859262   T   T   T
 12.1353212455347581  3.1879852358705749 19.1613357505108262   T   T   T
  9.0362772299432432 14.5102372238938138 -1.7043062169396486   T   T   T
 22.6269951256005655  7.0535305025206210  5.4221243263927139   T   T   T
  4.3608819732914874 10.6111207114083452  6.3915596489216595   T   T   T
 16.7452528828348832  2.5178196106811050  7.5019480767244531   T   T   T
 18.0038396380720798 10.0378713481464956 10.9129376492611634   T   T   T
  7.3885316581126821  3.8563044805030589 11.1075310596470906   T   T   T
 15.4363171616872918 11.6053886462525693  5.0537154738557808   T   T   T
 20.5198684361953738 11.6736707379151987  3.1087033759426967   T   T   T
  3.5520174738676964  9.5177812367183368  9.0108054574664642   T   T   T
 12.8672583996084882  5.0936691974916934  7.6086915446516459   T   T   T
 18.2797218590956376 10.4071960389165383 19.3377713379648775   T   T   T
  4.2904664458531032  3.6721144667608114 14.4445392566309447   T   T   T
  9.5601990263104195 10.6874183618329859 -0.2183495341942052   T   T   T
 21.6165220665983213  1.8692556513619154  3.6539281954684490   T   T   T
  3.6196279400282694 12.2880253966581492  8.6594788556688815   T   T   T
 16.7459037740861447  9.5938842713636134  2.9888017833125211   T   T   T
 17.3558551081522907 13.2646467142556403 11.8272353888153905   T   T   T
  5.1163748789221124  1.9948194796487351 12.1089940097198649   T   T   T
  5.8729480484127468 14.5741523708663969 -0.2573517149522477   T   T   T
 22.6435502251909568  6.2222729131687080  0.0554487587685210   T   T   T
 20.4393455257429792 12.0188375446392133  7.3410960543169379   T   T   T
  8.1482405204094288  9.4270817303679824  8.6794620884657583   T   T   T
  6.2426871720749544  9.7239180180726272 11.6079418897526399   T   T   T
 19.1777081024023275  5.3636238111121832 14.7712220730730763   T   T   T
 -1.0656907151993678 12.8097982794678700  0.0362043899812533   T   T   T
 15.5067436237861553  8.5770899783581012 -6.0482089411990891   T   T   T
 22.1728880618841799 -1.5429506985174832  9.2072032206058267   T   T   T
  7.8810411304005275  4.7599547391537715  7.2060251980051531   T   T   T
 10.5448918337183084 -1.1039570430898991 13.7988951408655662   T   T   T
 26.5355256578593526  9.9302864372030832 19.4194987820134131   T   T   T
  2.7040498941452520 -1.2248344157747106  2.9912129997201857   T   T   T
 15.6933548391818540  3.5757954871253284  0.2706418858100891   T   T   T
 23.7500583770072424 -1.4595853681030451 12.9014087951056968   T   T   T
 14.9420896175913800  0.5538822483148826 12.7122510913317619   T   T   T
  2.1390065177060671  7.8579145320345649 12.6146079603493142   T   T   T
  7.5544093539834112 -2.2099995950087785  6.3856256030003173   T   T   T
 19.0689192989827632  7.9546300035806512  8.0287541208242885   T   T   T
 18.5950664005983555 -0.6813002578251617  8.8344201535205968   T   T   T
  9.6357104875795425  6.9264190964135341  5.1828389246922404   T   T   T
 18.5118785835290183  1.4370765769654716 14.1080609043962131   T   T   T
 -0.5457914235205382  6.8335446903117445 10.6173884783924972   T   T   T
  8.1823660904047379  3.8063670998435026  2.5377026766855884   T   T   T
 19.8421021961165636  4.2125111901758698  0.1778223997043920   T   T   T
 16.7123766491853800  9.9012875274238681  7.5381898881307308   T   T   T
  7.1906884924598389  6.1521540215817021  9.2656839217322613   T   T   T
 14.4481629709823842 12.9518013799486589 13.9019514708846756   T   T   T
 -1.4841748815616056  3.0937034994044557 18.3225989710306223   T   T   T
  3.8627888557252921 17.2589642053442276  1.8524923764811938   T   T   T
 18.2670539673474295 10.4111430719595965  0.2200746852549384   T   T   T
 24.1269012575103901  1.9832385387221068 12.5030713776784559   T   T   T
  6.1586988676003278  8.0141910655343498  7.3404202399152627   T   T   T
 12.3568949548409464  1.8345788375255059 15.5999073816838276   T   T   T
 24.4319103635844073  9.6127716277899804 12.4664394359540829   T   T   T
  1.2857423941262898  0.4300893260031599  0.8271698839384370   T   T   T
 15.5597240319916299  6.7779920645452343  1.9292532462343968   T   T   T
  8.2962598780643297  4.5388033285863516 29.5660117707330379   T   T   T
 24.5243047781141001 10.5785484154374014 31.3480483036311242   T   T   T
  0.5057317656625916  4.1166784390350024 22.4345600290472014   T   T   T
 15.3753707832004167  8.2372807677600868 23.1998747381360850   T   T   T
 18.6357705664889934  6.9705592050825462 31.0569985881457526   T   T   T
 -0.1124209136954534  9.5697614612146538 39.7847575334936323   T   T   T
 12.2002833014916394  2.0694061112657325 28.5650638420665466   T   T   T
 24.7837875414432318 11.0190502919330129 28.5422432673975628   T   T   T
  5.5894882706915894  5.2024557465427526 18.6370401310303713   T   T   T
  9.7628398872945716 11.7003961888000578 16.3796305373878219   T   T   T
 24.1607814050644265  8.6445683816983117 33.5608315459127553   T   T   T
  5.3991965659413896  9.5913772696630737 37.2335922791071070   T   T   T
 10.7360269427366219 -2.2308320908432271 28.8037212152765818   T   T   T
 23.4610369267391619  6.5565585839215696 24.6829444643463702   T   T   T
  3.7904810542000109  2.0360826721009451 22.6727039168302511   T   T   T
 15.7496063365165924 11.1657894315147885 26.0384713701802184   T   T   T
 22.0970009436426622  1.8904507065547536 32.0471839145706099   T   T   T
  3.4981763461502031  6.5247277613769645 37.0700720981240934   T   T   T
 11.8001796276313158  4.4083924761544804 31.2814561017657020   T   T   T
 23.1266644806631732  8.0823108910195032 28.3155297057198574   T   T   T
  5.5130660275132071 -0.9806462064956345 22.0720781627899214   T   T   T
 16.9732936310710514 10.7829710582004132 23.3686536422577973   T   T   T
 18.8644460633495399  1.4867721827296196 37.4274983269236543   T   T   T
  1.8336152672447710 11.8239362864686477 34.4756618016539207   T   T   T
  9.3336754990306865  1.6729312880864056 28.0956726127510841   T   T   T
 29.5986503205813491  9.8629525858711098 24.0108942276679720   T   T   T
  2.4319443540754300  5.3942202089153577 24.0348630759894881   T   T   T
 12.3618048908836684 14.6149750706981756 18.3322850540531697   T   T   T
 21.6762391365643907  4.8301324097505125 31.3290409608737832   T   T   T
 12.1737526709240758 15.9860876267704750 34.0719558834065595   T   T   T
 11.0275931623882251  5.3602333032751446 28.2999287619688360   T   T   T
 21.3423033588392883 10.6661654275768836 28.1392291301370676   T   T   T
  1.0282215328703961  3.7929493085067150 26.0642224584912015   T   T   T
 13.9202363610909270 12.7152203694880832 24.2210515300583467   T   T   T
 18.0365197437979461  6.2325142847089365 36.8155004650880002   T   T   T
  5.2056137004227576 11.9626707582120861 34.8216731362980170   T   T   T
  6.7576862354805405  8.6018313687682078 24.8277479578660270   T   T   T
 19.9568378093788752 -0.1987252527161934 26.1642324840762370   T   T   T
 24.5532718381176522  4.9669767393673130 34.3476431281795627   T   T   T
 13.9521216440554152  8.2534222152073138 34.5922767985069868   T   T   T
 18.6255992699725752  7.7532009848006282 28.2637281468096049   T   T   T
  7.0313086573713948  1.6337970617481068 24.7401734227199910   T   T   T
  9.2958955512956596  5.0071735241383841 22.4174737526473500   T   T   T
 23.2911192303781149 15.0582889190944265 24.6424529380282351   T   T   T
 25.6637321148596484  4.5056042022947658 37.8320351721244137   T   T   T
  9.2220879271309819 -7.0081202705364749 35.6543996369729896   T   T   T
 17.4241111512440128  5.3632879840286201 28.5476414206648386   T   T   T
  3.5046148806518618 12.9962691047919172 31.7825999805723285   T   T   T
  8.5482582382959293  8.4453702894520752 22.4697513835620271   T   T   T
 20.9009750768563052 16.2302685130151403 22.4250396555018696   T   T   T
  2.7440153306809569  9.4312579330299435 37.9250801747417725   T   T   T
  5.4792837598042086 16.3353426682328831 34.5681233802208610   T   T   T
 15.5002678816097941  5.6840130715691650 30.8929664295455275   T   T   T
  3.4718466352137196 16.2288087754653674 28.2068701150883605   T   T   T
 11.2460105171553177  6.6990664715187780 24.4500192085683885   T   T   T
 18.6886513411050146 15.3115273414066770 23.7391770647625684   T   T   T
  3.8359314089029422  9.2644198185874380 34.2384887458519884   T   T   T
 19.5794450367280035  4.5911021129683958 34.8251003251338460   T   T   T
 19.9885840525540104  4.3514155477981307 24.7109249591199855   T   T   T
  5.4241899286417894 12.7909377502075241 28.8919708058065048   T   T   T
  9.0214719876929887  7.7547316066739578 25.9823233683571821   T   T   T
 29.1449621059989923  3.4143140587914336 25.1449348655914022   T   T   T
 -4.3932590158268230 11.8637348344297617 36.5832729540184687   T   T   T
 15.0283605694799949  0.8993987041530992 35.6951924924430486   T   T   T
 13.2174397128976828 10.7954321226789780 26.7468395255085341   T   T   T
  3.4739333885578101  1.1710855168096370 32.2309286531950647   T   T   T
  7.8651610690413492  5.4622962727187572 26.0550557849203521   T   T   T
 20.8547015448722703 12.1286104501765646 24.0192846695835058   T   T   T
 22.0303068756306288 11.9566970164212254 31.3832847008417453   T   T   T
 12.0324361384805112 11.0087143052999767 40.4160815731540097   T   T   T
 13.9231960237464314  1.6006324974364163 25.3620069283810388   T   T   T
  6.2886610452139706 15.1006027132594234 30.6899954945858440   T   T   T
  8.1330975509491772 10.9310505683799981 28.7101778496279643   T   T   T
 21.0315435810719933  1.8830345859966229 28.5464735864603121   T   T   T
 -0.3645146845975102  7.0292411384290965 18.4426556763151517   T   T   T
 13.3686256127427914  4.0646712346776237 22.5895122995839266   T   T   T
 17.1476960973183452 10.0945449236389599 34.1745299622213352   T   T   T
  7.8442854008967418 10.4985954457757416 34.4015653589475860   T   T   T
  9.0808097501082674 12.3441925869681004 31.1287165851151464   T   T   T
  0.1137089303116030 10.6393152662410628 22.6505488006765496   T   T   T
 15.0259168428641381  1.5958828591578214 22.3032218048275936   T   T   T
 18.2805409482277526 12.5482128228330136 28.5990458222846300   T   T   T
  3.3163395922244159  9.2581523318672296 30.2769412345039264   T   T   T
 11.3006385712371404 10.5146828236622270 31.6339626676556200   T   T   T
 21.4057635386852141  4.7996137761460451 28.4138437867065470   T   T   T
 -3.8978356679342787  8.8319488465491052 20.5344723095330544   T   T   T
 14.1134903347113934  5.2235263618446144 25.2549632604363943   T   T   T
 20.8815499651756937 10.4400830721240414 33.6945158516476724   T   T   T
  8.2360796394639273  3.1242827473605308 34.1313048796255529   T   T   T
  4.4182297004195838  4.9485008589508199 29.1283018981588775   T   T   T
 24.5130274463348456  3.1491567795475537 31.7315559762673942   T   T   T
  2.8075473951962171 12.2714129918056596 22.5947669374219586   T   T   T
 16.3148552059068876  2.9406638548521888 26.3071177736941699   T   T   T
 19.7928016345243662  8.2433644710517164 35.5371347450033710   T   T   T
  8.7444693389494148  1.7059951807879399 38.2596447583934918   T   T   T
  9.0563670648432186  9.1284720849571030 31.8043475921913377   T   T   T
 23.8415716140393386  1.3957236869507781 28.7177338545806187   T   T   T
  6.3919126836327331 20.6247738489072816 22.8984039821448384   T   T   T
 20.7971569760561792  7.1803682800019351 17.6177511044379287   T   T   T
 15.5454758253891612 12.6512758597509638 36.1246047406179898   T   T   T
 12.3933078672162100  2.7227387856929188 37.1667382142805067   T   T   T
 10.2307388498765661  8.7812353244412424 29.0615543244090055   T   T   T
 24.2538465018646505  4.5193801153644060 28.4865593029652722   T   T   T
  1.6745514780944264  8.1267444677566587 24.1178803005710662   T   T   T
 16.9523534361499841  4.1292464792062873 23.3979511195106831   T   T   T
 15.9210763001132865  8.9068973283598005 36.3845394547036065   T   T   T
  2.2797754389000717 -1.0964532646445828 28.9748283419214090   T   T   T
  5.7586469838622394  7.9852928947525106 29.5042692805771090   T   T   T
 18.6565409442061139 -0.2121210171628503 30.7404733423949530   T   T   T
 28.6362533494876317 16.9616770726435675 17.7504546033552906   T   T   T
 10.5790317665636380  0.9061058780973741 22.1790918355864335   T   T   T
 13.1599977004629718 11.9063607545338090 34.5163713156724015   T   T   T
 31.4295969082322273  1.0783878937961158 40.1712632378986925   T   T   T
  0.7576922427255555 12.5308304088207016 25.1325462916653848   T   T   T
 12.8112862744305076  9.9929754433472802 22.8347811261385445   T   T   T
 18.9634955793531930 14.2315720331104849 18.8976051573653763   T   T   T
  6.3669014117605540 20.4332650589108695 14.3432732571641051   T   T   T
 12.9635150669554520 10.1556134884957991 37.0174531111465299   T   T   T
 18.3870482837391265  0.9224916566455267 34.4811151244545187   T   T   T
  2.3168986922704096  6.4452880122674907 28.4320608748355568   T   T   T
 22.3523747486851789 14.0101975323122030 22.2601307487707878   T   T   T
 20.1138120406320908  4.2148950076425571 19.5306941073121543   T   T   T
  8.7934653643525351 13.7328788851754098 18.8993278012557973   T   T   T
 14.9304484376707638  8.0761284703075926 28.1330667472226388   T   T   T
  2.5486050486612606 14.8895340947802151 35.8832784193408827   T   T   T
  5.2580957416259606  6.6370599594597097 32.3650205839271621   T   T   T
 14.9019013196225636  0.1073285112445317 28.4812116774901263   T   T   T
 26.3723088816995244  1.0309727497677439 24.4396573087795197   T   T   T
 10.6649845371268714 13.3308626747505059 24.4404424873125237   T   T   T
  9.9499898125649437  5.3485747955718050 37.9266137879529879   T   T   T
 -4.0344686821108251 -0.5864921041239405 38.1399625177143022   T   T   T
  2.4515648718029674 10.4031798246450400 26.4384234180791289   T   T   T
 15.2709984628277393 -0.4140879461222426 32.0022042128379240   T   T   T
 23.6666676674109908  5.4336667754407122 12.9370422564786782   T   T   T
 16.0575022872769040  1.3563033666611211 17.8120396101872203   T   T   T
 15.3277534513626552 13.8005124139659241 40.0529094442435678   T   T   T
 -3.3608054928380273 -6.0369545232058934 30.8559604868417345   T   T   T
  2.7538479334868087  6.5126008490561711 32.3352011014137801   T   T   T
 15.0164841735314720 11.7885899768986935 30.3301246385689822   T   T   T
 18.7433473644277697  7.4622428612232738 21.9949359315989490   T   T   T
  7.2634036893076352 12.1502304558886571 25.0658825391802225   T   T   T
  9.9002277235100333  1.9282870258430094 31.3509731343996094   T   T   T
 18.3606266775671330 12.4693461295537276 34.5862585103977764   T   T   T
 -1.7680401608761702  1.1601855703419239  0.0638072070218313   T   T   T
 11.6751999689100696  7.3127257949620486  0.3519591596381420   T   T   T
 16.7578710016363885 -0.1027839731904572  6.1282611050270059   T   T   T
  3.9856665673281180  7.1273313267749199  5.8820457921646332   T   T   T
  8.3746092250221889  0.4771077687355558 11.7212545327236146   T   T   T
 20.9849015820021734  7.4521161271916601 11.4375411375651979   T   T   T
 22.8664070521868510 10.9272408214625543  5.7957915137131826   T   T   T
 10.9970116000289444  3.3016818475149714  5.7242910930398221   T   T   T
 14.3502839425386934 10.4816154285526224 11.6817184458105388   T   T   T
  1.6767316241189643  4.1069925538622138 11.6436081374565621   T   T   T
  7.3022070854199059 10.8779553618554061  0.5940152938671459   T   T   T
 22.4026219745806898  2.9223481418017498  0.3376150176525696   T   T   T
  4.3685228949960173 -0.1982458881051097  5.8572114974810168   T   T   T
 16.8312351244191944  7.3463273631962736  5.7924000213680777   T   T   T
 20.7736266671616150  0.2282388987799352 11.7512133131225447   T   T   T
  7.9701281747594948  7.6238892891245618 12.0656457324150939   T   T   T
 11.9650948155926091 -0.6416658544076841 -0.0985278393164243   T   T   T
  0.8860392204168864  7.7558904801438002 -0.3942712742909036   T   T   T
 22.9624595445867143  3.3102945249644793  6.2147041038800355   T   T   T
 10.0520840004486800 10.5973054227445882  5.2775264343641464   T   T   T
 14.6893487073269036  3.6990299539547293 11.8943688501568019   T   T   T
  1.9363569007683965 11.5413321453985596 11.6354695140483138   T   T   T
  2.7796280704341845  3.1646546778939091 -1.9693435565110029   T   T   T
 17.5592674052307274 13.2212473937326784  0.3721155868114172   T   T   T
  8.1559414260283631  6.1071682758608938 19.5864074378670381   T   T   T
 21.9908058566792874  0.8045236709517621 19.0634384282763527   T   T   T
 24.9832892824734429  6.6116987188012439 31.3970418076518705   T   T   T
 12.3945373556843776 14.1783072952458866 31.5325932194312131   T   T   T
 17.2890479662453558  6.9843300072104819 25.3652431860600274   T   T   T
  4.2561687022606014 14.1144923902215549 25.6485372430413037   T   T   T
  5.8067297209205018 10.5989264520001978 31.7106486236256337   T   T   T
 18.6758241380563774  3.5171881522588078 31.6347411274106634   T   T   T
 22.9042566960995941 10.5647594941737744 25.3369399649494440   T   T   T
 10.6504650029853725  3.0056362893114734 25.3439227521256605   T   T   T
 15.8683893447421269 12.8068854770872118 18.2631642190886616   T   T   T
  1.2513778216201998  4.7206461878460395 18.3841733719401752   T   T   T
 12.3175967823468753  7.2063579995812850 31.2234321840299067   T   T   T
 25.2486304193026356 14.2821584051137354 31.5861852033804738   T   T   T
  4.3046885393201348  6.6131600245243982 25.7046573469633373   T   T   T
 16.8710000261029407 -0.6952715814416800 25.5223203103173866   T   T   T
 22.0269648661729960  9.8855941398987746 17.5245464712902823   T   T   T
  7.3746853002830708 -3.3172418539132895 19.1161659001088076   T   T   T
  6.4610439136062219  3.4323936136151865 31.5132606697395552   T   T   T
 18.9500748479283345 10.6578268142894519 31.3068717502154072   T   T   T
 22.9486971147789944  3.1770619197646708 25.5980315670996781   T   T   T
 10.3949797209006540 10.2218830354928052 25.7695105253567007   T   T   T
 14.4834755686405625  4.4001229664067196 17.5573529000362107   T   T   T
  2.7270878824066043 13.1418261296075229 19.8151008236867305   T   T   T
  4.5267228922583085 -0.1745175832875349  7.8538365481319090   T   T   T
 16.7376757147155217  7.5477924857799081  7.7563875988017976   T   T   T
 20.7771010442025812  0.3730487640497729 13.7927088187567097   T   T   T
  8.0475160981052980  7.6566996953662727 14.2194798988220672   T   T   T
 14.1750084748843168 -0.4799639694280934  0.2321179185569505   T   T   T
  0.4964491540591462  7.2507793407523362  1.5765223622059916   T   T   T
 21.6837932772379034  1.9303225843490568 10.8903391142261778   T   T   T
  8.8668665794745785  9.1684304297597219 11.0514653213839171   T   T   T
 14.1106926226939642  2.9203004418487732 20.4362719238108888   T   T   T
  1.0023068889011899 12.5049394459837693 20.6908206572256255   T   T   T
  5.0825461106120349  1.7025612233181380  5.1711041096719059   T   T   T
 17.5413850732826120  9.1583174877077571  5.0558489693267639   T   T   T
 21.9921260718965570  5.6087942461647575 10.9909906298478113   T   T   T
  9.5238816710612806 13.2390396692631906 11.0373673000550259   T   T   T
 15.6507362761609112  9.8122635915903853 20.7865632238414584   T   T   T
  2.8513905533881347 15.1953942113118838 20.2832371501966726   T   T   T
  4.9455070827879393  5.6063007074200772  5.0909393377417196   T   T   T
 17.8486600579874946 12.7648526909098745  5.6035767336639690   T   T   T
  6.4142050058512838  0.2812057570548075 11.0134416209242918   T   T   T
 19.1214310345433702  6.9825053254918767 10.7619876648353028   T   T   T
 23.7642543243880482  0.5498481228034856 18.0361646882835842   T   T   T
 14.6263389844933354 11.1996637007242974 19.4393520274107985   T   T   T
 14.7788647740378600 -0.4027207727503954  5.3214994033272394   T   T   T
  1.9931209450357645  7.3256218664034281  5.2539167844957468   T   T   T
  1.9035232924964112  3.4567373019217009  7.3756483855488151   T   T   T
 14.3478343042133307 10.4278511276189096  7.2037878960217787   T   T   T
 18.7764953131157171  3.7093136729058536 13.1923540687704364   T   T   T
  6.6030613566622858 11.3403090171365424 13.6870763660249057   T   T   T
 10.7969271699582841  3.2408435481100195  1.5129202869397984   T   T   T
 22.1676580021584613 11.7579496172104179  0.9992650764517551   T   T   T
 23.0465375288563052  3.4036371961671543  8.1841987036186143   T   T   T
  9.9187462072959995 10.4949959906431332  7.3181509609028623   T   T   T
 14.5606611448404486  3.1707832114765817 13.8943402863716461   T   T   T
  1.8682621672918815 11.5586171270844265 13.7025407596599731   T   T   T
  6.2201528529767547  3.0558726059415640  1.7416843734104897   T   T   T
 18.4557062470550264 12.0578682115684384  1.7840397422148782   T   T   T
  3.1451296113025013 13.0400067871657761 10.9508944074897911   T   T   T
 15.6684119480496697  5.4181345626969826 11.3162779150287349   T   T   T
 17.5301440563606121 17.0858257929468706 16.3845555045180973   T   T   T
  9.3841283662241128  1.1718750045527033 17.9268403772352478   T   T   T
 11.0765760714393018 12.3787029162912035  4.7786978717803326   T   T   T
 23.7758807165093558  4.8468656691481735  5.0426390010298059   T   T   T
  2.7644863041722805  2.3435911098711535 11.1377575851402248   T   T   T
 15.5882552758320241  8.9857808028801163 10.7973220692206571   T   T   T
 20.2456492991543158  4.7179118770608461 16.8726673979261861   T   T   T
  9.8645013769889687  6.9169904838066882 20.6275896767384594   T   T   T
 11.9207573404637461  1.7185910234003194  4.6290684790692467   T   T   T
 23.9378207010155108  9.2561186086877196  5.1088032183737084   T   T   T
 -0.3296375509071975  4.1805446461667888 11.1972409032471045   T   T   T
 12.5140366914549528 10.1550134577565885 10.9585331419476955   T   T   T
 18.1764781010613987  4.1025268231355998 17.5912303699725001   T   T   T
  2.5004167307567333 13.2923864676266685 17.5877331119694880   T   T   T
  8.9706796003579683  3.3154849389920473  5.1268567094071615   T   T   T
 20.9866902841892795 10.9226332582548764  5.2352973784708894   T   T   T
  0.0377019763085726  0.2718779863905968 13.7436924862863030   T   T   T
 12.6287840375681331  6.8748539519528435 13.4462052083826382   T   T   T
 16.9645116544315400  0.5457425819810314  1.3369872735268666   T   T   T
  4.6932247975343664  7.6261372439892225  1.7510337927611443   T   T   T
  8.5087479552920868  0.0567883157463044  7.2993687012662409   T   T   T
 20.9087464326179457  7.1523967321231297  6.8558853044662333   T   T   T
 24.4677099575250026  0.5255028734956655  1.7917353582689766   T   T   T
 13.2081370648704279  8.0597214236640600  1.5532046297604780   T   T   T
 16.5165636639833906  0.2638077793440305  8.1417601782570461   T   T   T
  4.1242702921351038  7.0231755491656687  7.9240714006957642   T   T   T
  8.5618615996598635  0.4616441421731891 13.7330999648905632   T   T   T
 20.9171791174553405  7.7909121597913611 13.4218172466905692   T   T   T
 21.9372098081826721  9.0886402587249364 10.7089624648580397   T   T   T
  9.2685506141767995  2.1417971049775071 10.9180356279316229   T   T   T
  9.2929461555548389 10.8547166010426945 19.9154940336791029   T   T   T
  1.1530494498966959  2.8764338241715701 17.3968359177265768   T   T   T
  4.9357611023580814  8.7983498887675022  5.2659408388541404   T   T   T
 17.4064643147271241  1.5608231060864854  5.2473241301860574   T   T   T