Li P  S  Cl
 1.0000000000000000
    20.5609999999999999    0.0000000000000000    0.0000000000000013
     0.0000000000000033   20.5609999999999999    0.0000000000000013
     0.0000000000000000    0.0000000000000000   20.5609999999999999
 Li  P   S   Cl 
 191  32 160  32
Selective dynamics
Cartesian
  3.4099982212514215  4.4980897445639076  1.6375644632030395   T   T   T
  5.1297211650050576  7.7900123587364511  4.3358253270758231   T   T   T
  8.5140507370566691  5.8312671181732361  4.2559585107346081   T   T   T
  4.9163120004909020  3.2395946172745038  8.0497238998513794   T   T   T
  7.0061603554871885  3.9562471249650972  9.5749556359712873   T   T   T
  7.9126884878759345  6.3177845173746370  0.6268777838493591   T   T   T
  9.6665301873588767 -2.9608770758181251 13.4592045304755192   T   T   T
  3.8425921663519156 17.9609289913186529  5.4837963771966285   T   T   T
  8.6988789859705289 -0.8427051452005542 12.7469364566458783   T   T   T
  1.0354832904908746  0.3785848443148029  2.2923423282795832   T   T   T
  0.7620876299357268  2.5022449665065949  0.4679812145846097   T   T   T
  1.4363787675139881  5.5286562769495839  6.6657488340792153   T   T   T
 12.3901384858691550  4.4845045795404275  2.7315985726182221   T   T   T
  9.6977807370629847  2.5716493365668804  8.0907602262705360   T   T   T
  3.8718714925954925  2.4135925207960129  4.1640099537635615   T   T   T
  2.6603649399658553  9.6045887649517798  6.6558355183344178   T   T   T
  8.0256074881183910  0.9110352407283114 10.2261957477043364   T   T   T
  5.9207016633002088  6.1251302077085912  2.3275437818538460   T   T   T
  1.7066341867310850  8.1812499880671599  9.3408380275900100   T   T   T
  0.1846145428154372  2.5949111596808927  3.3989876477637795   T   T   T
 -2.5702609105523013  0.4619274461929778  6.4410364612144146   T   T   T
  4.2111406080459686  6.4380401232615734  7.7102696092841603   T   T   T
  7.5214025405512448  2.9958612509014984  5.4984849418082238   T   T   T
  7.6994538857768839  9.4390756303240337  1.1017988977688122   T   T   T
  3.1606905864200199  4.7894997198497329 10.8220382568411502   T   T   T
  4.8715354350162245  9.0346502718318007 17.4988699694141303   T   T   T
 10.3195966922758835  8.3465644704795512 12.6159334719597851   T   T   T
  8.1351025732811859  0.4457984201621774 19.4699258171463754   T   T   T
 -2.7826819902648894  2.5278402377559988 20.1146629401170287   T   T   T
  5.1792442661670313  2.5547675058774573 13.3416377676211741   T   T   T
 10.2387528941191412  2.2397017866703588 18.3968088201510938   T   T   T
  8.5838800807079032 10.3586362240171308 13.2288679323171898   T   T   T
  7.3480913819830560  3.6544065226989066 20.4674017929673653   T   T   T
  5.5705085213114218  8.8540480339243821 14.3655028809090837   T   T   T
  1.4356006072440188  2.1564689914919368 11.0002793069575677   T   T   T
  2.1694644597121271  8.2818863268988192 20.2395628339406599   T   T   T
  6.3065881129675025  7.2816679379666587 11.5332671494299976   T   T   T
  9.4578873970792259  3.1437123040952035 15.3973237291728946   T   T   T
 -0.5076400510986727 -1.9967510487980455 12.6741519204811226   T   T   T
  3.3878291408865935  7.3801144580271485 15.8921918706781593   T   T   T
  8.6356769017728947  5.2785558161239008 17.9422158008953119   T   T   T
  8.7447274276210987  8.4651681720161580 10.8186695194323690   T   T   T
  1.8389508713797480 10.2725544974258458 18.1713078192304636   T   T   T
  0.8279389234585629  4.5028084281205922 13.2484630002518955   T   T   T
  1.5063184667129548  0.7795516332727395 13.4702264380709824   T   T   T
  2.5433631365120801 13.4217389859812180 25.5823406573479915   T   T   T
  5.9038973567593640  2.6573654990587858 18.1508858333471679   T   T   T
  8.2243167299231015  5.5151343796422641 13.2012105941681952   T   T   T
 -5.3944069048619481 13.6309524183637691  8.2458321987536412   T   T   T
  3.6010610188879149 18.5098702537668416  9.1878497657246747   T   T   T
  7.9079800707847445 17.5550743360729555  4.8472624345232980   T   T   T
  6.5165548875799528 12.2690256291101036  5.8360296300432646   T   T   T
 -0.2966308452737424 18.6570832945828968  8.4638424375714809   T   T   T
  7.3754212781082931  9.3593276622573924  4.7289356830419260   T   T   T
  6.2254777964017700 10.7801741337676269  8.0839254791172586   T   T   T
  7.8328440370583348 15.5198589856771321  2.4981723645672647   T   T   T
  8.8346042466595289 10.8308093432759858  7.3992811619446508   T   T   T
  6.9554284076488235 14.4233272149357603 -0.4480968986111055   T   T   T
  8.9090274880000493 12.5818780367901812  9.8606589869898151   T   T   T
 -0.1495430271864645 22.4332488285428155  7.9979386983364025   T   T   T
  9.4627498663559191 18.3472249485584200  2.9882674535565230   T   T   T
  5.6948457004726531 13.3566884441456359  9.2126853695199173   T   T   T
  2.4629536954728839 13.3076151510293990  0.4594966946925528   T   T   T
  1.3395176817943302 16.3142841965000187  6.3952778512059663   T   T   T
  2.5633745343967522 21.5413259490573523  0.3671978000789760   T   T   T
  6.0102196840929603 20.2551840640309635  3.5643573325786173   T   T   T
  2.8960550077383580 16.0289351677344527  8.4879238913933683   T   T   T
  4.8049356113046349 11.9327355190969300  3.1333685453836551   T   T   T
  5.1281357087142636 16.8220223897072287  2.2262464122761076   T   T   T
  2.6094616587319508 21.0418194000469470  7.2591179423601959   T   T   T
  8.3600880995835549 14.2167903991341742  6.8420856027641195   T   T   T
  7.9083985835452699 17.8210350548692773  0.3013344747406535   T   T   T
  0.2540376596620892 13.2914657132319114 13.2907931760924818   T   T   T
 -0.0362288570844681 18.9613712592808170 18.9952747435437885   T   T   T
  7.4893481982101973 15.5848243784376823 13.0178441284853310   T   T   T
 14.9408111620821362  5.9603978637240731 18.8673609428559246   T   T   T
  3.4585272750603080 18.5719961831720539 15.6387417321077518   T   T   T
  4.5441295428873749 13.4843398862384749 12.2780453153140776   T   T   T
 10.0539816165326439 13.5274880498710726 17.0322319731065477   T   T   T
  6.8680716469716554 18.8455478277148956 15.1589240885258896   T   T   T
  1.8353652293939187 10.3491623784108775 22.7643155774588166   T   T   T
 13.8246491053675005 10.4674004775706546 13.2731992481563026   T   T   T
  0.6114130076152230  7.2630248389982439 16.9555399704835921   T   T   T
  8.6692522222402548 10.7994685829211203 18.5393822178673560   T   T   T
  7.8734902471281902 18.5513524952730080 10.6370934362334904   T   T   T
  8.0780319079806144 15.2882503680111448 17.1365210952576348   T   T   T
  2.5387793703362305 15.0375730379417583 12.5111893594506665   T   T   T
  1.3756793955539188 17.2316248942569388 16.2663976848566847   T   T   T
  7.4496970287648709 12.6831979604941374 15.8278128680287722   T   T   T
  4.7413987801509636 17.3703981842244843 19.0696503847674776   T   T   T
  1.7038098874016845 11.8168394219019088 11.0978964026303082   T   T   T
  3.2470454703133789 12.5879450976617679 15.2090821268078127   T   T   T
  2.9663921580796457 15.8301573536997200 18.3944349185024265   T   T   T
  5.4239032871046868 12.4340818605747199 18.0031164859953918   T   T   T
  6.6846699416547617 16.0826178692853006  9.7163198357949518   T   T   T
 15.2602888970021837  2.0463030429281073  2.8737629776312015   T   T   T
 14.7619758715818055  7.3433824019538703  5.9273627455010534   T   T   T
 17.5985038638914979  9.0608511788891750  4.0362314362703113   T   T   T
 16.0194903419877441  2.5019084882824840  7.6141667819295744   T   T   T
  6.7648094140743744  0.3809638749488586  7.2951237907213891   T   T   T
 15.3433619968559007 -1.6655506858578306 -3.4318020280567429   T   T   T
 19.4951486832721130  6.9673827280380065  4.7192456902036000   T   T   T
 24.4332701068692728 -0.0372007776934708 -2.8677821007007882   T   T   T
 18.4197725382331328  3.1152010607881295  5.3014826068128871   T   T   T
 19.9110676468877372  8.9754332490267448  1.7201715022158177   T   T   T
 12.3260894465070550  0.3999079369077557  1.1566994931082617   T   T   T
 12.7729854718555718  6.5014169878906545  9.6676075173791265   T   T   T
 15.2580149088502495  8.6751829285295941 -3.4432374887158388   T   T   T
 15.4150954300908332  6.7197726022495772  8.7173239324837581   T   T   T
 13.6421166636645168  2.7373925585544483  0.0084780485889841   T   T   T
 18.3362608627272969  8.0320093846989966 10.5048466297564058   T   T   T
 18.1102493343535791  2.1262474475389657 10.0066689023995927   T   T   T
 20.7836800999313702  6.1265107665842633  2.5369648060227807   T   T   T
 13.0446407366173140  9.4513195392374918  6.7631870450857399   T   T   T
 10.3703709431289735  2.7738369979950992  2.7746030313502912   T   T   T
 13.3153558756666683  1.1248315121542960  4.3825037499557871   T   T   T
 10.0539858589893640  6.3286106328257379  6.9486658899488898   T   T   T
 12.8353863680756728  5.3622767557187148  5.9527000412548343   T   T   T
 18.1630076455509517  5.9065752674831682  0.4956254115018507   T   T   T
 14.5043978940206593  3.3930650494829515 11.1483529950755162   T   T   T
 11.2689047770795039 14.3687575169800503 13.2047182748063587   T   T   T
 23.5054501047612057 10.5458732014796794 13.6163203714042229   T   T   T
 18.4044507938498931  4.8233828977841329 17.6658238349013601   T   T   T
 10.7849373867075879  8.8515804460303205 18.4632777518381346   T   T   T
 12.3762719101184686  0.3109780284929885 12.5440598312000944   T   T   T
 15.6869984129612874  1.9006510064823972 17.1254777362502750   T   T   T
 20.6683088174881995  7.8593221260381423 13.4871002754360276   T   T   T
 20.3304702666823793  2.1785149605732506 18.2339233528536298   T   T   T
 18.2601448689472612  4.7916832699341168  7.5497227727309086   T   T   T
 23.0096556401588401  3.4119822111257188 15.3411234640576577   T   T   T
  9.6525540624154349  7.8826070700884765 23.1519767504961465   T   T   T
 18.4971013647182225  7.3532133346465116 15.0980061957765006   T   T   T
  9.0912671703280132  7.5759670012535771 15.3445430823379976   T   T   T
 10.8826851560469517  2.5420941689922998 11.4832746655213214   T   T   T
 13.2424783794153011  7.8813836521614258 20.3001529792316546   T   T   T
 17.6037712516603762  2.2175204171840068 15.6200013236213273   T   T   T
 17.2913632540234765 10.2715297410969839 13.9273559412821850   T   T   T
 12.1509220917647482  6.0597675366553458 17.5122101303017530   T   T   T
 15.3830557012944364  2.1895004125433970 13.4043500218143645   T   T   T
 12.7928836265866739  3.3001766028703319 15.0996149064752867   T   T   T
 13.3363449422691787 10.2510454025442890 16.8815897843426654   T   T   T
 17.8843114188475560 -0.1661778026476356 17.9069249749437702   T   T   T
 17.8006926823425253  5.3453394849195952 12.8566372364991235   T   T   T
 12.8927616123349544 10.6141863024376022  3.1790289310078110   T   T   T
 12.5231891241255848 20.1091586824403734  8.6575415590729907   T   T   T
 17.1928382593435600 16.9183236142748186  0.6051849730595185   T   T   T
 18.4749362434943905 13.5626615297539086  4.8260626381303897   T   T   T
 12.4480806000608180 15.7737558503465412  7.8014273890267791   T   T   T
 13.0576303237927043 15.5126675709935125  2.6069500928444911   T   T   T
 17.9228157908619856 14.7883624874540303  7.6387254876240176   T   T   T
 18.5376718718704794 17.4450290564415980  5.0861151284824633   T   T   T
 16.7098881256328866 10.6128077934647056  6.9700675408619714   T   T   T
 14.0860609144356204 17.6280019089372004 -0.2108947201973216   T   T   T
 14.9660130638501325 12.8079939670290859  2.7956327077980512   T   T   T
 15.2447765415997480 19.0717834235894941  6.8463361079374572   T   T   T
 17.3952335497445283 13.7751043221000664 -0.5631801491306837   T   T   T
 15.9909928044518583  6.4143711013176654  2.2793106428453127   T   T   T
 10.1123457788571578 13.3085055390741491  2.8475361534573271   T   T   T
 10.6081293895771349 18.4863878915242310  8.4165465260862629   T   T   T
 17.4953308404447192 12.6240686353666884  9.5226070334759321   T   T   T
 19.9604023314504104 16.9952524125997826  2.5540339350467414   T   T   T
 11.8909317323074060 13.3121133961292060  5.2362502369616113   T   T   T
 17.4703080066647871 19.7276147138872489  2.3587424342397916   T   T   T
 11.5003068620930904 12.3179746286626077  0.3188940017248256   T   T   T
 12.8181160713378830 18.2063579301722669  5.4590693116807820   T   T   T
 19.7882205100141846 12.3514635278799965  8.0258746440641939   T   T   T
 16.3058502575243516 15.7887387145902665  3.1625381502562941   T   T   T
 13.0402065888986503 13.0604509982641677 14.9948561890236984   T   T   T
 25.3867249486154805 26.7543479648682521 18.1801034709295166   T   T   T
 15.0807868224605954 18.2158650527167936 12.6013968176606177   T   T   T
 20.6386863062159485 13.0783030837950687 23.0313881517734984   T   T   T
 11.1144969255603367 16.6628392471452429 17.6897192320215453   T   T   T
 15.2861138475188287 13.4443607213493834 12.1243554347673044   T   T   T
 17.5038348015982592 10.9071573671372732 16.9279200797866380   T   T   T
 13.0554618826839217 15.3194517214391457 11.2790741726068262   T   T   T
 18.8966306240548398 11.2187297089671443 19.8093212301724932   T   T   T
 18.0522899054834198 20.3393801616972141 11.6110741363649339   T   T   T
 15.7455114531887208  7.6530214873554687 12.7004420218555545   T   T   T
 11.7257824624224583 20.3946676487651075 18.2121698223412665   T   T   T
 17.8900612939458661 19.0195337568395715 14.6749077651503370   T   T   T
 20.7501064429512176 13.9165289279411581 17.6360865361995280   T   T   T
 12.6983299070070039 12.1214588769449367 10.8698619374740897   T   T   T
 12.6970717669231501 17.8696026002592419 15.4808377488891455   T   T   T
 18.4118900362855591 14.5227953306939863 16.1017221895160887   T   T   T
 18.3828370493574802 15.9716795979536084 13.2333700517956032   T   T   T
 13.9277200885443815 15.9957664062242344 18.5225514324749980   T   T   T
 11.6209410606279739  8.8826894433818051  8.8470756213061073   T   T   T
  5.1217093062430745 19.0799677036961555 12.8666232256468209   T   T   T
 12.5796479640149670 26.0939401942879527 13.0384231821441645   T   T   T
 15.7451053431552825 13.2385142481858775 17.6126783905920377   T   T   T
 17.3050743981436312 18.0205852580190751 10.1877005726205194   T   T   T
 -0.1411381690347971 -0.1407097733808282  5.0137960350765933   T   T   T
  5.4042801569804162  0.1972355621007661  0.3488157407624223   T   T   T
  0.4281989231158699  5.0895374020147051 -0.6887397498627172   T   T   T
  5.0834500020714399  4.9444861942057097  4.9944713596622181   T   T   T
  0.1295084801836878 -0.0269171258777895 15.4923844005554905   T   T   T
  4.8676511136782690  0.2833721390065125 10.2053620630800008   T   T   T
 -0.0965917573054579  4.6994083995783358 10.1661999778432328   T   T   T
  5.6901419623372194  5.2771853956966472 15.5020499940796821   T   T   T
 -0.4744109647625401 10.4351139261011170  5.0508957581680560   T   T   T
  4.9823560110323752 10.1023279116235827  0.2205832709741703   T   T   T
 -0.1036380625650296 15.6738474851212199  0.1725760653812952   T   T   T
  4.8162996605730166 15.1390931891530354  5.1855564270296624   T   T   T
  0.1099740451110903 10.3056673713744669 15.4202682359228280   T   T   T
  5.6546287779680124 10.0934193898054954 10.8874800182472153   T   T   T
 -0.0137072806140790 14.9184725217465388 10.2184301313640038   T   T   T
  4.9750842437552203 15.3679443616956064 15.6110020233437901   T   T   T
  9.8361168884453694 -0.0894694643235059  5.5064464101037434   T   T   T
 15.1399297913905624  0.1398833916961019 -0.2177898573210890   T   T   T
 10.7802969256525483  5.2281060102712109 -0.0834604333379233   T   T   T
 15.4914808517410876  4.6868111835674480  5.2343912565152229   T   T   T
 10.3035304195209694  0.4315465626073574 15.4801843072267431   T   T   T
 14.9206801656980570  0.7680385426130554 10.1433671034923929   T   T   T
  9.9977439953660152  5.2155999404850135 10.1512986319201648   T   T   T
 15.6211352941706760  5.3141235418871764 15.5794931189808494   T   T   T
 10.4536400769436959  9.8392027722880382  5.3158236156452379   T   T   T
 15.4169139285197474 10.7418416360240752 -0.3014455576965085   T   T   T
 10.3008258767555123 15.6881815212314262 -0.0814251498759607   T   T   T
 15.1269532713439840 15.3624412324198776  5.5603061571122288   T   T   T
 10.5364596866126892 10.7037330656122087 15.5207312810600371   T   T   T
 15.1436670018269393 10.1012945525613489 10.2755862502887130   T   T   T
  9.8303429047716051 15.3815737283590188 10.4668057416222791   T   T   T
 15.4568223065378501 15.7394728588577379 14.9711563450930587   T   T   T
  1.0646848462715039  1.2111038171904351  5.9334880915824986   T   T   T
  0.7654907477698339  9.1121331604662181  3.9954550930200399   T   T   T
  9.1506350552417572  8.6568988297075737  6.4718159404925917   T   T   T
  8.9087206808535715  1.3204781563923149  4.2928244184008291   T   T   T
  6.9239770004903862  1.2122627989517967  1.1514730735029055   T   T   T
  3.6475065671326719  1.6403920153109104  9.3051828280414863   T   T   T
  6.7721995128248444  9.0521037201521750  9.5180092121913749   T   T   T
  3.8635961826678558  8.8087878558464396  1.4088090041200623   T   T   T
  1.6777584846888085  6.2714743732864404  0.4353204907418053   T   T   T
  9.2816296819862121  4.2663621794450215  1.2618425492932981   T   T   T
  8.7899687488326794  6.3760857984978347  9.1103776679342090   T   T   T
  1.1966771117262549  3.6029773344043625  8.7290829194708213   T   T   T
  6.3871051070303526  5.8808851039828456  6.2221845039834980   T   T   T
  6.0647437800950854  3.2802905101006123  3.4358070186150389   T   T   T
  3.5242492761839124  4.0155758700519470  6.0104333613370500   T   T   T
  4.1115857568265097  6.1404955680350177  3.5172896250247470   T   T   T
  2.3089171090132274  2.4531696022166596  2.3568107021826949   T   T   T
  2.3781847708081916  7.5184443452192982  7.0658829506912291   T   T   T
  7.6199780233096659  7.7603299372408134  2.6475692526356558   T   T   T
  7.2223760939955426  2.3653587437734025  7.8645892810259443   T   T   T
  1.2855129738236373  1.1128002323477388 16.5886441570297407   T   T   T
  1.6418757153557466  9.0183566992513882 14.8659914818157191   T   T   T
  9.1218326323388421  9.7589859883028200 16.7174616410991419   T   T   T
  9.4627990346202395  1.5291472235412684 13.8321977801868599   T   T   T
  5.9398668821978715  1.2820859396994586 11.6629396510820342   T   T   T
  4.3187507322565786  1.2992323582643868 19.5579561259652266   T   T   T
  6.2909419680014507  8.9949082329105110 19.5220583833358745   T   T   T
  4.7043626379945405  8.8340102425815985 12.1801323678067117   T   T   T
  1.0591664525406179  5.9952161249017264 11.3198719827078556   T   T   T
  9.0643955244912071  3.8963411066960809 11.2756993936777938   T   T   T
  9.9678914992694825  6.5085199299744092 19.2462236361710879   T   T   T
  1.6625538298213647  3.5728907594999941 19.1018158232771924   T   T   T
  6.9126636202663461  6.6501779011572504 16.4790155861622551   T   T   T
  7.0247049590656196  3.9112029156775341 14.4904741152120593   T   T   T
  4.3462974493238278  4.1599682251647367 16.8373875601403853   T   T   T
  4.3949751738079135  6.2689908124574281 14.2733377010506306   T   T   T
  2.4822964964069238  2.7801644110631449 13.0340939362356263   T   T   T
  2.8893173479693237  7.6294062926906836 17.9849245318833155   T   T   T
  7.8318052827627813  8.0148909387608533 13.1215758593198970   T   T   T
  8.1618345534082408  2.8970527944833053 18.2338767980463317   T   T   T
  0.7843250769216565 11.4627234947241394  6.2043655438989109   T   T   T
  0.8083209821894384 19.1825013723848343  3.8271096543076943   T   T   T
  8.5832570251617817 19.2434030531262223  6.5410340879396909   T   T   T
  9.0964452693292905 11.0881989221385293  4.3079869868296479   T   T   T
  6.1348086080217232 11.2383828098450476  1.3350335835134908   T   T   T
  4.3906027028173265 11.1673849299144692  9.7089496148726706   T   T   T
  5.8932670406057799 19.3961196755306418  9.4043335940708275   T   T   T
  4.1414427900381057 19.8727916139752807  1.5164401278600781   T   T   T
  1.1292115234575022 16.7765423053567915  1.2619335804420759   T   T   T
  9.1239933267972155 14.2590000931522471  0.8503956382479080   T   T   T
  8.7055406387000094 16.9633391134389555  9.1209307116939371   T   T   T
  1.2245939487084465 14.4661778622462585  8.7163577941046615   T   T   T
  6.2689902701910336 16.2553443163268199  6.1378201240666028   T   T   T
  5.8315910484689439 13.6726980879276763  4.0689494905263111   T   T   T
  3.4405942935619906 14.7512729808214473  6.7022933814020815   T   T   T
  3.6529134577736642 16.1635457803169587  3.9451031315904594   T   T   T
  2.6716870237035448 12.3526300904997921  2.6466910526891323   T   T   T
  2.5697055995221985 18.2534495159244798  7.3557857629161774   T   T   T
  7.2224328741672625 17.6885638481330076  2.6502968206665134   T   T   T
  7.4507919718388225 12.5755198259696339  7.9994844800259335   T   T   T
  1.2486598408943175 11.6868745563013281 16.3455621558803585   T   T   T
  1.1591753761840846 19.2542914084427110 14.3603949050657818   T   T   T
  8.9701490462525140 19.9546532630144426 16.5377271562753378   T   T   T
  9.5534948281320418 12.1509114054833063 14.2476893425283855   T   T   T
  6.7582899449768998 11.3205403355740231 11.9896562983475619   T   T   T
  4.1092930149156972 11.4117497726226347 19.4413322024023003   T   T   T
  6.3358250362398900 19.4201841047606223 19.3775408515815073   T   T   T
  3.3917448050663990 19.4963461353369354 11.4389481240677089   T   T   T
  0.5583852891368083 16.1044325258674945 11.8156901302247270   T   T   T
  8.3744962153264773 14.2481554580366065 11.2542882115338454   T   T   T
  9.2401413725721380 17.0361845422278790 19.1310147545794180   T   T   T
  1.3110503448768049 14.5013781181102974 19.6130583671681364   T   T   T
  5.9589901951293376 16.7449966267279180 16.8214615699597374   T   T   T
  6.1781125599295548 14.2132044000052495 14.4524934950851609   T   T   T
  4.0505945319932968 14.1065567128731040 16.8013035356438252   T   T   T
  3.7252764364583490 16.3861251478878245 14.2934785822240222   T   T   T
  2.5737666711692362 12.7468044276338635 13.0334237875451926   T   T   T
  2.3456860513965347 18.2140732100650169 18.1343286886593091   T   T   T
  7.4866599449511861 17.9664920166885977 12.9901304102337107   T   T   T
  7.8480188197545724 13.2740194356321979 18.1458098722688845   T   T   T
 11.1497356733123105  0.9382751063189362  6.8044866409567337   T   T   T
 11.3365629347224672  8.7304747806032950  3.9082057449225860   T   T   T
 18.6889681716728546  9.1004152266563647  6.1814252325433019   T   T   T
 19.0972366101213780  1.0781479643228642  3.9826563686047227   T   T   T
 16.6072738559221733  0.9554616228591335  1.0145167496785223   T   T   T
 14.0728901561891870  2.1615059581971043  9.0016313576428626   T   T   T
 16.5338654913673011  8.9145660601241001  9.1565507836211069   T   T   T
 14.1133770723302590  9.6055791412237852  1.2667669962033974   T   T   T
 11.8105872199926853  6.4559439724319203  1.2265989318431925   T   T   T
 19.4660824614377148  4.0297275889679804  0.5544615765665502   T   T   T
 19.3984797319103066  6.0202394955574805  9.1146494574324954   T   T   T
 11.2736650291241780  4.2800016524486528  8.7815520417921551   T   T   T
 16.5029212728808190  5.8651076496849441  6.6667337672688847   T   T   T
 16.7366483246206492  3.8088521035157412  3.9384129567770736   T   T   T
 14.0633736692022229  3.4109670479839309  5.7536514617093317   T   T   T
 14.1763872304660250  6.1569791646037979  4.0837450861616258   T   T   T
 12.7264934700024561  2.4159807452577544  2.5087470618875858   T   T   T
 13.1158637647844678  7.3576889003763650  7.3907287799651167   T   T   T
 18.5215844282716269  7.3281725258514872  2.3722578936166059   T   T   T
 18.3238413528068982  2.3822577177448951  7.6418420236333748   T   T   T
 11.6192482770700511  1.7101358185871047 16.4060303251370030   T   T   T
 11.7858493550998276  9.4342909051563595 14.4765981983533383   T   T   T
 19.6208464808388214  9.2033094725291278 16.6947559706813777   T   T   T
 19.5562570912949525  1.0630412695923566 14.0986240341033753   T   T   T
 16.3592870682265641  1.7567421221395156 11.4544788993475333   T   T   T
 14.2959987890443365  1.3207544878207689 19.0182585378934519   T   T   T
 16.4649786152522957  9.3799581207905618 18.9870488674920495   T   T   T
 13.6075319516295217  9.0279110477732818 11.2756073685546347   T   T   T
 11.2439071639845256  6.7469857920441392 11.1436752893285007   T   T   T
 19.6792504277214171  3.4785328012270154 11.5985568903968854   T   T   T
 19.7294921843919902  6.4582163850520562 18.9866462954787565   T   T   T
 11.7760727312009017  3.8044847031280051 19.4324245107082874   T   T   T
 16.9691226027712503  6.4064830534824253 16.7776953537343942   T   T   T
 16.2857522631455112  3.9576503352022154 14.3306959446531117   T   T   T
 14.3434249018868503  4.2967939612176194 17.0896768687361202   T   T   T
 14.4534386335195393  6.6204252656834228 14.6890687965960041   T   T   T
 12.9578528980035017  2.8575894918188305 12.8888929506742134   T   T   T
 13.1702455345569742  8.0972232881668571 17.7775807765733305   T   T   T
 18.1449933192331763  7.8737934645216088 12.9429518304756748   T   T   T
 18.0076044476923975  2.5077053606645534 17.6787550537535338   T   T   T
 11.5439341695494271 10.9611143813651868  6.6203296113586658   T   T   T
 11.0284639970467779 19.1550015921939973  4.3704618778146296   T   T   T
 19.4014798650469373 19.1834189845409568  6.2524993986594470   T   T   T
 18.9361215540591417 11.6279236973519566  3.7518636534878822   T   T   T
 16.4715378188187600 11.8766772848947966  1.0736190092904312   T   T   T
 14.0432340394056361 11.4445489588564477  9.1578837007637546   T   T   T
 16.3048273820678524 20.0659145623475794  9.0857211451603526   T   T   T
 14.2076278159723692 19.6812508946702422  1.0877804090292016   T   T   T
 11.2911644651100627 16.7335163472828086  1.4820979314515901   T   T   T
 19.3196173778455247 14.3520443713987209  1.1841133757241711   T   T   T
 19.1358673656602569 16.1706652086254508  9.1351186574029715   T   T   T
 11.2526134490001741 14.4426374721229163  9.4839363867367421   T   T   T
 16.1180060902038562 16.7766782892793813  6.5303986991572298   T   T   T
 16.1825331374446009 13.9773605435945552  4.5300828138590203   T   T   T
 13.7476249677738114 14.1965209216109063  6.5373523837126006   T   T   T
 14.3159262809960683 16.6412036596212403  4.0734903446504518   T   T   T
 12.7652970277502043 13.1793159409835976  2.7269545146663994   T   T   T
 12.5947445707372978 17.9237734776619746  7.6472315970168427   T   T   T
 17.8459542565676763 17.6637792769677162  2.8656062695857267   T   T   T
 17.4634559958383591 12.7324734540581748  7.3459161575071006   T   T   T
 11.7242869085263202 12.1049597861460345 16.7294278494345932   T   T   T
 11.3571807941380971 19.4302848514918196 14.1292237946010708   T   T   T
 19.4112714304349936 19.4368204811035241 16.7387353893168509   T   T   T
 19.6118044959842699 11.0776592478656362 13.9952188116512524   T   T   T
 16.3037096269713153 11.2211147877836463 11.6410470611715109   T   T   T
 14.2614002744026589 12.0080250927536536 19.0439451146238810   T   T   T
 16.2468450002868394 19.2252423592280195 19.2661864359759250   T   T   T
 13.7298929557655924 19.8933105803190102 11.1212481413205797   T   T   T
 10.9050954540310077 16.6440635774018162 11.8244972053823467   T   T   T
 19.4877758916342536 13.4908963171779508 11.0848153475753222   T   T   T
 19.0737967049355390 16.6266454681622449 19.5966202866230219   T   T   T
 11.8378880418313912 14.7070036645206628 19.5803175616734251   T   T   T
 16.7032420544975615 17.0937855973635351 16.2230818044232734   T   T   T
 16.7674477245892355 14.2372479250159607 14.2260017087224231   T   T   T
 14.2090806707380448 14.7352891795972951 16.3940044675002738   T   T   T
 13.8846961177566559 16.4851277966011978 13.7789525554572769   T   T   T
 13.1382713604645218 13.1512852152630391 12.7326801340248057   T   T   T
 12.8391367202623350 18.1841611199429138 17.6263780275958482   T   T   T
 17.6209894608692181 18.1877169822252256 12.4942972210234871   T   T   T
 18.0117432609715706 13.0689822038060370 17.9460657386553848   T   T   T
  0.6144123846400333  0.2651247600576196 -0.3375356246478956   T   T   T
  5.4277806035218452  4.9767033572997006  0.0647897184455768   T   T   T
  4.9703569999113713 -0.3597560226788569  5.5954836165983126   T   T   T
 -0.0395404350689767  4.7981383804340583  4.8559935641544048   T   T   T
 -0.9047774385865089  0.3477264447788697 10.0521937455934083   T   T   T
  5.3041317186748111  5.4048933783264355  9.9208569976995875   T   T   T
  5.1577663266107550 -0.1900534086649918 15.6770874697873737   T   T   T
  0.5651481401250056  5.6092217553368418 15.0217788636774063   T   T   T
  0.4611609625957798 10.2907774549932931 -0.3617814642444602   T   T   T
  4.7417752608700834 15.7873165114576235  0.0473324271301640   T   T   T
  5.2710592147082043  9.7895149236330283  5.5037174291399387   T   T   T
 -0.5529842752311808 15.4548234650097527  5.3326624438068793   T   T   T
  0.9181825018954372  9.9364807939004063 10.3192740499720355   T   T   T
  4.8839892917330001 15.4093790123648464 10.6400890665104324   T   T   T
  5.0603490821295107 10.6494965450574846 15.8675857612570290   T   T   T
 -0.0597512307316229 14.9579358824955087 15.0688690964468730   T   T   T
 10.4350100248058784  0.6495641550169236 -0.4491741695406926   T   T   T
 15.7691398669805096  5.0936381078193032  0.0607059618753408   T   T   T
 15.2950651036550678  0.3657724638822316  5.1807148427887029   T   T   T
 10.4167253316772577  4.9206996293365926  5.1172528586510486   T   T   T
  9.6687487950729913 -0.1679678898244435 10.6600508095719224   T   T   T
 15.2355828467116634  5.5604357895717742 10.7338503110847352   T   T   T
 16.0247531774760468  0.5394102082160095 15.1707330591313685   T   T   T