Li P  S  Cl
 1.0000000000000000
    20.5609999999999999    0.0000000000000000    0.0000000000000013
     0.0000000000000033   20.5609999999999999    0.0000000000000013
     0.0000000000000000    0.0000000000000000   20.5609999999999999
 Li  P   S   Cl 
 191  32 160  32
Selective dynamics
Cartesian
  2.2214359039953457  4.5858126214236803  3.1596164653243890   T   T   T
 -0.0358699300341540  7.5126794957161103  7.7157743108080643   T   T   T
  8.3368608651701059  5.7441624656218968  4.3160386797139694   T   T   T
  8.9224681535307333  2.2626558471732539  9.9649781595607188   T   T   T
  2.6970872017313954  3.5047438499032495 10.6623885531663447   T   T   T
  0.6786765185152890  2.4608552774987378  2.8521839407668139   T   T   T
  6.2277775601192005  2.5469761924248187  5.8894464400340381   T   T   T
  7.2701450223857593  8.8404990017523666  4.7591701192847751   T   T   T
  7.2093149847648288  5.4944702792560642  7.5642029949943801   T   T   T
 10.4317124017272178  7.9614484170089748  2.0457938597768277   T   T   T
  3.9314853326345931  3.1532106395599628  0.6185661899387638   T   T   T
  2.8135021376941833  7.1164689496699776  5.9565718158590082   T   T   T
  8.3315585590536259  9.8982369846464309  2.3081848408208807   T   T   T
  9.8903530998332592  3.2818993459245842  7.1383581631789230   T   T   T
  3.3878093720714748  2.4307399999423200  5.1380682962836559   T   T   T
  3.3301786236908448  9.8721588461625274  6.9931031303394420   T   T   T
  5.5484589769244348  3.0549238745682694  8.9052776162791325   T   T   T
  7.6499748077359673  6.6140369357909803  0.4003724320816588   T   T   T
  4.1234505275619808  7.0425659497614941  9.0907545566033647   T   T   T
  5.4000876809814926  2.2407075229653399  2.9319055425189071   T   T   T
  2.6550800050346024  0.2276062491569543  3.6401041670000200   T   T   T
  1.9110358061104020  8.5194970837443709 10.1682522143578478   T   T   T
  7.6576564879892404  0.3642560038623165  7.9381735369176303   T   T   T
  5.6600237428747624  6.9574431512732708  2.4309328218800839   T   T   T
  5.1701212967878813  3.0786125387477274 12.1577496321044407   T   T   T
  4.8764202842693214  8.2250618903328210 17.5267821812384099   T   T   T
  7.9020404018321466  5.6082039409734250 12.9458682440578450   T   T   T
  8.3104438695490312 -0.0866401795030973 18.7985683331545772   T   T   T
  0.5686161506193526  6.4921900657720304 17.7984210669004348   T   T   T
  2.4661612004529063  1.0035345407815555 11.4954619973843286   T   T   T
  7.3480495770964884  2.8719196122658124 19.8341296127670894   T   T   T
  7.3736499355772613  8.9893582884232988 15.0037391712699648   T   T   T
  5.4902143771197238  2.0890420097304010 17.3312829825208503   T   T   T
  8.2648117216701813  7.8527526232243652 10.2628406402896371   T   T   T
  0.0048369043486693  3.0623854314564136 12.9501182538394577   T   T   T
  2.6742283506981424  7.9474666367612201 20.3873404471993354   T   T   T
  5.6293660430879422  7.8393220142347833 12.1744012162446449   T   T   T
  7.0729489268664736  5.0132403607844678 18.3644788603746463   T   T   T
  2.1937124235903052  4.9373635996299381 13.3122046239139120   T   T   T
  3.5073907079518758  5.1255833386349261 18.3886766917385351   T   T   T
  9.6562717606717126  3.6732486622491618 17.7068834544156317   T   T   T
  8.5728942608508785 10.1388400355354253 12.4718663344576104   T   T   T
  2.5383431125476328  7.6613344291860139 15.8767488974506765   T   T   T
  2.9712410607767028  0.6464520262433715 13.9085461597841320   T   T   T
  1.7113271955260980  3.5968360250684710 15.7331660853395476   T   T   T
  1.3969295083077566  9.5087516326945707 18.2577769603034703   T   T   T
  8.0043461733777335  2.7510192298952640 15.6135153139640099   T   T   T
 10.2274013516585534  7.3099873156623598 13.1607832583070117   T   T   T
  2.8104076724684890 10.2321317630455777  2.3933627765884964   T   T   T
  4.7710028705129934 17.3773824810038455  8.3666475002537517   T   T   T
  7.3346831878605458 18.1913734728502376  4.4336067127773031   T   T   T
  7.9922058060472585 15.1981843822588178  7.0071818435917193   T   T   T
 -2.6236425130203411 23.1533629885114749 10.2069910701916911   T   T   T
  0.1985445700105924 13.2592064641255654  3.0169347564185616   T   T   T
  7.0942799464883706 12.2397462633863690  5.2310596751941825   T   T   T
  8.5440988747343258 15.4250699651499659  3.1209421780060662   T   T   T
  7.5019325192844786 14.1812159043831496  9.7501042445905703   T   T   T
  7.2976657618446517 17.2720702413984881 -0.1530751937539486   T   T   T
  2.7947325765885100 14.8958120197739312  2.6959127685698427   T   T   T
  3.4101815148668124 19.7895237657058054  7.8604192804528505   T   T   T
  8.3586452670906599 20.0849191219862995  1.8342802823950832   T   T   T
  5.4394104213820871 12.9162479885653898  7.5996197861011039   T   T   T
  4.8478133067575424 13.3706716652363440  1.2079186227294878   T   T   T
  0.6942672258614252 18.1697078422828149  8.7161957160227939   T   T   T
  9.9037350352586149 13.0942422013661908  7.8879806647319723   T   T   T
  5.5763872464084496 17.0131112514348644  2.3290386016838744   T   T   T
  1.8887752112564240 17.5176318247880296  5.5436883263735064   T   T   T
  3.5107977479615271 12.2266196114696655  4.5922477234666772   T   T   T
  0.8586555774785798 12.2898399306260622  0.3906310153631351   T   T   T
  2.2374470315571808 15.4153003192223803  7.5365192820180971   T   T   T
  8.3678722209650438 10.7369416645896063  8.9045944976195219   T   T   T
 10.0404678879405278 18.0452359537979667  2.0025613520182968   T   T   T
  0.4672207454635330 13.0262213674908462 12.8645374498484237   T   T   T
  1.9523230629959027 17.8244567769090487 15.5335146161202413   T   T   T
  6.7057861886495829 16.1531143126543952 13.0011356993875360   T   T   T
 10.1932007043755029 12.5352494035664677 18.7792540751467563   T   T   T
  2.6970847307348924 20.3903462864246876 17.9706819335733456   T   T   T
  3.1694537306415489 15.1267211864554181 11.2222119893006820   T   T   T
  7.4402888195809309 12.2786784400328397 15.8463156990645473   T   T   T
 10.0620206946899291 18.4232491725904381 12.6969576453537609   T   T   T
  7.6787823642145403 10.5524565211043306 18.8174221544370255   T   T   T
  7.2819531971492770 17.9205209974569684 10.3008922741388815   T   T   T
  2.4271116956057757 11.8931073596258603 10.6287483481670257   T   T   T
  2.3942729731541066 18.1268033519147060 20.5345995944327591   T   T   T
  5.2687522085832779 18.6849234704672966 13.4415460317719280   T   T   T
  7.4032039646493200 13.3182805118541534 20.3807154119273228   T   T   T
  5.6935639060931473 12.9192453629048352 13.0397246357325542   T   T   T
  3.3129513804625064 16.0909148245729412 18.5566055083120354   T   T   T
  7.9862602621853664 15.0584851941828752 17.6258705192837972   T   T   T
  8.4605141531694752 17.7018984069587795 15.3022704166122150   T   T   T
  4.8169514839019536 18.7633747953352739 17.5276939614375280   T   T   T
  2.5481715110144614 14.6260819859821094 14.4981028707175845   T   T   T
  3.0918933372575212 11.2552901741431981 14.5034310201947925   T   T   T
  0.3573960639055767 17.4448616145456228 17.8218526420756085   T   T   T
  5.4828082868890462 12.2640657937286583 18.0483638510197011   T   T   T
  8.5187379911083330 20.7736849097133138 12.2500066959612539   T   T   T
 10.6617196636517857  2.8451736823842655  3.7165087501895422   T   T   T
 13.4996793490418803  5.2049036821232706  8.3035818933884311   T   T   T
 18.4984444582580920 10.0306907983562770  2.4284431227015122   T   T   T
 18.6489027997690542  0.4037263140484053  7.8064157855176557   T   T   T
 15.3955441154751380  7.5567659009799497  7.9710765943218549   T   T   T
 13.1311722604521766  2.0282885356964933  5.0697928442724827   T   T   T
 18.0906094383778679  4.8955861059819608  7.5823844937684157   T   T   T
 19.8162576632648779  7.8044844934551669  0.3813153111993447   T   T   T
 15.5334629530809263  2.6540566976865669  7.4374373399891596   T   T   T
 20.4522007402699799  7.3286213072861921  3.4890353342809850   T   T   T
 12.9415895247149173 -0.1536093555577654  3.1877233232540241   T   T   T
 12.5880459816793735  8.0367132670940347  9.6454635768791164   T   T   T
 18.2456742216582697  5.0891476538650782  2.6276119010806198   T   T   T
 20.2874150155168138  2.4910515728596074  7.9717808874817280   T   T   T
 15.2425293795333161  1.9289628980815701  3.3601865540481843   T   T   T
 13.7188525466895861  8.1059562018986373  5.0092079744852951   T   T   T
 18.1755197188945630  2.4987743014478432  5.3847574769114770   T   T   T
 10.7848488901107071  6.5961612508523801  6.9977253648279083   T   T   T
 12.1063696645510337  1.7793413379172105  0.6022589772953117   T   T   T
 13.1496384357704859  4.6675324812495074  2.4398661989426595   T   T   T
 12.8669368266766408  9.5562415105707910  7.2929506865319063   T   T   T
 16.1797420142931188  7.4232175451323048  1.4809414125002809   T   T   T
 18.3205620175710777  7.0173625377612519  4.9271589666077604   T   T   T
 12.4813759501603663  0.7009356109753829 12.8712013686280535   T   T   T
 13.2174372243593865 10.1394903659931117 17.0152827051766167   T   T   T
 18.8624554079828002  7.1199620844840865 15.0557982277831890   T   T   T
 18.3027324973573258  2.7651415830585377 15.8774532696988047   T   T   T
 12.9280230530228426  6.5907129117564649 16.0572235009608626   T   T   T
 15.1018350230857408  1.9445122632533858 13.5923454082826272   T   T   T
 20.3209918473088891  2.4383745608653107 18.7052322660757362   T   T   T
 17.9678752951790841  8.3965546174996124 10.2102652867668180   T   T   T
 15.7834759394054913  1.7271611643771156 17.5612452380060056   T   T   T
 15.8144962388797605  8.6993873959289996 13.3676626888794345   T   T   T
 12.7694303695281590  2.2250862595401459 10.4080690051275280   T   T   T
 10.8480481724571192  7.7362869998287014 17.9760899676880399   T   T   T
 18.6234131684629176 10.3070190163582094 12.4273348176283029   T   T   T
 17.7537412725616548  2.7476089568092110 20.6536478938723320   T   T   T
 13.3972842462698747  5.0209972041508131 12.1456787460385858   T   T   T
 13.0823379664330588  5.8716058273307628 19.4826278518740104   T   T   T
 16.8218673213235022  4.5069974875325984 18.6464667023223214   T   T   T
 20.7281253298130679  8.2374121171087484 12.4660764770720558   T   T   T
 12.5109278971089992  9.0566725898412468 20.2825713566858674   T   T   T
 10.8136912556469156  3.3868755728333717 13.3702823815211556   T   T   T
 12.9485749583376020  3.4790535284996094 15.0899299250814334   T   T   T
 15.4829408028944755  7.7307540917508781 17.9544646868502085   T   T   T
 18.1720759568394925 -0.3022012270838182 18.4845188832239629   T   T   T
 16.9520185285674501  5.6103766079581217 12.4689919260767557   T   T   T
 11.0028320033563336 12.6805946025628593  4.0871878279213218   T   T   T
 14.5054138781462818 17.1475231105776444  8.5253725273005880   T   T   T
 18.3782172851403942 17.8100416570136169  0.3520732803234385   T   T   T
 17.0418643170505035 10.8859654013111040  6.4509212308272375   T   T   T
 12.2102381271059262 18.3852275744452953  9.7477314390697085   T   T   T
 15.5640504701012272 13.5825431779218011  2.2644374145695534   T   T   T
 19.5092367197736536 13.3840293075935648  5.8241208850592505   T   T   T
 18.4549014232815267 15.4411141566108370  2.6608407759516237   T   T   T
 17.3433227047682905 13.1721195370815352 10.0936537248365727   T   T   T
 20.5699769863269779 17.3469507295038525  2.9614701002592185   T   T   T
 13.6020381131081560 11.6423822670493688  4.8310521315531982   T   T   T
 13.8634304582986410 17.9792267249045850  5.1707680634864310   T   T   T
 17.8022017352801001 17.9765653947686239  4.6288358415936202   T   T   T
 19.7194147343627861 12.0657057546620141  8.4284281473540794   T   T   T
 12.0809115076220497 15.0094680607059487  2.9468267484732218   T   T   T
 12.0826141966577687 15.5945398403801647  7.1059011182364165   T   T   T
 17.7465244300174163 15.2359937906021514  7.6758173500603677   T   T   T
 15.7433744834783163 17.9577688063777359  1.6107965810081253   T   T   T
 13.1382537816116169 20.1449587504063281  6.9019099364592371   T   T   T
 12.6448587323867763 10.4947352796556359  2.1019276435361376   T   T   T
 12.3033956914115414 12.4257898055404965  0.1968257332170067   T   T   T
 10.5052600027320331 17.5341790634958592  6.0289245809399734   T   T   T
 15.3940811174010310 13.4144035943357434  8.1265791589818139   T   T   T
 18.6243398762949184 20.4988569845085919  1.3304973051316114   T   T   T
 13.0271994057706841 13.1840583099503306 15.0429566804685262   T   T   T
 10.3853492545658632 18.6094245920150456 18.1922728283777353   T   T   T
 16.8360335659099860 16.0996414086163995 11.5959827851135184   T   T   T
 17.8458508584403290 12.6445041627892873 20.2032822803084997   T   T   T
 12.4949580152110968 20.1592087371396360 18.6199203979134786   T   T   T
 10.5692271869056178 13.8416461690403771 13.4580536558742470   T   T   T
 15.4247090963391553 13.6179863482258110 18.1636085029133412   T   T   T
 18.6126606478881200 18.1665851133487024 10.3200405713995860   T   T   T
 18.0149588750327325 15.2325169647778882 17.6520286865488778   T   T   T
 19.1199237787868483 16.4769129965195660 13.8738269279991329   T   T   T
 11.9347456235006870 11.9576347598297783 10.7627323265779786   T   T   T
 13.4615153094327198 16.4543926020492250 20.1230256962880922   T   T   T
 17.5177029350841664 19.7148754305178500 14.6579531171019859   T   T   T
 18.0030677796692089 10.5016915376318281 18.1269871525819255   T   T   T
 13.1562591212454478 10.6384445989741945 13.7164196372270197   T   T   T
 13.5212308187515848 19.2875904557141560 15.9365869591065170   T   T   T
 16.7853445755119566 12.3716283858060248 15.6550599059797797   T   T   T
 19.5830726227691088 19.5387416093212636 12.1242435774381523   T   T   T
 14.7297559770731841 17.3558999802304683 17.8503339836943873   T   T   T
 14.8668823651913993 13.1927490867903217 12.0250758411729493   T   T   T
 12.6433380078363609 15.2849419881186126 12.6277563397637813   T   T   T
 11.6934587197347746 16.0347519394179052 16.8620001693850590   T   T   T
 20.4779629089476387 13.3748960457325676 17.2639736596713469   T   T   T
 15.7144283844033179 18.7187002448111457 12.6870320736463977   T   T   T
 -0.1455478815245946 -0.1548290943766464  5.0831461595231202   T   T   T
  5.1596718998777158  0.0906864055635128  0.0451208353151296   T   T   T
  0.2300158901515537  5.0111687246070673  0.1024891537538548   T   T   T
  5.0481302674303654  5.3092208411587789  4.9657811460127510   T   T   T
 -0.0182914427913608 -0.0741555894959652 15.1402266254487401   T   T   T
  5.0028514736721510  0.3562404209684587 10.2411621750776387   T   T   T
 -0.1873577823617602  5.1293975520218824 10.3084406864951177   T   T   T
  5.1596438322518399  5.2365444054726620 15.2957252009949851   T   T   T
 -0.0816050496172426 10.2414347326398509  5.3274246826698084   T   T   T
  5.2107345860633894  9.9693561636465251  0.0024336137876711   T   T   T
  0.1656798585397224 15.3893097936173469 -0.1102773557705560   T   T   T
  5.1196549443685644 15.1952846341206076  5.1482261064405686   T   T   T
  0.2040252438801194 10.7248750247174556 15.4866383679409605   T   T   T
  5.4514219727684532 10.2783403444115695 10.4249741508476497   T   T   T
 -0.1815375693255962 15.1069851502826324 10.5040750466043740   T   T   T
  5.2518931055606402 15.5096463363032502 15.8493674597440126   T   T   T
  9.9928772619134847 -0.1645501749817904  5.1201556973318620   T   T   T
 14.9249651802765335 -0.0635527150377798 -0.0131842629959211   T   T   T
 10.2790740450728002  4.7176267971878545  0.0393420133357374   T   T   T
 15.4019140757148971  5.0992533698905476  5.1304397053071122   T   T   T
 10.3297697545264331  0.1308874032819948 15.4182422214354826   T   T   T
 15.4075897993864341 -0.0917965078049649 10.0318036946508524   T   T   T
 10.4100640924018251  5.2157086778027217 10.2009506069976315   T   T   T
 15.6465156103592395  5.1523436042215947 15.5346825963507023   T   T   T
 10.2671612873475464 10.0540225596013926  5.1905602693145809   T   T   T
 15.4099967601996628 10.3400916062973689  0.0650980306567539   T   T   T
 10.3581822438229523 15.3152803886194988  0.0031931619945833   T   T   T
 15.6439211673076155 15.0597387598497132  5.0160999840954341   T   T   T
 10.3659595313849131 10.4815319308476322 15.7703951752710250   T   T   T
 15.3365576692568517 10.5743615886397855 10.4479107215581060   T   T   T
 10.0660171872872102 15.5828179327946099 10.2891461651430092   T   T   T
 15.4188986691184748 15.7666699176982927 15.0325080483346571   T   T   T
  1.1447800175662346  0.7913060229094377  6.3159167178888698   T   T   T
  1.1520697096315775  9.1074073613597015  4.2811674542145601   T   T   T
  8.9564080054662067  9.0276700054609744  6.4497767279713374   T   T   T
  9.1754202111442282  0.9566354625744435  3.6243867702086439   T   T   T
  6.4264645455055200  1.3381030444454187  1.1238885086753514   T   T   T
  3.8436757599693445  1.6831680003224117  9.3191040471219821   T   T   T
  6.2837789959570687  8.6710559677249623  9.5461643860871188   T   T   T
  4.2917242956617603  8.7764990491998880  1.5676266082112444   T   T   T
  1.2515332858119359  6.2424986054283336  1.4121214902784347   T   T   T
  8.9254068565752807  3.8822423414186353  1.5510947875637791   T   T   T
  9.2624293651201892  6.2973061830836379  8.8949652565082928   T   T   T
  1.1169084400960010  4.2799720873267457  8.9720578843239593   T   T   T
  6.1643156349125459  6.7009876544659077  6.0551426153270294   T   T   T
  6.4536252329874477  4.1232582475408801  4.0104990242583902   T   T   T
  3.9137701381989176  4.3911853668958765  6.3571605470464299   T   T   T
  3.9195006898937872  6.2608463914789452  3.6913507104149188   T   T   T
  3.0816478407286465  2.4801843395723093  2.7617630113261966   T   T   T
  2.4421921387778007  8.0233264782668936  8.0562148676991168   T   T   T
  7.9818920579530062  7.6379495232171006  2.6112254138604087   T   T   T
  7.5121173761154170  3.0683907663004706  7.8209438945190195   T   T   T
  1.0378845851982303  1.3223766129810191 16.1701406960766896   T   T   T
  1.3655340868066728  9.5194422445404534 14.3060525749771479   T   T   T
  9.3336058624536840  9.5309213345657593 17.2535570982745519   T   T   T
  9.1896772130878084  1.3340830206598153 14.0527975236710745   T   T   T
  6.6063199539976125  1.3322122599414310 11.2923172426071918   T   T   T
  4.0636753687963401  1.2675238599461431 19.3119723119140367   T   T   T
  6.4391568758811584  8.6602145256912664 19.3826739788153901   T   T   T
  4.1384411757785307  9.7303696632296770 11.7232567300671047   T   T   T
  1.0204511388839128  6.0655871278123721 11.6164988029748422   T   T   T
  9.3006251061727117  4.2471210238494566 11.7123215910466012   T   T   T
  9.2815427485197404  5.7472638533589615 18.9288045831915710   T   T   T
  1.5674692177614469  3.9526497766679998 19.5343225766490214   T   T   T
  6.2896612866563046  6.4643337135150238 16.4275272961309717   T   T   T
  6.3788905618874958  4.0128757081341258 14.0559364551819854   T   T   T
  3.9998490060921790  3.7834079922980450 16.4164070604128760   T   T   T
  3.9013579623327370  6.3966595071730232 14.2991856448661174   T   T   T
  2.5615808668226978  2.7790621302044709 13.0741617181462750   T   T   T
  2.5625380998041818  7.6656946434111033 18.0959880340735104   T   T   T
  7.9843296318385981  8.0160819001092865 12.9504164438295533   T   T   T
  7.7897823196332014  2.4065994134315600 17.6698428923652777   T   T   T
  0.8940976602058532 11.6314154466199078  6.2909515213720049   T   T   T
  1.0454790535950906 19.0840690382480318  4.0067698899725768   T   T   T
  8.7001435129604019 19.3822440056505449  6.2455677411552974   T   T   T
  9.2167320453860793 11.1688995468445764  3.9416059718794556   T   T   T
  6.4147545764367102 11.3785113622524143  1.0076108720706365   T   T   T
  4.3596831649024637 11.1147036772792163  8.8865467655860808   T   T   T
  5.8584941798561854 19.7101756065756710  8.8285787619049607   T   T   T
  3.9738095201978498 19.4174965327000706  1.3158504836819360   T   T   T
  1.3050151050661671 16.4555174375652520  1.2230448600306980   T   T   T
  9.3151765841804632 13.8719186092279241  1.2974940471766305   T   T   T
  8.9382112567433900 16.6117171239965984  9.0315408372284178   T   T   T
  0.9173215957083920 13.7238590535561720  9.3141616810171453   T   T   T
  6.2111114290299074 16.5141802952280550  6.2903674841963380   T   T   T
  6.1890529322831958 13.9803180513563330  3.8259059056970477   T   T   T
  3.8712540071821953 14.1376653762250655  6.4086385796377963   T   T   T
  3.9065730449193099 16.4127976841799104  4.0505664333782239   T   T   T
  2.6009297906625561 12.6542801485055314  2.3982896532022560   T   T   T
  2.5029432736998505 17.7585042447248824  7.7595527591246514   T   T   T
  7.7936119927131902 17.7459312854579316  2.2007637386993149   T   T   T
  7.6694882570571519 12.9208844670288450  7.5525647760698247   T   T   T
  1.6382116578178276 11.5587297006215053 16.7622840944536975   T   T   T
  1.2161550145208866 19.2931656970965442 14.0912273300349327   T   T   T
  8.9303124411471817 19.5733115327420677 16.4691344125696766   T   T   T
  9.0184239072528101 11.3037100258150485 14.5099504173483993   T   T   T
  6.8671569673888708 11.6070959608738455 11.2556365941462104   T   T   T
  3.9559021078659882 10.8223085880946464 19.2199545148815822   T   T   T
  6.2605573675713524 19.5050089532763167 19.4175570468575991   T   T   T
  3.8742494089567154 19.7779856254755266 11.4869242328104395   T   T   T
  0.8379260402401607 16.1974720281265654 11.8433141667547943   T   T   T
  8.7971976791226894 14.6167500576554463 11.6242704895414306   T   T   T
  9.2788319206332197 16.5311369434128359 19.3744237585587840   T   T   T
  1.4366152994219814 14.2480101099837952 19.2714684965281293   T   T   T
  6.2795891759132241 16.9436240207032043 16.9327976430165243   T   T   T
  6.7667984486612855 14.4598043897108344 14.8397110752306975   T   T   T
  3.9250100574497413 14.3718138907107598 16.8631736435708888   T   T   T
  4.2446167915907127 16.3545671558661851 14.2655223431770946   T   T   T
  2.8909816106961275 13.1643152734345072 12.6404008849945946   T   T   T
  2.5213127948031619 18.0555572991230342 18.0607485868074420   T   T   T
  7.6232958735610143 18.4020072831000512 12.8271273260977523   T   T   T
  7.7087586954252689 12.8346066368774459 18.2455324984463765   T   T   T
 11.1070248604560682  1.1409283858634438  6.3105624224436259   T   T   T
 11.4606570053961558  8.6825696648013668  4.1107791374460039   T   T   T
 19.2039919734693356  8.9807283337544526  6.2743208058610138   T   T   T
 19.4473925518671535  1.1379768775862042  3.8390156890937579   T   T   T
 16.2704899562364460  0.9895842550217752  1.3780401274917509   T   T   T
 14.1784005286941159  1.2582523299287485  8.9565615404547252   T   T   T
 16.4700690754498851  9.5643665731089431  8.9478443965976435   T   T   T
 14.3202896246093516  8.9369064065910777  1.2637409145538534   T   T   T
 11.4989426098646277  6.1217316611963737  0.8010107706772676   T   T   T
 19.5373742451915007  3.5800856799973810  1.2399691296178514   T   T   T
 19.1432382725296577  6.4037488612046527  9.2798327702832601   T   T   T
 11.4932538438795415  3.8389243741876156  9.1627700651586323   T   T   T
 16.5023182566149984  6.2040897153356305  6.4435427868976909   T   T   T
 16.7331575002080299  3.8455720976026995  4.1084005097251373   T   T   T
 14.1965836424608103  3.8568536170168204  6.1856693204347115   T   T   T
 14.4313340502524241  6.2286199421203570  3.6807055981454271   T   T   T
 12.8036968612791000  2.4199470234996663  2.7921123008847428   T   T   T
 12.8552083016362531  7.3559530297752040  7.5115849798354466   T   T   T
 18.4179981041918310  7.6017158874266340  2.4330261607317301   T   T   T
 18.0972457928037400  2.4090101099659642  7.6006326650057954   T   T   T
 11.6194170703608606  1.4986227222171444 16.5461478080498132   T   T   T
 11.4877050084818126  9.1285319451861344 14.7425706698932633   T   T   T
 19.7215474565424884  9.3800689821114638 16.7058261571399527   T   T   T
 19.0306701407507575  1.0970195848265694 14.2406806750213164   T   T   T
 16.4651218768809429  0.9039202619895144 11.3363267189744015   T   T   T
 13.9099670621136209  1.3761814853988703 19.4919740509266397   T   T   T
 16.7153548430939836  9.0652448259945881 19.4918061739960180   T   T   T
 14.1620170432135613  9.3616681886280304 11.4933019323092847   T   T   T
 11.5589398063181363  6.4735257931636250 11.2568733709316504   T   T   T
 19.1890659966118093  3.8795385942349458 11.4262059924004884   T   T   T
 19.3972374577758231  5.9878000328119096 19.4697856547439052   T   T   T
 11.4026470992243851  3.3438769452814370 19.4419361982481718   T   T   T
 16.9009728482887027  6.2692500431292002 16.7528313519605376   T   T   T
 16.5845700897348607  3.6018952508072153 14.5820376999442818   T   T   T
 14.1608494892664858  4.3666389576574609 16.7084451779675049   T   T   T
 14.6800261384386772  6.4242377972268878 14.2418845244736723   T   T   T
 13.2133080354921120  2.9159178112477919 12.8156393951980387   T   T   T
 13.0139947307485357  8.0859321485699400 17.9465471380454744   T   T   T
 18.1347903432410504  8.1042344347824073 12.8345755470337313   T   T   T
 17.9362935438150615  2.4240767176137976 18.3359470671847795   T   T   T
 11.4334281243278895 11.3305554755040649  6.4524479147773572   T   T   T
 11.2771776815279967 19.0323086391922622  4.2340629283624533   T   T   T
 19.2457212795616641 19.3445439306809774  6.3006556746077642   T   T   T
 19.0816437785455975 11.4789200337481123  4.0540165304369591   T   T   T
 16.5231804499792787 11.4312558188263456  1.4166988490186578   T   T   T
 14.2110957595278204 11.8647552081048691  9.4881279773186513   T   T   T
 16.7246381705739680 19.1511334049042041  9.0695954491635558   T   T   T
 13.5805690203679337 19.4615173989633661  1.1766136120477804   T   T   T
 11.5810913682055467 16.4296278417995154  1.2202334482878721   T   T   T
 19.6575009408370960 14.0192045657538333  0.9870799423934565   T   T   T
 19.4813466213856685 16.4068643110827743  8.9710864459158604   T   T   T
 11.3242264402229988 14.2267707079283099  9.2800223715972976   T   T   T
 16.3533009214494456 16.4994758208449603  6.2625689763586880   T   T   T
 17.1437449775799777 13.9204120723947025  4.2051663458791158   T   T   T
 14.3991872176695814 13.9229647125826634  5.9605358774266239   T   T   T
 14.5383332716559046 16.0628070560708487  3.3965305477632755   T   T   T
 12.9901076075756698 12.6688030524049040  2.6872880237106265   T   T   T
 12.5219364704567298 17.9981681108188916  7.4394642030030012   T   T   T
 18.1849136746637967 17.6607231365616784  2.5906709490092581   T   T   T
 17.6551629807505392 12.9426854096827046  7.6571978337147204   T   T   T
 11.5160504274627833 11.9898638632951720 16.6855620629273425   T   T   T
 11.6403888118632999 19.4282228344853607 14.1774294951441426   T   T   T
 19.4247957606415156 19.3258347945684399 16.3570951723885614   T   T   T
 19.6575400956135127 11.9113801600276688 14.4513534413444447   T   T   T
 16.5500324358915094 11.5273482157603180 11.7650341404165175   T   T   T
 13.9099877173706101 11.1509340721115446 19.2456426495884330   T   T   T
 15.9908360185795839 18.8572215205067053 19.6411631986072983   T   T   T
 13.9574372381840934 19.2047841434724624 11.0957484279897916   T   T   T
 11.3060667949865454 16.8471684501140970 11.3080141683995361   T   T   T
 19.1934110423157591 13.7854613873659275 11.5341389557590599   T   T   T
 19.2402347634148043 16.3087137446095518 19.4603224584480863   T   T   T
 11.6390741854904345 14.2026559250796254 19.5291059099105162   T   T   T
 16.7471789733398779 16.8373529289179729 16.4254454389676425   T   T   T
 16.3876240091159389 14.4897858390411081 13.8984640872083673   T   T   T
 14.1844831089426471 14.6608323937167988 16.4769953790133066   T   T   T
 14.2351275857634292 17.0204015788969656 14.0191393040559937   T   T   T
 12.4609392529410474 12.8950077787938433 12.9397094554246017   T   T   T
 12.6341799858573935 17.9663982629332004 17.7111039835906787   T   T   T
 17.8760546199848207 18.1438964663203066 12.6752932283327464   T   T   T
 17.7028245560079469 12.8132659898374168 17.7334326048579918   T   T   T
 -0.6879206261516909 -0.5004770151346306 -0.7809266672815025   T   T   T
  5.2973149951643821  4.7596676054723490 -0.3750430885561385   T   T   T
  5.4253282680925983  0.4383002170173315  5.4358430347222964   T   T   T
  0.0103695981717684  5.5435213197858051  4.8119793935771327   T   T   T
 -0.4676068362276574  0.2519173922942933 10.0482280530251042   T   T   T
  4.8354219492430897  4.5748166191020410 10.6060288572180212   T   T   T
  4.5853368866430460  0.0375201339768875 15.9155030854317285   T   T   T
  0.1349243319106653  5.3933277022450063 15.5080252539629040   T   T   T
  0.6481831721847814 10.0100635524010517  0.3606722199930887   T   T   T
  5.3690463125579573 15.4573342530615694  0.2614226392676761   T   T   T
  5.1330821270205158 10.4405158840469863  5.1257921285230763   T   T   T
  0.0380169887957171 15.1834366457911827  4.4880749915419953   T   T   T
  0.3084011802109242 10.1847905978873161 10.3424174072772583   T   T   T
  5.3010771744358172 15.9533230241120325 10.3086955809643541   T   T   T
  5.4919523196747351 10.8828260975777944 15.5917121921930786   T   T   T
  0.0999485500584053 15.2349416964770494 15.6807584847456774   T   T   T
 10.0752365222150431 -0.4387918490545655 -0.4904558117605009   T   T   T
 15.2691276693034830  4.8433857239420917 -0.2381013897511921   T   T   T
 14.8516520650909225  0.3025018896597954  4.7451142165579867   T   T   T
 10.2271910313186645  5.0591129440346778  5.2920638318075675   T   T   T
  9.7419304142559362 -0.1870439507130481 10.4516771166086162   T   T   T
 15.0286957897102411  5.3508205181869721  9.7760314440416956   T   T   T
 15.5003341778598607  0.3311771120620738 15.3652297728663960   T   T   T