Li P  S  Cl
 1.0000000000000000
    25.1819793006824639    0.0000000000000000    0.0000000000000015
    -0.0000000000000009   14.5388225279766061    0.0000000000000009
     0.0000000000000000    0.0000000000000000   37.2126966544236950
 Li  P   S   Cl 
 288  48 240  48
Selective dynamics
Cartesian
  1.0132615303332129  4.4564797546549979  4.7592788210493930   T   T   T
 16.6710471933108764 11.0223532774131243  5.4920139315428900   T   T   T
 24.6032473913104681 -0.9015207492371859 12.4175491212653366   T   T   T
  6.8943833074229293 13.5260629112614943 13.8786491487373258   T   T   T
 11.1942257457680352 -3.3930479587211688 -0.8234680499856546   T   T   T
 25.2592742728811643 11.3279584295576079  2.9858491950113679   T   T   T
  1.2310309861506146  6.1015660734834380  6.9297845719767466   T   T   T
 13.1011552358046259 10.1744491342262968 13.6491097341131606   T   T   T
 19.4263875327100948  6.3789334673576255 13.3745303796071351   T   T   T
  6.8989084472510758 12.6521142278623202 10.8136119092901097   T   T   T
 11.0666612866310228  6.4196185377620791  2.7094379251973502   T   T   T
 27.4864034635874432 16.0506657458803090 -2.6391163106413562   T   T   T
 -1.0155515135887148  9.5921814048545464 12.0235190286933840   T   T   T
 16.9512739477034415 10.2134108435171562  8.2913153867023297   T   T   T
 20.9860887533808835  3.4867655622098517 14.2366555423797774   T   T   T
  8.8048972494820745 11.5531594987657620 12.9717813467354866   T   T   T
 12.3786262941703846  3.6021063465408125  2.4095719413316257   T   T   T
 29.4602771387709623 11.5703601490890229  6.6684374685386487   T   T   T
 -1.3437866978335222  2.9525291582390820 13.1992628210334235   T   T   T
 14.6908968289845685  8.6926422808110111  7.5928534169675554   T   T   T
 16.6317429333403837  5.7758389694427059 13.5270009698278191   T   T   T
  4.3521822457913562 12.6941068385797955 12.8531750806429077   T   T   T
 11.1742360044259215  1.1609593287482216 -1.4953417988980360   T   T   T
 22.3347009338129183 12.8124109929248107  3.1858018622016364   T   T   T
 13.5916149124696695  4.4287346506582015 18.2742281326082860   T   T   T
 18.6724426260530549 10.3451380324984470 11.3663901946714212   T   T   T
 18.8274256305222849  4.0080689526611382 11.3781857698388276   T   T   T
  2.9659748088716924  8.1253865382813686 16.5850488591688467   T   T   T
  7.2432020565241837  1.0426431230546847  8.8046656807546295   T   T   T
 23.4500694449117901  8.9289518700437256  7.3537905077640815   T   T   T
  3.5012907426234454  2.3903313725742255  7.7386368115700934   T   T   T
 10.3593870745909715 16.7757418037263797  8.4246535656393871   T   T   T
 18.2358258397995812  2.0817484484457349 13.3143949577287231   T   T   T
  4.1073790657777556 10.0068901211523027 13.0696130971035842   T   T   T
 11.7524422825587678  6.4329506106604635  0.3583338213244804   T   T   T
 22.0483889205038821  9.0793464399915003  1.4600312749155071   T   T   T
 27.3279749786807216 15.1991556800074932 12.9531609779109207   T   T   T
 10.1460130741712540  9.2087579380057498 13.5095779260447859   T   T   T
  6.9246113439112644 14.0266714135508543  2.3461318194007110   T   T   T
 -1.1127497462562683  2.9153455932565815 -5.1522379692141786   T   T   T
  7.0786266104239370 17.1804524851140137  6.5540891255333085   T   T   T
 21.5723311956028283  9.2689958068553899  5.1204209219699877   T   T   T
 22.9609406129188116  1.5106635286458900 18.0536164529536549   T   T   T
 12.7348633064161536  6.5416522242141415 11.1330215580852165   T   T   T
 17.4116270857372584  3.5147064425846772  6.9947640671780045   T   T   T
  2.7691194554909999  9.3002662083823751  3.3266385562317784   T   T   T
  8.6271403115121181  6.0161856057442957  2.0551248223868255   T   T   T
 20.5129073160629360 10.5108089685235413  7.3299732851218158   T   T   T
  4.7010713138174580 14.4938459646346303 16.8447437717941391   T   T   T
 10.9344499220402334  6.3196258728005903 13.1740275401512648   T   T   T
 15.3319193573979042  6.2145356504440254  1.4062543069111568   T   T   T
  8.5978667754049241  3.1868786658219341  2.7577715465840624   T   T   T
 10.2656910450494436  0.8213992038422698  5.3383524711828088   T   T   T
 21.0826872976460962  6.5253816873032271  5.4412546780963389   T   T   T
  6.5428857687755206 -4.6071398154039205 10.8724565623756124   T   T   T
  9.6897414843749452  4.3588580515996336 18.6836751406569412   T   T   T
 14.2993938216631307 -1.5162291135634360  4.7787181824542655   T   T   T
  1.0096432307432961  3.9295359143431705  9.1692243831114393   T   T   T
 15.4443463382699182 -1.3504352413620284  8.0056937011632741   T   T   T
 19.5424886436825958  7.6155763190992891  9.0205040264891316   T   T   T
 -3.9216503369013225 10.6483499079427197 20.5841072606760420   T   T   T
 16.6048557230404867  6.7593209071897951 16.4272824077180601   T   T   T
 11.9082351938128124 13.2436561687898511  0.3156588601973676   T   T   T
  4.8362247930864397  5.0658336782700868  7.2102642782109401   T   T   T
  7.5144658332034417 14.1755565840111508  5.5118727666638874   T   T   T
 22.9146476996566122  6.7433075597200283 13.9907576734697212   T   T   T
 17.4856799856528653  7.6663870012129900 20.0728843164317219   T   T   T
 13.5944612925830253  6.4020250483387411 14.4404923962882226   T   T   T
 16.1867341418833561 -0.4630765261424138 -3.5332462745384374   T   T   T
  3.8710460186767781  6.1925536439359332  3.3392286994687876   T   T   T
  5.9850539314951190  6.5969869769467211 13.3791774842865188   T   T   T
  9.0548878760799454  6.6800927370703773 26.0258451812303733   T   T   T
  0.6849025124343809  2.0749762320657674  6.7855265723940237   T   T   T
 15.1860695042535880  5.1040448981726199  5.6366439199726965   T   T   T
 20.0308880178250064 10.4481821083498581 14.4773508515934868   T   T   T
  8.5070661495848352  3.1271389602517372 14.3141369474433642   T   T   T
  6.5440588677203175  9.5563360451063915 -2.8063664658175820   T   T   T
 16.5029582030976130 -0.7675779951043505  2.1954481879788221   T   T   T
  0.8613557568958987  9.6305021319198474  6.5214728526081940   T   T   T
 11.5556625771645205  2.7692838486361437 12.4575727807080678   T   T   T
 20.9037168238970494 11.8434837821431067 11.8957450460959340   T   T   T
  4.6723201790730116  3.7359776013103407 14.7505703750096373   T   T   T
  9.9223296407950645  9.9595712286724556  3.4081494449059049   T   T   T
 23.6396811403852496  2.1610003837908383  2.4939857481834862   T   T   T
  0.1276654531801380 13.8202821130202338 16.7412412265810033   T   T   T
 13.0019210910222931  5.2752822611011085  8.4174753951245904   T   T   T
 19.6511136396515838 13.6840853868931518 14.2548103753461195   T   T   T
 14.7346467690689025 -1.7545534700933427 20.8834713490808959   T   T   T
  2.8994106843965453 13.6824069155844832  2.9042353028532828   T   T   T
 24.7464258485568607 -0.0082695194639171 -2.7693767582296207   T   T   T
  0.6310843483547371 12.8071536419713929  8.9459820288450853   T   T   T
 13.7906732862577428  2.8021313332211788  9.2076476891531200   T   T   T
 18.0189811553221304 13.3063895492405777 11.2593504594302658   T   T   T
  7.9382511038436556  3.9036352358524748 11.1883730744410386   T   T   T
 13.1526787435023635 10.5852170296640864  1.9448394129747100   T   T   T
 21.3920291080889911  4.7947422462782212 -0.1464167323517780   T   T   T
  1.5494167918125188 13.1002103266281011  5.8326223067601370   T   T   T
 13.9084534420519557  2.2042837653322076  6.4852911033658325   T   T   T
 13.7946723956414257  8.5510432764138571 19.0378142650203586   T   T   T
  4.9733483129278397  4.3703559987168790 11.1084879858679724   T   T   T
 10.7846778774101537  8.5502341537599307 -2.1926520032633476   T   T   T
 23.2695957055834342  5.7380782935206831  2.8081821452541775   T   T   T
  2.8084532754860199  9.3432043648673258  8.4062535406687022   T   T   T
 18.4748039598790541  6.2436333520663059 -0.1023080301584909   T   T   T
 18.2051517404187422 17.7027979293938174 15.7300379751224284   T   T   T
  5.6326191422635157  1.9343956133001539 12.6062615217646794   T   T   T
  8.6963693835063349  9.9635536272020779  0.7102099610500945   T   T   T
 23.0834644078691653  2.4973647964320111 -0.5451387315428550   T   T   T
 22.5836411337133853 13.6588394028771916  8.5020379666474071   T   T   T
  7.6731040179032481  6.4744698063145210  5.6570842397904029   T   T   T
 13.7370126911335735 15.0870402652925044 10.5924922516381592   T   T   T
 24.6194220642356925  7.9604903137907019 16.4603280721633283   T   T   T
  5.3592233721148839 12.1747935802398395 -1.3339553109089959   T   T   T
 27.4480961905184131  7.0372165297913876  0.9816528017752143   T   T   T
 19.1629643697745564  0.0552302427798184  8.2644010296963035   T   T   T
  6.3974561997011712  9.2343274351352385  8.0305506058367726   T   T   T
 14.8180454709962621  2.1432836852671260 13.5860884828988286   T   T   T
 16.8113022463356359  9.6868366980688769 13.3854213184611268   T   T   T
 10.4034048727135477 -0.8343582318599301  7.7135031580813811   T   T   T
 13.9415913865281418  8.7188656037047672 10.9201967967255325   T   T   T
 23.3619864028459006  0.5867582780503473  6.1821301031885048   T   T   T
  9.8895345162411790  9.0628877182748973  9.1466521439341832   T   T   T
 12.1086533941979013 -0.0110029982239759 15.0249112790091477   T   T   T
  0.9936916313043500  9.5759381618976924 14.6000181264582078   T   T   T
  2.0134832189078482  2.4148348164376641  3.2093436146854168   T   T   T
 24.8996181993502432  4.8267563104533169  0.6888153382431176   T   T   T
 20.3453788809694700  1.4399467427730257  5.3129780639447217   T   T   T
  8.1495687499003502  9.3172823136942924  5.6497410362525651   T   T   T
 15.2507215328382220 -0.0675892640156360 12.8237648128188209   T   T   T
 -0.3231028856427780  4.6281405458547233 16.7004434355989702   T   T   T
  3.5991116303339399 -2.5895091229874900  9.4813186533025764   T   T   T
 18.8450413608310541  6.9361744194326818  2.8905976038934784   T   T   T
 21.4748264199793510 16.6677141987279889  8.9075553866675783   T   T   T
  8.9101317811633347  5.9195836431793580  8.6654085477923903   T   T   T
 11.5795778835567535 12.9375593740135280 12.2058926643237378   T   T   T
  0.0027591214780779  6.1389121551084012 12.0276073448331058   T   T   T
 -6.4727659040154979 17.2397360421113497 -0.2149211104934350   T   T   T
 22.5400662553888367  6.1897008032655361  8.7117904938129183   T   T   T
 19.9674212277103535 -1.0790333346908321  4.7338331591016489   T   T   T
 10.5196980355004133  7.0623535502573729  6.7718712589177912   T   T   T
  9.3571392534882492  1.6051604903897041 17.1624146241731879   T   T   T
 29.1612059547340010 18.8098652555516317 18.5110142038178758   T   T   T
  5.6025450055191053  9.4294679655926288  2.8981376898634719   T   T   T
 21.3802807428438868  8.0148073783802616 -2.0324473588303378   T   T   T
  7.3736604403377601 -2.1958457264004325 28.4950376344326024   T   T   T
 17.0763777088777502  5.9085133398191765 30.1159487151507896   T   T   T
 25.1196197714239560 -0.3722004688529307 25.1698468243166644   T   T   T
  8.5065861016406732  6.3480676580949442 22.4497384504058708   T   T   T
 16.4712603222150307  5.2187803836258597 46.1562377432834978   T   T   T
 -1.1550961538550750  8.7516070455124400 32.7519804459381731   T   T   T
 12.7145857164106637 16.2933703515522090 27.9457441437737515   T   T   T
 18.8887185244053128  4.5683141124542841 28.0567842409788000   T   T   T
 22.8783025466597891 11.9445014914635408 22.7994750497057730   T   T   T
 10.2445690224509871  4.0985248858007681 23.3783513320601557   T   T   T
 14.1523765278644102  9.8056843134372436 42.7133797698726170   T   T   T
  1.7689237806267426  4.0114299071640449 28.3461477624599283   T   T   T
 -2.0295784936388843  9.1448512714983785 29.0759171642644070   T   T   T
 17.7192679543916469  8.8308731683554953 30.5059857525107176   T   T   T
 28.2687556505237865 15.9267203631675152 25.6319777442950709   T   T   T
  6.7307474118786033  9.2588932647604096 23.6278440037794724   T   T   T
  8.6063164112174722 12.7046244575822804 37.0691708922312984   T   T   T
  1.4472723876121223  4.8904271358080083 34.2133588109252429   T   T   T
  4.1873266880900930 -1.6989254052745961 28.2571787369103333   T   T   T
 20.5926882851290216  6.7262333632180589 31.3830333954219718   T   T   T
 24.6075616518709026 14.8164111597609676 22.6166611645478959   T   T   T
 12.8409460596859102  6.7100596314338992 24.6028833203371384   T   T   T
 12.5504168471654296 13.0600075343385704 34.1971153032047681   T   T   T
  0.4921344684768087  7.8169840949362879 35.0126903130380072   T   T   T
  4.8894435424285545 -2.1612720625033797 31.3713955543602800   T   T   T
 20.7820055381187387  6.8902613998329958 28.3495596455150221   T   T   T
 21.4082331245989081  0.5647357851235136 21.7231864452651315   T   T   T
 10.4785175373316228  9.2364591808566558 23.9523956099847339   T   T   T
  8.8945949181805890 -2.7294550681411258 34.1847450564094828   T   T   T
 -4.9817325797968754  4.3351492764307400 33.8874725652980828   T   T   T
  6.7531681655321734 15.6414548069706250 28.2929563402433786   T   T   T
 16.2453030082398158  8.6262255457811570 25.4801671234515297   T   T   T
 22.5377787372559979 12.6797976146344951 26.3057411880643208   T   T   T
 11.2962190936403424 -2.0100793207214291 25.2318933270888195   T   T   T
  5.1415959088898120 14.9757085007223871 36.5016454630382725   T   T   T
 -4.0928276975689615  3.8167151749115416 39.4386717454522540   T   T   T
  1.8886001184107906 10.6814862869673455 22.3019080083375485   T   T   T
 15.6420011427432151  9.2274864525185301 22.5637591071816743   T   T   T
 17.0666238445790839  3.5387143484650649 39.6561794053549619   T   T   T
  7.0856923554089990 14.1477743650182930 31.6356797309880022   T   T   T
 14.9019775673818327  3.6648920147799902 27.5694538540558050   T   T   T
 22.7890993492272997 16.2979048158225339 27.4658046709637063   T   T   T
 -4.0198881517466178  4.7249274804339336 18.0732177764502993   T   T   T
 18.3206243795853467 12.0194504433135556 22.5467403032328875   T   T   T
 18.6222466819194636  1.9888577282378381 34.2556711924655701   T   T   T
  6.5197112285634118  7.6218438215639308 31.5559123461181770   T   T   T
 10.5476188409570373  3.6238247359514144 28.3625404676962454   T   T   T
 28.0550208573491133  9.1939433109408242 25.8266142489192596   T   T   T
  0.7638078763402301 -3.8566046471505464 19.4162121761693918   T   T   T
 17.9035273796009733 11.1886652219724922 26.1512168667466014   T   T   T
 20.1195847182670491  0.5500858099985174 36.8804417171566286   T   T   T
 10.1893889993044073 13.3267305525026423 40.6886977708162618   T   T   T
 11.5994638956627192  5.0285234140096202 30.8049707741439605   T   T   T
  0.9680162511108877  8.5879528399938643 28.7765186678202980   T   T   T
  5.9862124218462025  1.7263759103073004 23.5320360670438014   T   T   T
 13.0161063964853678 12.5480058071032374 28.5145541359791785   T   T   T
 29.4936602488855399  4.9529893719813902 34.4760657396686696   T   T   T
  6.6626558026729201 17.7849826602645855 36.2155889644491680   T   T   T
 12.8636292147599534  5.5883327587718759 27.9340962445324799   T   T   T
  0.1931983121041777 11.5917357759907631 29.0121376278362249   T   T   T
 11.9403525448301107  6.2643473591099186 22.0852474508739220   T   T   T
 15.2716083766009767 12.0016081447294773 24.1201002995840383   T   T   T
 19.2707274425055672  9.0799606366814523 28.6696580953737197   T   T   T
  4.3537870368578755  2.9316055412047879 37.3916011215938653   T   T   T
 11.6718907899469873  1.8063608878621256 31.2793945712748531   T   T   T
 -0.7076660210516089 11.4920496480343317 32.5062072043627381   T   T   T
  2.7313009247190529  5.3803923401200811 24.0950888814680688   T   T   T
 19.1527678231790759  9.0644011140119893 23.6903810643874557   T   T   T
 21.6907745675165060  0.8226597515866004 34.3697500054611282   T   T   T
  8.9138708576253691  7.3861630466920589 33.7410245950400451   T   T   T
 14.5414741915016510  3.4309281505064138 30.9012910786703863   T   T   T
 21.3758136248438291 15.7232265991147813 24.5757949854429114   T   T   T
  6.4986495873497674  8.5710694321476097 28.4654823488669102   T   T   T
 20.5234187771649985 -0.7271392669990698 31.9633332677560418   T   T   T
 23.5288007117919165  5.9306187959173320 26.2636768663891651   T   T   T
  4.0712843611727196  4.3249146479140173 26.4819069534514746   T   T   T
 14.3010579807957789 -5.9504863688161844 34.2776483089251940   T   T   T
  1.4941261139738975 -4.5831850818518447 31.8814215142812536   T   T   T
  6.5882279236603001  4.6567523899858996 28.4545173600042958   T   T   T
 20.2201466133729966 15.2704468374159816 28.6241224603519377   T   T   T
 25.5013610246773865  7.6437963708336731 24.1187369068435551   T   T   T
  4.3819531617555239 15.1386848627107788 30.1282292753764160   T   T   T
 12.6929382398638460  5.7475921965543773 34.2995525788631568   T   T   T
 -0.1862824196359257 13.3516340387226933 37.7077587249383157   T   T   T
 10.8739757212933199 -0.4367180257114271 21.1589870866667091   T   T   T
 17.6915676102334913 16.1618960619064858 30.5698323170541606   T   T   T
 27.9708437707980764  6.6565009463214189 12.9343166398847860   T   T   T
  8.3973249704274586 12.6435237974231534 23.9177021333291400   T   T   T
 18.6969665194268302  9.0488393049485012 36.8596669777152357   T   T   T
  2.4830174360994612 11.8795406252258893 34.8516537749805337   T   T   T
  6.2139269751500210  5.0552263448380845 31.5551627660700476   T   T   T
 20.3089145799266362 12.4913161108897377 28.7055976144788758   T   T   T
 24.6145320726444794  5.3284241506671979 22.2380489511366441   T   T   T
 10.9853129897935400 10.5846841676471826 21.2997199038077696   T   T   T
 16.3574755736926463  8.8496862501617990 40.4531745283319566   T   T   T
 10.1266626687652099 18.7579254774147586 34.0674933267128495   T   T   T
  4.0818279760293326  7.5663373093062338 29.5018027934926010   T   T   T
 14.9915368489813456  3.8083248657737454 21.6553920651160503   T   T   T
 22.2577978437869177  8.1623450093487087 24.9029773238507488   T   T   T
 12.6333762815157300 -0.0336078875754215 23.3684813873035324   T   T   T
 16.0402838111350619 12.3504030671731080 36.4144938001217611   T   T   T
  6.5326944808997238  2.0335366072429100 34.1695869858819066   T   T   T
  8.7881555753257494  7.0481956649697670 29.5043217054354336   T   T   T
 16.9167772945553949 14.0276434668369703 28.1535499356329026   T   T   T
 21.5185972400368470  5.1592899510538066 23.1146739094914864   T   T   T
  8.4815687898768708 15.1461405956538684 23.8505964291574273   T   T   T
 14.3086212828029478  2.3541372941112519 34.4729851054997880   T   T   T
 -2.0574581689152276 10.2833478185751943 36.6885257111543410   T   T   T
 27.0886758305684907  1.0630621470349193 18.9911487002041248   T   T   T
 11.2847432122257558 12.2844720579741917 30.7529203293190001   T   T   T
 15.7028639627342610  1.5525825830295810 24.1881556985175550   T   T   T
  6.2515512736478600  4.0045264833048293 23.9568033651844026   T   T   T
  9.2263645457352048  6.8781940317946173 36.7581204758335502   T   T   T
 15.3998153762633940  8.6329527011967677 37.1258160726158053   T   T   T
 24.4025747754728002  0.8563106577352284 30.0545170251295986   T   T   T
 14.4322805171657578  9.3794649124263323 28.7403085628866641   T   T   T
 19.6648552436156052 13.5935388056035578 18.3719868076522026   T   T   T
  5.2692686399876809 10.2225651806128326 25.7998845314935679   T   T   T
  3.7088283729430409  8.0845922495135660 34.3214060458680592   T   T   T
 18.6524626616612892  9.2596937928954191 33.9744750988143238   T   T   T
  2.0291791974384128  2.3416376681644127 30.5067013760051395   T   T   T
 14.0658881781944043 10.4248165975967346 31.8443430154050802   T   T   T
 18.6545982688967911  2.0953900850259211 24.0828811035202079   T   T   T
  7.2565060430722390  8.8843605020792999 19.2123079191447310   T   T   T
  4.2423276058513046 -4.8427581416725047 37.5698331492821609   T   T   T
 21.6244301493020572 12.3331180220150962 37.6416844851854222   T   T   T
 -0.8614965736305252  5.5973829352612965 30.4073472284882023   T   T   T
 10.9221212187946435 10.3743358876729665 28.2616925906634187   T   T   T
 18.5665810823833084  4.5552638931646010 22.4100670646325320   T   T   T
  2.2427077523153738 12.3740751747108568 25.0190712305549887   T   T   T
  4.9614962072617450  6.7080428362775759 37.0742771490716621   T   T   T
 18.6857417760378866 11.7128659779019415 35.9713029905065582   T   T   T
  2.4516871965220792  2.2052217883636001 22.7959560519230102   T   T   T
 11.6324395482122611  8.9082562063881596 31.2661868512671930   T   T   T
 16.1933193684384165  5.4751698891175158 24.0611284880885954   T   T   T
  4.9627402797389726 11.7365883652149670 22.7723427287584812   T   T   T
  9.2109267854247161  0.4804117340308636 33.8631704999550607   T   T   T
 17.7737391976912846 12.3931204434680069 30.7836696470132800   T   T   T
 23.3489187339476203  4.1023595206326586 28.2436153628502886   T   T   T
 10.0627362097682944 15.3904420336731036 26.0726326572613054   T   T   T
 23.1116710391430047  8.3925495811682467 22.4265686021283059   T   T   T
  4.0802593882378595  8.2035490004547782 23.3764821793681961   T   T   T
  9.2198718560724515  4.3027775286352830 36.3564993597860706   T   T   T
 21.4115612260358503 12.0936452566622954 34.7171447405179094   T   T   T
  1.5941105052700668  1.1271098606495056  0.2461247149735212   T   T   T
 12.4200636616782116  8.6872041147997194 -0.0411681528137515   T   T   T
 16.6715381230505955  0.4993594458572432  5.2986440458235462   T   T   T
  4.4912479834274750  7.8854353190630260  5.9364738892439215   T   T   T
  8.7351239186841347  0.3758000487685330 11.5871267895688845   T   T   T
 21.2063170520063053  8.1184964513027644 12.1624568962765931   T   T   T
 23.4052269641769684 11.5398427535088643  5.8836288012957292   T   T   T
 10.7294275364930289  4.5048531176996907  5.8406488534029242   T   T   T
 15.1018476722401047 11.4368777882101007 11.5353574592031318   T   T   T
  2.2306912564082482  3.8767616585896785 11.8752857671189833   T   T   T
  6.2267679032467056 11.0063769501392485  0.9196436632189673   T   T   T
 15.9814277285588719  1.3645550969384137  0.5081165611863561   T   T   T
  4.5055652104018886  0.4286179758815564  5.8436872971480707   T   T   T
 17.2750940649925298  7.6545857644436515  5.9748301550218219   T   T   T
 21.0085490306405376  0.9756537310978178 11.6367579746215792   T   T   T
  8.3466019769789312  7.5839472619587447 11.9759667394562968   T   T   T
 13.9814652540375679  0.4192051612987367  0.0762769467476126   T   T   T
 -1.5815697389840022  8.0448643658987784 -0.0726187290244547   T   T   T
 23.1309026237934674  4.2248276452696922  5.9599824283727560   T   T   T
 10.6717059307801794 11.4376228695576607  5.9733588692644819   T   T   T
 14.6217466773734621  4.3496104816268835 11.7513773144834310   T   T   T
  1.9881182032576583 11.4867757959640464 11.8523699179017079   T   T   T
  6.4956623212233602  3.7369879485118793  1.6033276096360540   T   T   T
 17.2567960566078398 15.0353543501964566 -0.9864580724701691   T   T   T
  6.5974862297189247  2.2649306147476520 17.4797113473638639   T   T   T
 17.4864512795016864 10.7209798644800607 19.5354982576191212   T   T   T
 20.9032890538510614  2.9045207570112921 31.4407959651026090   T   T   T
  8.3724163556967426 10.2505332765541333 31.1604269861518439   T   T   T
 12.8084871004832213  3.3309327583111998 25.0825117220576423   T   T   T
 24.6615879061983634 10.2824246907197399 25.6814355885055399   T   T   T
  2.2855467383254999  6.5232307276523924 31.4649088954848075   T   T   T
 14.5866961964221886 14.1948201057097663 31.1920340073958009   T   T   T
 19.0306424210376619  6.6810638618221452 25.7818987785621871   T   T   T
  5.9537413627416464 13.7636630911998346 25.3426233383451454   T   T   T
 10.3037734626588016  7.8371621385697301 19.1420049221782378   T   T   T
 22.9439422050319166 13.2782515692131291 19.4739825891840717   T   T   T
  8.3601540442957809  2.8343452696603446 30.7417621661016227   T   T   T
 20.9267316785976192 10.3909587881166772 31.6135959424972164   T   T   T
 25.2793083788543740  3.2206837761958225 25.4641460046415844   T   T   T
 12.9567050935000978 10.3305043974833666 25.3566825424230586   T   T   T
 17.2741870947727989  4.8016393221008560 18.6152254568176581   T   T   T
  4.4379810821874788 10.1486917969219732 19.7971604119633469   T   T   T
  1.9695219525613263 -0.9333622188088950 31.5546577797091530   T   T   T
 14.6663799273566333  6.9287211539502200 31.4969689383616185   T   T   T
 18.8578733230798576 13.9638176497359829 25.6053950228797937   T   T   T
  5.7258373046577944  6.7001630294476238 25.2082515959141240   T   T   T
 11.7814762500227435 16.7933415214295430 19.0069993812625704   T   T   T
 23.3522205864779409  6.3729313169471675 19.2860182102058246   T   T   T
  4.1188803665697993  0.2109749288794906  7.8377114668807275   T   T   T
 17.5211686171726697  7.8909044417571881  8.0683247170175374   T   T   T
 20.6506360565683593  0.8685661898355754 13.6646836250908450   T   T   T
  8.4179577840814268  7.5630425830842354 13.9501989180265724   T   T   T
 12.2773020052363897  1.1128799795749988  0.8784844170807625   T   T   T
 -0.3463893389541652  7.2484047787071306  1.4530070172179852   T   T   T
 21.9932846738038421  2.7364717611919809 11.2696083370680746   T   T   T
  9.1801515757310472  9.3809882051318851 11.3588436878195935   T   T   T
 11.0542190642740135 -1.1669407889832519 18.8185910936029366   T   T   T
  1.6159498770252889  6.1195280633101099 19.0555164884645194   T   T   T
  5.3004631785063250  2.0803642596321685  5.2423167942658724   T   T   T
 18.3715150147086206  9.1563826817817073  5.1259549814873253   T   T   T
 22.1109113281844287  6.3345755056510917 11.5795625994511884   T   T   T
  9.3726511211491257 13.1761155679601778 10.8068521603576286   T   T   T
 14.1941693027000273  7.0198101401073272 16.6101214641456316   T   T   T
 -1.0849911403787649 15.5144442121823545 15.1710870847590815   T   T   T
  5.4428407226281426  6.2363254922894651  5.1578741710158358   T   T   T
 17.4131193867014957 13.2450800272112375  4.4909797013437407   T   T   T
  6.7693294649157378  0.3589642555921174 10.9450227370480953   T   T   T
 19.1858707111774081  7.8343372012828167 11.4377710453108001   T   T   T
 22.9153374267181817 -1.1702095339762897 17.4364093745957511   T   T   T
 12.0837844366383429  7.7655712555760044 20.1460944332610445   T   T   T
 14.7835751342501531  0.8398786296755791  4.8270088944585430   T   T   T
  2.4333132112182381  7.8681328851932886  5.3785308556606610   T   T   T
  2.2985117626995857  4.1054942774796093  6.9836659836585149   T   T   T
 15.2273791015832547 11.0622694314884988  7.0336138973853579   T   T   T
 18.5666470062670683  4.2674444120709341 13.7572215925059957   T   T   T
  6.2917435872274483 11.4433559768868314 12.5979765405688600   T   T   T
 10.6426439026269186  4.7817074245445230  1.4427081630304761   T   T   T
 23.3922798253462005 11.5432064652238040  1.6332701186147689   T   T   T
 23.2216262782341971  4.1304286846603606  8.0874777831598301   T   T   T
 10.3823223921878220 11.4726410742353870  8.0218487037718891   T   T   T
 14.5586981584876565  4.5419589992373588 13.8832563436267851   T   T   T
  2.3467981738865249 11.6475810986800106 13.7968672941236878   T   T   T
  7.0176833809394950  5.4916492280882219  0.1086670922225749   T   T   T
 18.2038753449217268 13.4961411185996916  0.2736893439192942   T   T   T
  2.9441064545744582 13.2531044034493632 11.2051940200291789   T   T   T
 15.6487822217807224  5.9794057303653192 11.1815328714868336   T   T   T
 17.7145475264864274 12.2634159424182627 16.5493843008201509   T   T   T
  5.0925409296862982  1.6606456605992517 20.2775925650579829   T   T   T
 11.8810477511018782 13.2505352327617238  5.4194104186173995   T   T   T
 24.1365871767418199  5.9914003722987639  5.4671475832625900   T   T   T
  3.2602622069851761  2.4552110815043227 11.0333685643382893   T   T   T
 16.2700967525466282  9.9241651413946101 11.0365699403951805   T   T   T
 20.9438189979086076  2.6034046665639798 17.1141776778758583   T   T   T
  2.5717659610317476 13.9089086473727050 17.6516606812233299   T   T   T
 11.7132811934316674  2.7653993741876262  5.1762376537552877   T   T   T
 24.1291817839711413  9.7663352066242481  5.1386576365398700   T   T   T
  0.2338723798600378  3.5580118974286719 11.3690301727754157   T   T   T
 13.2059149460485372 11.1450807416174698 10.9555051890430484   T   T   T
 18.5810418705104468  6.3831132026179871 18.0361402094090337   T   T   T
  4.9921641211237064  9.7666219975595823 18.0518671438055271   T   T   T
  8.8112988603702487  4.3915740270083274  5.3565312967642802   T   T   T
 21.3734353160184654 11.4764011629686919  5.3057941813843277   T   T   T
  0.4011134444289117 -0.2802496084348111 14.3347378779964068   T   T   T
 12.6009893709750607  8.0418509126739330 12.9328633752706246   T   T   T
 14.4522937339463908 -1.4841921106922964  0.8227469692676158   T   T   T
  4.3296044365211177  7.9822723504170261  1.9164553886346201   T   T   T
  8.7009864734253437  0.9148920683177095  7.0002292662481800   T   T   T
 21.3300761164961798  8.0536939953569657  7.3806502541310124   T   T   T
 25.6556490769783636  0.9038432500111367  2.0798911612208770   T   T   T
 12.7983933214639016  8.0088041993906138  2.0618544017524347   T   T   T
 17.0095802531103715  0.4250275828439198  7.2738029357560681   T   T   T
  4.6041935970556631  7.8173524180893477  7.9622300850766283   T   T   T
  8.9477948099402926  0.4267595432519103 13.6259165086677996   T   T   T
 20.8879450585418027  8.1257899725962517 14.1131849653229047   T   T   T
 22.0085422384623755  9.7768143882203624 11.2913644416948085   T   T   T
  9.5604901851439674  2.0207765965257121 10.8319993170318565   T   T   T
 12.7426789101941011  8.7183880537394209 16.8398887210421258   T   T   T
 -0.2825656613991083  2.2286681792808567 16.6760999929027953   T   T   T