Cl48Li288P48S240 E=-2541.895647 eV
 1.0000000000000000
    25.1819793006824639    0.0000000000000000    0.0000000000000015
    -0.0000000000000009   14.5388225279766061    0.0000000000000009
     0.0000000000000000    0.0000000000000000   37.2126966544236950
 Li  P   S   Cl 
 288  48 240  48
Cartesian
  1.0584756869006908  1.6671522382256001  6.9432257408699050
 13.6494691211107781  8.9365522885105513  6.9432479415024746
 17.7946939399696227  2.0519415926344826 12.9189587528194707
  5.2037022135663822  9.3213385378122720 12.9189551566498171
  9.9102022589037713  1.5493728487588398  0.5155301519482592
 22.5011836732105799  8.8187501269664175  0.5155238286400278
  0.1403367837616258  3.7282280048179985  9.2206158954956816
 12.7313261763943864 10.9976580258196073  9.2206202979288694
 16.7870372089534818  4.7303475210429031 15.2698472217498153
  4.1960340295687741 11.9997761084658165 15.2698431625645394
  8.7220074169181157  4.1473659942817713  3.1317684616070212
 21.3129921253009549 11.4166697722289641  3.1317591177749908
  2.6573450151620484  5.5253754812707419  9.2583714526700014
 15.2483372897717100 12.7947843100929735  9.2583750628322026
 20.7461173809667940  5.0758029750911096 15.2673722070743185
  8.1551407321661564 12.3451806767754810 15.2673684552118090
 11.8921007661140177  5.2883649680641760  3.1496082044431195
 24.4830666568632402 12.5577600061872907  3.1496369564226105
  4.4136427149986419  3.6258401062365628  7.1013485994665642
 17.0046299278230784 10.8952599090419184  7.1013474634918490
 20.9912941305117506  3.5072155963334066 13.0216166836394951
  8.4002818456929305 10.7766091863016307 13.0216060947136114
 12.6890840383730854  2.8472050359009264  0.8887169605505926
 25.2800889999551153 10.1166035445836702  0.8887400034889659
  2.8869368388996697  2.0286738864669656  9.3648894299604368
 15.4779577619806741  9.2981023665231142  9.3649012999010015
 18.5610348667801937  2.2607988507075691 15.8793303163113997
  5.9699752261365049  9.5302054518729840 15.8793224523166199
 11.1155861285347370  2.0501796788293181  3.3787543004569338
 23.7066249921726033  9.3195603767965345  3.3787431791372109
  1.0112200581932649  5.5451164600587788  6.8186473389740998
 13.6022085804948425 12.8145228986591331  6.8186498302480887
 17.8993516325867752  5.7399620414089529 12.9369625587687480
  5.3083627912189071 13.0093619468492854 12.9369503863637654
 10.1728882863035093  6.0558687951561287  0.6914330787917816
 22.7638989889506824 13.3252574650882369  0.6914604129324406
 24.0901993626858157 12.9560596732721827 12.9189384837264232
 11.4992009531205817  5.6866333739149519 12.9189543776377604
 16.2057012364342299 12.4534691969972844  0.5155262044449833
  3.6147006901237564  5.1840576581103024  0.5155221442040530
  7.3539768509986168 12.5712635563543120  6.9432404222817832
 19.9449582546070978  5.3018574215353684  6.9432320301220258
 23.0825500121661875  1.0956518547259322 15.2698509803295828
 10.4915449086235828  8.3650596446437220 15.2698438189888996
 15.0174832763581012  0.5125626417853806  3.1317610687218771
  2.4265155481875023  7.7820215483603441  3.1317655691084689
  6.4358321527684250  0.0935387848373547  9.2206187080675210
 19.0268174935531782  7.3629394141658091  9.2206223782711589
  1.8596917300078961  1.4410450801533219 15.2673558175586095
 14.4506630122545729  8.7104616114134021 15.2673530540343041
 18.1875728354920128  1.6536404720837226  3.1496402337147380
  5.5966119269343801  8.9230527698218101  3.1496252406523793
  8.9528357934057219  1.8906816316899828  9.2583724249128814
 21.5438504913281115  9.1600684794642380  9.2583764501681500
  2.1047879740696742 -0.1274949470529959 13.0215836019225613
 14.6957806364246615  7.1419013689650530 13.0215897103536964
 18.9845894013327410 -0.7875164771653760  0.8887467814387476
  6.3935995335505655  6.4819049083618241  0.8887311199872218
 10.7091371003071973 -0.0088694446125660  7.1013497984839491
 23.3001234013101239  7.2605455118289726  7.1013459842242774
 -0.3255057384471042 13.1648852058578782 15.8793086143773898
 12.2655085733496012  5.8954965785600582 15.8793166590818604
 17.4111179118913846 12.9542676322268555  3.3787443748143051
  4.8201109557598958  5.6848568510032100  3.3787439026584849
  9.1824551001632724 12.9328194700513901  9.3649147983158674
 21.7734224354482286  5.6633784247637404  9.3649043342970248
 24.1948599779595135  2.1052593339592423 12.9369684403307001
 11.6038622127844260  9.3746569055352342 12.9369541775816117
 16.4683915357826471  2.4211481850681738  0.6914689750446208
  3.8774165767144462  9.6905586166530160  0.6914628061022353
  7.3067187110812437  1.9104092266192596  6.8186432011733116
 19.8977012111643177  9.1798230268288012  6.8186556266366747
  1.0584784782315155  8.9365599041947643  6.9432309489658000
 13.6494660288412764  1.6671441750736322  6.9432483991922824
 17.7947096642630491  9.3213348923575570 12.9189809695935871
  5.2037098472419645  2.0519309219362860 12.9189541422802492
  9.9102025177963018  8.8187915175744713  0.5155416753157692
 22.5011824900206676  1.5493399285334066  0.5155172677195528
  0.1403369105694345 10.9976468202339639  9.2206196969555805
 12.7313226334768270  3.7282590076868201  9.2206232738541871
 16.7870311414597921 11.9997566387724266 15.2698453152312368
  4.1960504312217406  4.7303507770147544 15.2698406554439270
  8.7220125872594796 11.4167947902115881  3.1317781361445074
 21.3129903335864661  4.1472744258093917  3.1317587834743148
  2.6573734752572804 12.7947714021767247  9.2583737668686066
 15.2483330808761703  5.5253744375856684  9.2583757394547082
 20.7461533133532647 12.3452063772090455 15.2673619573427075
  8.1551708203923798  5.0757699407412549 15.2673479395368084
 11.8921115935137998 12.5577686668657957  3.1496153366335662
 24.4830748655761141  5.2883423419653601  3.1496377182671234
  4.4136391338413770 10.8952493505521719  7.1013354083800353
 17.0046273727055492  3.6258478891568169  7.1013527345155190
 20.9912827724128128 10.7766162305113262 13.0216139853074040
  8.4002793320539144  3.5072037221286334 13.0215916189079604
 12.6890817548086829 10.1166152605589588  0.8887208466834373
 25.2800873255782754  2.8471932437140692  0.8887397475216569
  2.8869470824674224  9.2980947194656007  9.3649025191091475
 15.4779445410143701  2.0286883791858656  9.3649113466700467
 18.5610689538235007  9.5302491073445950 15.8793519772594021
  5.9700220545205571  2.2608035301360503 15.8793258225345078
 11.1155805511672305  9.3195918563692715  3.3787603380702151
 23.7066100182774981  2.0501482355847553  3.3787408782013957
  1.0112193647411829 12.8145324174104669  6.8186548475630522
 13.6022089553661285  5.5451083992277077  6.8186476919077297
 17.8993603647925532 13.0093735507460604 12.9369613506921386
  5.3083671585356038  5.7399558178981440 12.9369490504168283
 10.1728961747459721 13.3252787555350007  0.6914446332352859
 22.7639010348146016  6.0558482945967791  0.6914664868360233
 19.9449585995594916 12.5712692714161065  6.9432354016191864
  7.3539780073244421  5.3018541208022461  6.9432336854885746
 11.4992103399456909 12.9560203207182791 12.9189857861763144
 24.0902139729014522  5.6866321301247416 12.9189572542596309
  3.6147028299067401 12.4534641330531084  0.5155215659341900
 16.2056995176063765  5.1840563889139260  0.5155185632821698
 19.0268163863064963  0.0935378344973296  9.2206290903430013
  6.4358301883121998  7.3629551300651030  9.2206188142889953
 10.4915185527489783  1.0956669657977525 15.2698446210438394
 23.0825312072837505  8.3650781375297392 15.2698464462819903
  2.4265112320499345  0.5125906158365199  3.1317636199347136
 15.0174797677267939  7.7819689944078281  3.1317570107744941
 21.5438563515820078  1.8906541054249499  9.2583833000264626
  8.9528526724700761  9.1600814552824854  9.2583698861025834
 14.4506742944109856  1.4410465301176130 15.2673664462398975
  1.8596764382924422  8.7104590463254965 15.2673812102037445
  5.5966006383837117  1.6536483928096368  3.1496260885005309
 18.1875699382519151  8.9230516887456144  3.1496357904233880
 23.3001216245800187 -0.0088643396164054  7.1013496817646038
 10.7091374810793702  7.2605374542808541  7.1013497569174131
 14.6957698738105371 -0.1275194352520308 13.0216048904074295
  2.1047885995534963  7.1419051084464735 13.0216075307551513
  6.3936017995087289 -0.7875057138779754  0.8887302568893983
 18.9845882116193891  6.4818970663165336  0.8887443494721210
 21.7734199433430042 12.9327923268634546  9.3649146682417435
  9.1824353725663848  5.6633947469209467  9.3649055841426510
 12.2654919504270055 13.1649491058876738 15.8793480856369644
 -0.3255389718500336  5.8955072606480261 15.8793317397637495
  4.8201227748650126 12.9542659116887684  3.3787387479989572
 17.4111150888736006  5.6848568195022517  3.3787423382214157
 19.8977023985844319  1.9104138083577302  6.8186589460588438
  7.3067151436815543  9.1798222705883425  6.8186453419005533
 11.6038646887495744  2.1052407623113201 12.9369531619850200
 24.1948622151661148  9.3746617783279067 12.9369584952735188
  3.8774103616598841  2.4211475216961853  0.6914609359533560
 16.4683869336529298  9.6905610625318044  0.6914659146286594
  5.1047567292613714  1.9736619914407048 30.1059491782389053
 17.6957478707577316  9.2430695187454308 30.1059604191857915
 21.9072194877542366  1.9272621429194488 23.9755120693134565
  9.3162367845983809  9.1966908426514422 23.9754784362578768
 12.6647291003590308  1.2218901205250303 35.8194573480969538
  0.0737591266989036  8.4913338913251319 35.8194719433859916
  4.5309384849373204 14.5080648995956558 27.8105000259483148
 17.1219237414373993  7.2386928570709150 27.8105002232743566
 21.5336735818226650 13.5580069559497431 21.6777345702835547
  8.9426962686274365  6.2885908598129916 21.6777147248476894
 12.6602650321452792 14.0282156464765784 33.7513372763706485
  0.0692776002138739  6.7588794529361600 33.7513214713814804
  7.5815113639316349 13.0209710188432268 28.0190281173119580
 20.1724943865340265  5.7515582972877741 28.0190371098912721
 24.4392103268028933 12.9604801217786534 21.9959451153804224
 11.8482260377503401  5.6910722114859791 21.9959430814498518
 15.7893421288122600 12.5680777588272967 34.1471212626690104
  3.1983422719317240  5.2986652821942775 34.1471215352380142
  8.4617536569699627  0.0155153299536490 30.4086450320304387
 21.0527350349831970  7.2849233278993815 30.4086579506049723
 25.3258911023298019 14.6546343053304646 24.2922132570076066
 12.7348869806664435  7.3852145009055024 24.2922433110049028
 16.6438943514355877 14.8339746211989727 36.3398353798272069
  4.0529066896088617  7.5645780724922691 36.3398223456190905
  7.6345220977119421  1.4776747524420382 27.9167960794655841
 20.2255465353898067  8.7470691985084237 27.9168196519028662
 24.1444161516075333  1.5731139923143751 21.7858484134413288
 11.5535394875366944  8.8424986207809102 21.7858732248364824
 15.5828580932844503  1.7731298013218741 34.0875655699467472
  2.9918754606558418  9.0425461783687222 34.0875527454657075
  5.0911381499900177 12.6241193356498993 30.1522491009802245
 17.6821137655063048  5.3547065010021466 30.1522376106254306
 22.0654124802530589 12.6859852869496610 24.3064262751938074
  9.4744285202470397  5.4165756111897654 24.3064123746220062
 12.8646074082044652 13.1098830396189552 36.3494493470853683
  0.2735827348844669  5.8405000282112081 36.3494083432148614
  3.0207403138568538  5.5619805791557981 23.9754899512979875
 15.6117237309585946 12.8314003012050772 23.9754562708065109
 18.9602370887791167  4.8566260704717363 35.8194736630717472
  6.3692546417685998 12.1260203717418769 35.8194714315066491
 11.4002537343503096  5.6083695494483710 30.1059560793512198
 23.9912368264355216 12.8777779406780439 30.1059536980635194
  2.6471722082294864  2.6539010970388852 21.6777199590788037
 15.2381615477752224  9.9233324725899390 21.6777275867547345
 18.9557611946618394  3.1241692811837489 33.7513218424788022
  6.3647799004461270 10.3935489664320144 33.7513319356428241
 10.8264322765192187  3.6039517263822360 27.8105005007830393
 23.4174200402575039 10.8733686867187771 27.8104954645348421
  5.5526994737129769  2.0563462468139346 21.9959445649416097
 18.1436933353578773  9.3257554438130210 21.9959423413459945
 22.0848209399286333  1.6639730855704680 34.1471228753505400
  9.4938431299628334  8.9333423875627140 34.1471307462080347
 13.8770022118457828  2.1168563525131834 28.0190362869986487
  1.2860083964337907  9.3862653166555639 28.0190267943369911
  6.4393949137696094  3.7505112640457270 24.2922274852404882
 19.0303680319194051 11.0199049771485225 24.2922636375376371
 22.9393882855006233  3.9298552703127410 36.3398341855422515
 10.3484105106365867 11.1993122138532755 36.3398043283653536
 14.7572461440954683  3.6502128876920108 30.4086521434950434
  2.1662588070247364 10.9196337374069703 30.4086411184114240
  5.2580244016244189  5.2077970302845564 21.7858760314096962
 17.8491492330695181 12.4771701264884971 21.7859132645468456
 21.8783648123161321  5.4078521660800796 34.0875631826017838
  9.2873494209631655 12.6772241380403408 34.0875472737771261
 13.9300211768879585  5.1123769137257371 27.9168125323580405
  1.3390241696998690 12.3817932291984700 27.9167978240800565
  3.1789319265664715  1.7818611940646516 24.3064136881998500
 15.7699146777324124  9.0512756559289027 24.3064028218747374
 19.1600644416371750  2.2057934471692922 36.3494096661844992
  6.5690849536951177  9.4751929477183250 36.3494279193930225
 11.3866294689407699  1.7200013602104200 30.1522536975890887
 23.9776155628867542  8.9894203061415308 30.1522458952610002
  5.1047581571738654  9.2430744657079238 30.1059550509984994
 17.6957490669076876  1.9736587446155145 30.1059644043052721
 21.9072054380443184  9.1966629182397934 23.9755071133451203
  9.3162245829998156  1.9272746740022539 23.9754744095243488
 12.6647269516934173  8.4913010660797408 35.8194556207438666
  0.0737565745932180  1.2219249174247797 35.8194716144701246
  4.5309407633110546  7.2386608001599901 27.8104994232134217
 17.1219233676430562 14.5081080084683158 27.8104975671418728
 21.5336127322474766  6.2885939286383152 21.6777790391727727
  8.9426225937822945 13.5580082672653859 21.6777832401651409
 12.6602660026448692  6.7588066315595663 33.7513306355436598
  0.0692754709907009 14.0282921184909277 33.7513215644452274
  7.5815361677649484  5.7515762900847687 28.0190298503740003
 20.1725015226726541 13.0209761215861164 28.0190366377849855
 24.4391599693908042  5.6910312196603821 21.9959380968215328
 11.8481764021555556 12.9604477671952782 21.9959421885422941
 15.7893430552296490  5.2986675223870030 34.1471180227248325
  3.1983419636359924 12.5680776362437676 34.1471214402455701
  8.4617520511906825  7.2849306744660520 30.4086495922019786
 21.0527361916956472 14.5543364106202109 30.4086567114167785
 25.3258902999945157  7.3852227520384117 24.2921941680860591
 12.7348843804534742 14.6546255771705525 24.2922336721976819
 16.6438926886731231  7.5645653229933476 36.3398342681577802
  4.0529062297072800 14.8339847613192042 36.3398198568804887
  7.6345155435209042  8.7470958716690550 27.9167994086511619
 20.2255368565445934  1.4776677814556782 27.9168191435269293
 24.1443940304627240  8.8425191382134436 21.7858252481850840
 11.5535350030624553  1.5730817537980140 21.7858691891129865
 15.5828581560399790  9.0425397483810332 34.0875625496071137
  2.9918748042516476  1.7731334198162425 34.0875494739245894
  5.0911381825115845  5.3547106452780255 30.1522430457867152
 17.6821141400780171 12.6241192868664029 30.1522353118678197
 22.0654200810927179  5.4165740533807263 24.3064361775644109
  9.4744356929603963 12.6859862810480202 24.3064279666140237
 12.8646029759779381  5.8404727022046892 36.3494460713316201
  0.2735824704839469 13.1099103575381477 36.3494068707363454
 23.9912409630211272  5.6083676662163331 30.1059517308587701
 11.4002570529977767 12.8777824495298230 30.1059558225621515
 15.6117020699815843  5.5619722802024469 23.9754831288757764
  3.0207250134338732 12.8313805859085939 23.9755036944208477
  6.3692519557625591  4.8566108826029888 35.8194678577824419
 18.9602350749844071 12.1260354103769554 35.8194752984007607
 23.4174240227328454  3.6039570621165793 27.8104973284486761
 10.8264328413342756 10.8733684399190267 27.8105005325441610
 15.2381700303458203  2.6538631166052502 21.6777285102545676
  2.6471428069723499  9.9232825927244495 21.6777610351705121
  6.3647783176427417  3.1241420716187029 33.7513249076904671
 18.9557596888421109 10.3935785572728623 33.7513212329502323
  1.2860268792436531  2.1168612338690180 28.0190294032611149
 13.8770193205371744  9.3862754725081867 28.0190335611479853
 18.1436781914335405  2.0563451434840521 21.9959467289515871
  5.5526725349987922  9.3257419349463024 21.9959471678749949
  9.4938422457050073  1.6639355007311585 34.1471309424329732
 22.0848200598319444  8.9333846041802634 34.1471217127718916
  2.1662551117694271  3.6502252553080012 30.4086476553633638
 14.7572444957750619 10.9196261374645278 30.4086517438441142
 19.0303851808061673  3.7505075459695978 24.2922340889646406
  6.4394081608406513 11.0199287449041670 24.2922031345251419
 10.3484100580705896  3.9298974946228893 36.3397964981502923
 22.9393894280157440 11.1992596611195836 36.3398326122747548
  1.3390398295558255  5.1123778608789108 27.9167944195756661
 13.9300243049276631 12.3817911697059078 27.9168050174573281
 17.8490065523181123  5.2077965882841779 21.7858829248360060
  5.2579251281756365 12.4772272762285557 21.7858429929762707
  9.2873486545427149  5.4078101873881508 34.0875405351375349
 21.8783622519147301 12.6772618813162943 34.0875625642633864
 23.9776198028356262  1.7200100264395422 30.1522455595123233
 11.3866311989110720  8.9894120428796978 30.1522503290515296
 15.7699152215723490  1.7818777671355204 24.3064330459404161
  3.1789372360487413  9.0512800535781928 24.3064380102715489
  6.5690800218055365  2.2057827629660900 36.3494232666725736
 19.1600642757259898  9.4752058337140959 36.3494096152433457
 -0.4036384594665814  0.2538834249207547  0.8539409634026326
 12.1873472667012255  7.5232922031917786  0.8539335422781256
 16.7882044733900990  0.0393972427362997  6.3141424186214090
  4.1972225394396663  7.3088043923252091  6.3141371116048486
  8.3456665243636063  0.1267960510606196 12.3603108719910040
 20.9366643640429224  7.3962160046679868 12.3603120514137768
 23.0837041461334245 10.9435127146166256  6.3141417083770408
 10.4927205133625705  3.6741050528920507  6.3141366893549540
 14.6411792436679402 11.0309024155326210 12.3603058751315391
  2.0501845274493498  3.7614959487751967 12.3603028945953337
  5.8918554438891668 11.1580026967393078  0.8539482656740618
 18.4828412422729151  3.8885865384999865  0.8539423905599224
  4.1972228380860788  0.0393961101574897  6.3141352881203101
 16.7882028447053351  7.3088059976853437  6.3141379955012775
 20.9366540049047742  0.1268116464264893 12.3603249055670830
  8.3456666958178900  7.3962080432710886 12.3603103942320676
 12.1873536181964663  0.2538812582063716  0.8539378671324969
 -0.4036366403993771  7.5232946756827523  0.8539442330224070
 23.0837021962511209  3.6740996711661822  6.3141396461291821
 10.4927200156543421 10.9435165133412777  6.3141425074120754
 14.6411599665592824  3.7614933371699451 12.3603171895176391
  2.0501667012311984 11.0309091602237679 12.3603142482910116
  5.8918515758763874  3.8885904730248297  0.8539421038839636
 18.4828388188400154 11.1579969997222062  0.8539435864966504
  4.0336223421879609  3.1300764391136400 18.9005444838676020
 16.6245767411561509 10.3994527441530273 18.9005467375762244
 21.0266438352224476  3.6304067175801493 30.9338393965517575
  8.4356520189270583 10.8998123589541898 30.9338418977179934
 12.6734608190832869  3.6177323220784845 24.8288300619802769
 25.2644387094188296 10.8871336295298402 24.8288155842200844
  2.1401570909826959  7.2651101398966338 30.9338373926895223
 14.7311440022486355 14.5345174294504549 30.9338475898985585
 18.9689577754317362  7.2524342172391387 24.8288323245877613
  6.3779673353663426 14.5218430625429757 24.8288238431697330
 10.3291350291989072  6.7647910211107343 18.9005459208081668
 22.9201574356437554 14.0342015273874132 18.9005497582658712
  8.4356483126495920  3.6303993891435411 30.9338384109981668
 21.0266411038825680 10.8998171514863280 30.9338407251301000
 25.2644541955632533  3.6177284143638353 24.8288192695787124
 12.6734790665870918 10.8871466242661192 24.8288299580117773
 16.6246313080953882  3.1300613214765671 18.9005483144075122
  4.0336567958763077 10.3994950364951215 18.9005540276018174
  2.1401568505307433 -0.0043011625537945 30.9338339083042264
 14.7311435221987601  7.2651059464294256 30.9338465973990395
 18.9689684320621907 14.5218558003007647 24.8288320335539190
  6.3779784583991832  7.2524384146880401 24.8288227754561817
 10.3291121748400556 14.0341787899483652 18.9005542295882911
 22.9201288001650667  6.7647755287000750 18.9005522062408637
  4.1259420245267062  0.1028554999657566  8.3822789837789866
 16.7169245187916360  7.3722630483276124  8.3822819909643407
 20.8828155620805198  0.1966278511598510 14.3953748611687864
  8.2918293176475331  7.4660182943820557 14.3953591040549380
 12.6581740723702030  0.3000083344477528  2.9092784883602301
  0.0672156261225052  7.5693718172136624  2.9092802253018002
 22.0027423909101927  1.7371456584383409 11.6176267938906221
  9.4117503320463545  9.0065472350622304 11.6176135613982989
 13.7049184286644632  0.7810802580235228 18.4072221247600858
  1.1139581963959790  8.0504797675751512 18.4071953846274354
  5.1578074773170632  1.7028825369840574  5.5641535823821755
 17.7487921401155404  8.9722940330025533  5.5641598066369440
 21.8425381549127842  5.6368474898915775 11.7465521525167897
  9.2515378764770855 12.9062479495045057 11.7465572824211133
 13.9874493933927813  6.2545064477267109 17.6939305882045694
  1.3964735206114918 13.5239203975053499 17.6939219544058801
  5.1863905883424515  5.6120997443544978  5.7194017572223208
 17.7773758028636131 12.8815161719046571  5.7194006633786332
  6.4093759233109600  0.2300637435924830 11.6127709747598420
 19.0003755563809058  7.4994817819990667 11.6127771758699705
 22.7277769318468579 -0.7881492755302566 16.8973169961887315
 10.1367799035636637  6.4812590070333229 16.8973095369914574
 14.8963028183074861 -0.0066183381269467  5.5032683176450128
  2.3053228119605262  7.2627894202717291  5.5032609493109659
  2.0892165442636284  3.6587362138850374  7.8914927279680800
 14.6802064985229794 10.9281443242664533  7.8915005317961899
 18.8497898766237704  3.8793986104917169 14.1436373596387561
  6.2587816037428006 11.1488019427430523 14.1436359106453011
 10.5540324721530379  3.7703753502110233  1.6357376391689451
 23.1450319964328131 11.0397526102903161  1.6357513580760856
 23.0124223375362327  3.7375568451300558  8.3822829955723392
 10.4214334814303573 11.0069868573769938  8.3822837581616376
 14.5873228007127107  3.8313011433551223 14.3953666129977389
  1.9963261552117473 11.1007146104310372 14.3953626769816729
  6.3627079847928210  3.9346891122133343  2.9092769019309541
 18.9536902332519830 11.2040833916297053  2.9092814337590895
  3.1162529657626967 12.6412471166785547 11.6176188375619542
 15.7072471379717680  5.3718282288638912 11.6176151602552142
 20.0003574379492619 11.6852352789826597 18.4072226347213359
  7.4094168463426096  4.4157755227517317 18.4071820200936180
 11.4533050271651380 12.6069967976267545  5.5641476188339087
 24.0442878083261107  5.3375847231800053  5.5641600765712678
  2.9560507326630727  2.0021295155812484 11.7465302846917012
 15.5470499009225129  9.2715353219940688 11.7465421840612940
 20.2829597508319068  2.6198428210045850 17.6939789724275158
  7.6919642428306965  9.8892389929851738 17.6938943004796769
 11.4818837242516452  1.9773974114409514  5.7194089419933114
 24.0728710690072418  9.2468063675544574  5.7194023977836643
  0.1138930014740772  3.8647672290755262 11.6127682244834514
 12.7048848993678298 11.1341729950656809 11.6127736615724775
 16.4323109031229677  2.8465315821086619 16.8973106161941473
  3.8412538127877687 10.1159889725582328 16.8973151509345954
  8.6008182878131070  3.6280868183615191  5.5032575821538829
 21.1918020817310158 10.8974983731032644  5.5032685877875167
 -0.0366975891854643  0.2446811858230257 14.1436320389823198
 12.5542886842633585  7.5140930604709713 14.1436281139120421
 16.8495323948202049  0.1356454793440729  1.6357566907449077
  4.2585462444586462  7.4050609820068019  1.6357461131646200
  8.3847131469606726  0.0240329520826701  7.8915002669026384
 20.9756993027348742  7.2934396423665691  7.8915023974424914
 25.2491887621608520  0.2999676878641806  2.9092784245305858
 12.6581688021215744  7.5694249114840870  2.9092749985518842
 16.7169236265985397  0.1028535597994670  8.3822853884804385
  4.1259397953181534  7.3722671401500470  8.3822802927212567
  8.2918165006659557  0.1966088609101914 14.3953621488141170
 20.8828230357537095  7.4660333869376005 14.3953592587326895
 22.0027486951533007  9.0065586066163235 11.6176183384299279
  9.4117499789619075  1.7371350465761053 11.6176159484078312
 13.7049297801148118  8.0504544749133569 18.4071448924869365
  1.1139681544040227  0.7810424979033860 18.4071397320514514
  5.1578082365587781  8.9722885447375589  5.5641509247980236
 17.7487916749112031  1.7028832861382259  5.5641632414734277
 21.8425137235016322 12.9062593169975397 11.7465632266941888
  9.2515311684650960  5.6368373747832061 11.7465473047597442
 13.9874630757695115 13.5240110635208648 17.6938749132239970
  1.3964790012643933  6.2545840420979300 17.6938470484699231
  5.1863929863475207 12.8815144454656600  5.7193967003419193
 17.7773736739188664  5.6121032056089852  5.7193981835305951
  2.3053209158902161 -0.0066204600267886  5.5032627948693449
 14.8963034683982318  7.2627913066162595  5.5032652332645444
 19.0003652181921971  0.2300803134190139 11.6127858309851817
  6.4093765730391805  7.4994797124526684 11.6127719409801724
 10.1367018698603850 -0.7881223617686592 16.8973077766577262
 22.7276889277886198  6.4812940314731744 16.8973106067867960
  2.0892175548239975 10.9281461649496396  7.8914956266555318
 14.6802049353845998  3.6587329344471509  7.8915040985870117
 18.8497943440529738 11.1488173750401707 14.1436459947673363
  6.2587932216570463  3.8793954415946623 14.1436327355863920
 10.5540346692088569 11.0397890768056453  1.6357438929005830
 23.1450301327559060  3.7703443240693701  1.6357494052127477
 23.0124227915127229 11.0069700132969484  8.3822861908391868
 10.4214328850528890  3.7375752081168203  8.3822793252351726
 14.5873394849146347 11.1007055889945132 14.3953542059940141
  1.9963513461258882  3.8312963164077716 14.3953492161517111
  6.3627155783065703 11.2040930134841350  2.9092816271699604
 18.9536906593994843  3.9346723809593662  2.9092800708477342
 24.0442901367217381 12.6069966460371958  5.5641624966084233
 11.4533062526064029  5.3375860190821527  5.5641438721371168
 15.7072573904413630 12.6412465889169994 11.6176133524246339
  3.1162614660468795  5.3718439256134314 11.6176114646517554
  7.4094523477762397 11.6851692376415084 18.4071566631416736
 20.0003936352877254  4.4157951849345745 18.4071580253640299
 24.0728686581635181  1.9773942452547550  5.7193984937365103
 11.4818852024887619  9.2468075524852082  5.7194140529131996
 15.5470204468130504  2.0021205397068353 11.7465559248135420
  2.9560293214773705  9.2715378402283601 11.7465475221666527
  7.6919603011050821  2.6198412876918256 17.6939473391454243
 20.2829640348005640  9.8893126756196459 17.6939771501258036
  0.1138782928228565 11.1341829847144300 11.6127716743883287
 12.7048688471345539  3.8647672517083032 11.6127796720884788
 16.4322757061663083 10.1159404102852069 16.8972977111329996
  3.8412836785466893  2.8465545146386089 16.8973075501028944
  8.6008203569454089 10.8974974061349528  5.5032624088446687
 21.1917998316324478  3.6280871539049944  5.5032654792393405
 20.9756996310297232  0.0240287633357587  7.8915080653544694
  8.3847123374893915  7.2934442438831768  7.8914959733131980
 12.5542821023644358  0.2446886189816318 14.1436489385508288
 25.1452749463351530  7.5140981645593401 14.1436477198648252
  4.2585448266502883  0.1356471639965482  1.6357456340294649
 16.8495279768380044  7.4050555422861253  1.6357536713522425
  8.5410438062907765  3.6225069971848205 28.8619650473993872
 21.1320388796461778 10.8919244304252327 28.8619677701088975
 25.3705125409418244  3.5597700331302664 22.7699371141313947
 12.7795477451560231 10.8291977199505336 22.7699461081144854
 16.9983983446122977  3.3958467790906264 35.2334587748720693
  4.4074097101225949 10.6652512140539724 35.2334623198385728
  1.0591543201212636  1.9863990597372714 25.6339813137132424
 13.6501539158879055  9.2558127948476603 25.6339866500191818
 17.1800217686858794  1.4719731789721517 19.8755244664151114
  4.5890851005774707  8.7413952228466698 19.8754821445390384
  9.3667791346695370  1.9491381464294701 31.6865346302282589
 21.9577677491944527  9.2185544467533411 31.6865336513129563
  1.0088585711653095 12.6070632137058958 25.5025015399369011
 13.5998653627951800  5.3376579399241910 25.5025203798572484
 18.0110181006178962 12.0606301904657371 19.1936056715748755
  5.4200884788346091  4.7912245149405885 19.1935793730714970
  9.3837609306315777 12.5804532421783346 31.6616250746118517
 21.9747530192031597  5.3110450924725896 31.6616275974186046
 10.6985042533608254  3.5752918158697073 25.4357339242847260
 23.2894817115800095 10.8446921443534592 25.4357294998033829
  2.4496651151025497  4.0845492105854966 19.6913948293299832
 15.0405858386006024 11.3538817116746049 19.6913752456639770
 19.0298901230194204  3.6533018118568039 31.4576405160060055
  6.4389024089654123 10.9227057987091438 31.4576488969401140
  6.3206335091483812  0.0206777156268659 29.2989034924402532
 18.9116168010336345  7.2900879822719586 29.2989071381200752
 23.1832585766066295 14.5292391064133604 23.2232346442878956
 10.5922735007318245  7.2598357839421990 23.2232269365489294
 14.6169341123705916 14.3738374431107729 35.2402034464148599
  2.0259423329189445  7.1044409273241120 35.2401956861749994