Li P  S  Cl
 1.0000000000000000
    25.1819793006824639    0.0000000000000000    0.0000000000000015
    -0.0000000000000009   14.5388225279766061    0.0000000000000009
     0.0000000000000000    0.0000000000000000   37.2126966544236950
 Li  P   S   Cl 
 287  48 240  48
Cartesian
  1.2589749426591925  2.2509907574459795  6.1734773972721495
 13.3406221896144555 10.1036587339222699  6.4124580875112560
 17.0469340292461133  1.7221428847357849 13.4891271567035727
  4.6570913285343662  9.1675713090168927 12.8767533702420351
  8.6566289244875385  3.3897006900654376  0.5583087716823423
 21.6135376711510254  9.9164703289495435  0.2621488948730434
  0.0440783275972105  4.4874712835066681  9.1508978565969628
 12.4504853835261589 11.9078356140935302  9.9725848812435327
 16.9150095142467691  5.3072493480749587 14.9837394010305083
  4.7210665812951662 11.8166619173689682 15.6569766479291026
  9.0370317078406668  3.5610845162328602  3.6494428075951348
 21.2448300791053306 11.6910345774821334  3.0667851164961171
  3.4858383863078473  4.9977504138234536  9.0690239290161134
 15.8696071551196010 11.3928230784474209  9.7316277384843559
 20.7533051476337391  5.0403536188473677 14.9198850897403901
  8.4299198722182194 10.8331585785691651 14.5677191103716765
 10.9630865088865761  5.8597545254930115  3.2792088656239535
 24.1148543149136003 12.9730846640229203  2.8081588000835600
  4.4151538916300010  3.6044669393465361  7.0251213085044215
 16.5542012502852032 12.0421316467644743  7.3458370114396825
 20.4927505902557741  2.5551711406108759 13.4026785062368496
  6.8210835187801919 10.3769304264924322 11.7658871208634750
 10.3481913278193947  1.6726493235161644 -1.0402503792446935
 25.3786068364707589 10.3569442349238532  1.4030709567106310
  2.2554482841473860  2.0822100708673679  9.1280662058765358
 14.2317204364911660  8.9699182387690186  9.1013531192639281
 19.1857078076783694  2.6695483802036271 16.3587962109396621
  6.3122578254577739  9.1939224729994358 15.1120387550435709
 12.1215517027249380  2.8663417214960902  2.1470695116183802
 23.4696275897594262  9.6067921325666941  3.4539961601124132
  0.6270954095762190  6.0133617904002588  7.0381783901838224
 13.4233294014504825 13.1925539596895351  7.5137141871600672
 18.2261321563264751  4.8159007304002577 12.1233708291713231
  4.9921104971071575 13.0656091281668161 12.9433543889806781
 11.0117306150321390  5.5631563491845002 -0.2757409120758872
 22.6483158377624285 16.1363204266158924 -0.3946306508019674
 23.7023631585192689 12.8489903639239458 12.6863609835529179
 11.7408220629174931  4.9806878643242989 13.3268978012471511
 14.2304788327049696 13.4008150002686364  1.2677674291015453
  4.3734695142859064  5.9194661170491587  0.5000983034383396
  7.2471526188775490 13.6538967887288418  6.2291764773278047
 19.6804017549925305  5.7062131635405136  6.3484024174596252
 22.8423588753317333  0.6981761387976656 14.9450874237085323
 10.0256009240643706 10.2609213700226860 17.4420780940546543
 15.0377000739428386  0.9935024982396198  2.9691627273478787
  3.6254671404778240  8.3202090723071205  3.9651388549024409
  6.3536686016618962  0.5172426461227085  9.1745784430278619
 18.9138570574077534  7.7225584173343540  8.7726278019512325
  1.7668071486641592  0.7503578027396413 14.6364984259901743
 14.1751859240071116  8.6500860716328472 14.6528507672130015
 18.3260291898718819  2.4629265044720654  2.5629962064331671
  6.3210789302105512  8.5354661253862574  3.3665081902890877
  9.6663170205499753  1.6587607106643489  9.3560502296322312
 22.2409104489345246  8.8916318815645479  8.8871429957684409
  0.1983342547650667  0.1492551843688183 11.3960358040678109
 13.9017051291743172  6.3694050844610084 11.6936051005998500
 18.9313372489525698 -0.8145713156809907  1.3601513471877984
  7.3377627156418592  6.2214938869767789  1.6782171431156290
 10.5736053134440979  0.4549902044504562  6.8080142682915588
 23.3126660367602234  7.3178598023096155  6.6186856229257636
 -0.8457796387831978 13.1256854306359667 15.1929473974581342
 12.0689362038799395  6.3130190289689816 15.7158212150551737
 16.8061874119146104 13.2050698008382525  3.2595158181079875
  3.9057719423394865  5.2862491150563056  2.9457238783480872
  8.5033708042927163 12.3489669062727483  8.8405267742933393
 21.1068505242319091  5.5119593985996893  8.6406414355593881
 23.6471583107045049  2.3994773144598986 12.8997232778071229
 11.5330806062200537  8.5571951714583303 12.7489206662742092
 16.3307191914350156  2.7823053879845867  0.5724557099618388
  4.2581460457010367 10.3648445816387973  1.4397547141747360
  7.1548292256976236  2.1227995550322469  7.0273384286686884
 20.0177178665193729  9.3710196418631586  6.7113254924295793
  1.0737457481451087 10.1157872020701607  6.2514583590209751
 13.3955980160332562  2.1750275839198987  6.7334392528717100
 17.5285490531808854  8.4627798465703403 12.4902154257299642
  4.4407209312417173  1.9643933699809619 12.3272798338017218
  9.9956988547943606  8.1209598430112298 -0.8813772503502898
 20.9594075379368654  3.5366930754896360  0.8574920701596883
  0.3953986399473560 12.0539883854552894  9.2353035060970861
 12.5617188876529955  4.6385252505148209  9.1449709605141205
 16.5198009139503945 11.9748393902020158 14.2395880066882512
  3.5253031635819094  4.1839460445425809 15.0063461589258473
  8.4195044208985799 12.0410307458762560  2.7214056000926146
 21.7973816958689035  4.5255576904836516  3.2004608502381031
  3.7319614352522570 11.0544546581455219 10.1612143815343750
 15.2417559544408423  5.7177746818298569  8.8399926963896931
 20.1220334851891920 11.9952727773836898 14.1535250247693671
  8.2072485609638548  3.5807710122637517 13.6925142302969558
 11.3956879893258538 12.9108530368274543  3.3373326011633639
 25.4417450585826472  5.4316182115672760  2.9923808216551389
  3.9927328580525825 10.9767218053356768  7.1315687028714478
 16.6666387067288930  3.4834430404500734  6.8784642851229512
 20.3992532464781533 10.8712898176505792 11.6304403844856097
  6.7368223209963158  3.0950060173714093 11.1586543952047759
 13.0970696140072818 10.1505598875536034  1.6230629226002213
 24.9519489469632170  2.6608963526382894  0.3649868602564247
  1.5820590011829254  8.9959400415657775  9.4616961073851584
 14.6515489270590056  1.9844524851317613  9.2063788864123772
 17.8670800027423269  9.7216439259947300 15.2748032681714001
  5.8187828226599327  1.8859540558023229 15.0567957782125870
 10.4193351673988701  9.3536052584385843  3.4031989354295789
 23.9149620418360591  2.3997679580024767  2.8750925549561455
  1.4849860767311598 13.1104521421848172  6.7929761382954172
 13.6698567318501141  5.9278818106433082  6.6871569836758500
 17.7328170529650926 12.6555637878382647 11.5762061521639286
  5.7565125342430434  5.9005034617119012 13.4891363979171022
  8.1814616110865330 12.9276218416537638 -0.3226451531616769
 22.9149655539282868  6.6158233890242819  0.5522616668928257
 20.1031066955332989 13.4459289389338625  6.4980969580492172
  6.8842433812833770  6.0656988704075596  6.4039901103806454
 10.8921268480718485 12.9974912622616010 12.8276582151740364
 23.5560675447587649  6.8598053408108832 11.7195415675694949
  2.2030969050901357 13.9835820788981184  1.0946759192187498
 16.0464576803616694  5.9294339788483015  0.3888724098996654
 18.9226833669335974 -0.1534097111676933  8.9608966875510951
  9.9584989126430319  1.4996865016561640 14.2441792585956275
 22.8586863466664525  8.1665333764523620 15.1226959868441639
  2.0613418273837305  1.3973605145830057  3.1322186482554524
 14.7677869908546882  7.2403750856469218  3.3665629450131949
 19.7823819849718099  2.2652269952311719  9.8928210082194035
  9.0979519776310518  8.9389654959849096  9.4337437833556042
 13.5665100366472000  1.5823704154489666 15.1628745296203427
  1.5958591960994803  8.4404462698535347 15.2484625653077721
  5.9149885318238002  2.0568346706747240  2.6489979165607482
 17.6688554788107339  9.4457087577268801  3.3397472073464041
 23.1946485259453503  1.3000592787076284  7.5197458756846940
  9.9801395540521334  7.4435575243778143  6.8922089976527712
 14.3097988211967575 -0.5501776333223943 13.5958211723566400
  2.0167379865110457  6.8539928844176199 12.8073444639833482
  6.0419637127127386 -0.6774532027497048  1.6395546933099561
 19.0366517328171838  6.8319844265195862  1.3769357872492534
 22.3560293293149179 13.5087412911960367  8.8596629462942893
  8.3957040404338041  5.2896164487072825  9.1855225974419525
 11.5759341072384618 13.2996757778095525 16.0979419281762688
 -0.1460512386460872  5.6644796716424315 15.0196385443331213
  4.3106705204900244 13.6323438620596615  3.7979824333747203
 17.5182985852767352  6.0123556813975876  3.4300859381498667
 19.9216966167610217  2.3562465549085587  6.8787368765287482
  6.3030781748610476  8.3820531610670965  8.9167581355980357
 12.3809032220855144  1.1752039024981171 11.5391318014903188
 24.1960657260319820  9.8360244874064797 13.0436330429521039
  3.7004617205892578  2.9393580591027937  0.5087751195532030
 17.0996213515574205 10.9388282265466277  0.2337410637820541
  5.2689058723222564  1.6764516129504778 30.4689438555953309
 18.0648172403810143  8.6059699967850776 30.2551932984306688
 22.1291936879835305  1.6967736570419685 24.4435780012579897
  8.8062303322588793  8.1531743805766403 24.4513980493261442
 13.2765568908108538  2.3697398023550673 36.7005803344793620
 -1.1559759126215532  8.9387732464840024 36.0134919799360560
  4.2869198787868950 13.8136625466031155 28.3609931463298821
 17.8672827637481610  7.6588444722862077 27.3347912503340780
 21.8802308704776998 13.7667762067937485 21.2794776854563885
  9.7575263931938157  6.8658370635278017 21.4659138299903525
 12.3895540893057561 13.2293066004383206 34.7326770485041578
  1.0017182876140585  6.5707467619176239 33.7035319771843191
  6.5357669573188435 11.8830260437839783 28.2524001651968462
 19.1198366413144392  4.4182563467662161 27.8446892867674620
 24.9610468203949942 12.8760401589723390 21.9249552248841262
 12.2986767152829266  6.0213111616945145 22.3971339235629507
 15.4233585451284601 11.4280960732410666 34.5641170654272329
  3.6094361601534728  4.8107868626989507 34.4994734796607858
  8.7655727755740482 -0.7249724595850305 30.1149516837154181
 21.1916299832581423  6.6158321303024197 30.1525809040853900
 25.6096783821984495 14.4465687513138903 23.9797467721955471
 12.5778326850096356  7.2821882979863908 24.7999124368429769
 16.4765728259787068 14.9590612342566427 36.5070665388016309
  3.2826290139151371  8.5617172001631197 37.1318650866840017
  6.8889983331965556  1.4051143615408714 28.1266961704062517
 20.7968329782906167  7.4590716383215083 27.3780284590282079
 23.0506543965090032  1.7485571682486702 22.0034464526146927
 10.8049602982905615  8.9453065445303483 22.3610418558088462
 15.0929371844663258  1.8277573807524781 33.9785110806716020
  3.7560815768125466  8.5492837924799900 34.1171426487562641
  5.8055705215336140 12.6866128106967864 31.5092386100855357
 17.9893337336292980  4.8465353241366245 30.7758037682919294
 22.6397778582462479 12.2386042639239321 24.3475040788706636
  9.3583439164970788  4.8269003728704831 24.4214784506217590
 11.1649516887766982 12.2122010191342678 37.0300864465489141
  0.6388948726175733  5.9914633742622172 36.4851654865212396
  3.1652371396729517  4.6934342666325000 24.5275417826002453
 16.0389588607296183 12.1316669456256960 24.0137242667483548
 20.0961956396481298  5.1922303413402622 36.0896746622785685
  5.4272132979886782 12.1688839810275464 36.4212851125937860
 11.4876128414348297  4.6876278197713797 30.2960854606564673
 24.2769264982914770 12.4939879217249725 30.3750889061115359
  3.4037631338251706  1.6354177002358232 21.5721959646417254
 15.9525975980438659 10.8449453004470637 20.6247261566390918
 18.3318102038499404  1.6308834225019151 33.5147074036440884
  6.1277187387499907 10.3762700016529408 34.3844381739789569
 10.5276022905038875  1.9302203283961492 28.4046465154514500
 24.5799784685704417 11.8905371416753312 27.6793058502340941
  6.0249628027099105  2.2871883761538436 21.7508097518958614
 18.7716749579887612  9.4491439156710708 21.3668180286300071
 21.4964685949885421  0.7939234317963967 34.0951571921599879
  8.5285788043026862  8.1835041442867240 33.6200756545672874
 13.4489789936429585  0.8205476895945115 28.2275553372759482
 -1.3634085781753027  9.2819023517743933 28.2431196403499385
  6.4041321073813062  4.0795966772731020 24.0723868770339173
 18.3994641157201606 10.9432175178255040 24.9857777064199169
 23.2335891643676611  4.3838750394437520 35.4570389610189451
  8.7034679314774355 10.0622098815074441 38.1447228836578134
 14.6066101551978935  4.1450269252611704 28.6341010760996113
  2.4660221532979261 11.4458795785575536 29.9029767489794409
  3.5836009796517940  4.6905995192736256 21.8311196704200157
 18.6341836491235533 12.2325024186694478 21.8798642987034988
 20.7140741315398529  4.4307341597988232 33.4994035421202625
  9.2524660336540148 11.5070623632608910 34.4412282714879225
 11.9820121998217335  5.0730698064581601 27.7584895784154710
  1.9913016115058260  9.2089764454508671 28.5129192654530073
  3.3304259555590279  1.7253894430142163 24.8767234954047183
 16.1699169557882563  8.2978324769098251 23.4816050479986274
 18.7289717618914651  2.3971494291342159 36.4475301856429468
  6.1987559066129343  9.2757686752368258 37.3499724841340068
 11.7845449772771680  1.4667678475131851 30.9521689446123816
 24.1033597325806106  8.9825822482295425 31.1039306175891248
  5.8043187778961745  8.9358165109875198 29.5835207435518441
 17.1229352928135867  0.6228355805394751 29.6977432309099250
 21.7879198815055091  8.5158069350537229 23.8559254559269505
  9.3873022700957289  1.2753902678257463 24.7788214336852661
 13.7191423243780086  8.6282929486465978 36.1544472208750065
  0.0496030421572791  0.2932809551000554 34.6079440727534262
  4.8359511364322492  6.7577910420868212 28.1483711596993018
 17.4761877003692661 12.7771814018277272 27.8123083580227188
 21.3311903032731145  5.3140581047034061 23.0641809412255583
  9.1567900980745538 12.8762227145058095 22.2437390555184500
 11.8276533509173660  7.7594671414706466 33.4044370494029437
  1.5839201450126357 12.0279442700058521 33.6921794802533938
  6.6404386354190077  4.3333851087719850 28.3307199986958516
 20.4577548508104634 12.1092707649573619 28.1246175751492444
 24.3455276432924386  4.7484621070538564 21.9711032396514199
 12.0211537798483672 12.9829266750634886 21.6109730641226605
 16.4712556575328115  4.9654638545476750 34.1160099064488165
  2.1492530830888561 11.7052354712381401 36.4117674719124196
  8.9471649194183431  6.6745203231622430 30.9298440457207420
 20.8494682186192755 13.7225727627599330 31.0316998166009057
 25.5642328669289753  6.7216340413516882 24.0395661275119004
 12.6031174045684704 14.4650145048215339 24.6801044750918166
 16.1526492868552296  8.1976305832210432 36.8488839060053550
  4.0958865996211244 14.8085731174733084 36.4275732019372356
  7.9345048119955566  6.8711993089551289 27.6543189271012473
 19.3585066448609595  1.0674678254425063 28.0642261216147020
 23.2105039665466357  9.1286682161980739 21.4378697255164603
 10.6165326170160110  1.7039456572189406 22.7310445367664116
 15.9165824766778474  8.0796618132520805 34.0504891285556397
  2.4269158920447147  1.8546211353849231 34.3717718070412346
  5.3958621262721369  5.9756113757202041 31.4833551941060961
 18.1056209468011353 12.2042331684355272 31.0333355850449628
 23.0625035362090749  5.9035649084217079 25.5621988683239643
 10.0310129084837030 12.3723777114437024 25.1961660027037908
 13.1210068731561726  5.6586955883241989 34.8334420400159388
 -0.9376995112381100 12.2942838238444292 36.7047234170161545
 24.4476525617323759  4.7873956384716330 30.8118751303740943
 11.4735454582023522 12.0080242302966020 30.4344695484681829
 15.8657225662728845  4.8658272031871785 24.3930984397807293
  2.5979425400375438 11.7522450959302240 23.6837404166882379
  6.1058350289434102  4.6857208658897775 35.6451076631974288
 18.8104572809773529 11.8150300150724714 35.2855429152834077
 23.3298196829310989  3.2413592363476234 28.3937052016055986
 11.0610413202042839 10.3681392964389598 28.3964817938328942
 14.4187801485049221  2.2762912825485766 22.4618915148979248
  2.2682892193118191  8.8790860640536504 23.8470110313685062
  5.1570472900404285  1.1904778124108024 33.4901695513475488
 19.3888152731576469  8.9832245824036718 33.9588566789281217
  0.2526994587715493  0.6987978620214262 27.6482965965614369
 14.9156633285077298  9.2495242295856261 28.0917169078251803
 17.3100916369998181  1.0157128061455636 22.0140951962107749
  5.5436162676599015  9.1005875578840136 22.4837739427069288
  8.5310224543492996  1.0041324569873329 34.1491009602465638
 21.8027531565870056  7.7907968557728644 34.5201192424279739
  2.0576389650001645  3.0571264516067940 30.5349080612996922
 14.7271768144847375 10.3913195783502097 30.7686619740184462
 18.9701657014675362  2.3994595632714018 24.0065720238120441
  6.6448170194249609 10.7609226820797073 24.3947055958324022
 10.3059256922330320  4.4071982000646193 34.3027553510004566
 21.6972039831726278 13.1302949233734338 37.3387037549199974
  0.6960431979930842  4.8473409037082797 28.0586946065922369
 13.3591192101939065 11.8041636100245455 27.8547283610623317
 16.9238091389364982  3.9560449212466464 21.5052044739324657
  5.2261844102865220 12.1441264596990059 22.2623247431649709
  7.8597580123617954  4.4821552224749448 33.7695538827924793
 21.5827770774821346 12.3480247463219328 34.4205571074959025
 24.0859922989586046  1.3372344100079998 30.7199069671722604
 12.0426663753407404  7.9206172302902855 30.2313674163469628
 15.7204618939331926  1.0714296696940078 24.7133938350774436
  4.2019582476878350  9.1198951097455865 25.9244041101175178
  6.5301137747260549  1.6697189491167113 36.1432462650092745
 19.2710582422872392  9.3820341093788944 36.7083426528051433
 -0.5998717901397532  0.0758289900409848  0.7755768674895240
 11.9464136880658227  8.1362092880677146  0.4945075915077166
 16.5556793196139900  0.4817593939450050  5.9415012236794302
  3.8512277079175261  7.4396111953949742  6.5236638544515895
  8.0522047978613553  0.3622132683406742 12.0747794566038369
 20.7165158703994727  7.2834162416616781 11.7092527096382142
 23.2525420429031975 11.1957963090281734  6.3403686459584145
 10.2649644003001779  3.8336134908642112  6.3951860319228615
 14.3178265518719865 11.0146470930659106 12.3746354797794424
  1.5180076872368335  3.7059407407461102 12.1307505641806355
  6.7465117753484884 11.5958702932387236  0.9800024636877346
 18.1862274710562808  4.3437492184048354  0.7810102977917560
  4.1667645740565424  0.5273760411285213  6.1550620021651596
 16.6490683838412288  7.9439477501781779  6.3859778246391521
 20.6495722705414373  0.0665165384149519 12.0931016357765433
  7.8897385359783376  7.3745852468723347 12.4610221420365299
 12.2770006891727750 -0.0277060225138511 -0.1194793809711298
  0.3968968149040740  8.0762638356050580  0.6479918888462347
 23.0463966338704438  3.9199538161010361  5.9945774103144078
 10.2304510656479071 11.1628559549008646  6.5829881965509465
 14.5893683743736631  3.4395358562358309 12.1902408157056623
  1.7733641728601066 11.0214067006399112 12.3810933642250678
  5.9278692369019570  4.0669986694816957  0.7212836929555921
 19.5020551474886794 11.6125670802092067  0.6919077179274830
  4.9923606069692070  2.7051654610358469 19.0535414669631642
 18.3739833449006582 11.5982276729195171 18.5083380626350937
 21.1634643209968729  3.0200418554872086 30.9883389452041662
  8.5963790595526799 10.2373615586352109 31.1936152873456933
 12.5090993549575149  3.1667617154677696 25.5294982581273828
 25.3568046325461651 10.4327207486773759 25.1965776384251683
  2.2873001650884253  6.7450638773498675 31.0870771141371947
 14.8494371810802264 13.9247679272979532 31.4496108224858482
 19.1390675330593076  6.8717680268950669 24.8911133846070030
  6.3742114672342991 14.0833497109645354 25.2703604396790524
 11.2275867977755599  7.3401485334567171 18.9023617981143381
 23.5159598854840297 13.8876115646629579 18.6315718755218853
  8.5193008083685076  2.8490430988728064 31.2572412539117011
 21.2067803584006036 10.2560960185863141 30.9805016041395369
 25.3378557665265802  3.1932749508110674 25.0742712377782837
 12.9187268585123434 10.3766547709475887 24.9553273172006271
 16.1085006819048218  3.4582547276437534 18.7340778061411548
  4.2050261115865890 10.9606095593750013 18.7422085370440676
  2.2249481942700018 -0.3648542515555771 31.2405331026322912
 14.8102777970158783  6.4608972022121645 31.0739661190189302
 19.1148544479684084 13.9241613494413006 24.8574416081256580
  6.2574911909433881  6.5572595984796633 25.2501655473983249
 10.5131565637451843 14.2291391828129772 19.2125047269448856
 23.0044076476186881  6.1889807023229535 18.5346885548152436
  4.1645797633423065  0.8773471514053472  8.2130357653047064
 16.3652886724805100  7.7933623813195281  8.4284797295664351
 20.7370734774270638 -0.0455404992768387 14.1423512982287658
  7.5371339434594296  7.0401461979658269 14.4591786385140662
 12.9831567052449337  0.4063591210658970  2.0304131868735453
  0.5631194273258922  8.3986182477637126  2.7024688982816896
 21.7116985299606711  1.8207894441657151 11.3289079876855823
  9.0822807244402366  9.0467205310528893 11.9744336747144420
 13.7414920262735958 -1.2136214261209519 18.3061164377795969
  1.1819494470293317  6.6373107290089868 18.8686646657527604
  5.4705189441304638  1.9404880263194890  5.5270011391677905
 17.6398419780234121  9.5883618128219226  5.8411999019957976
 21.6121892781255696  5.6657435896150528 10.9513586035309878
  8.9162925299040268 13.1762465846967256 11.4875995825363599
 14.0273848594756121  5.4956082187639836 17.1958125554995718
  1.1246717512823594 11.5328595614345417 17.4954013025376263
  4.6582411117437212  5.6965816537987068  5.6079761911075217
 17.7055872020139020 13.2986425631700378  5.7670135324319505
  6.1951954609371374  0.5865879356957731 11.3328643123429877
 18.7387068675527289  7.1682588356086736 10.9894033787641341
 22.6754659381655905 -1.0351931028542727 16.7470019718636145
 10.5630298785973995  7.2826943272657463 17.0326283453314069
 14.7169351212318702  0.2596776546521092  5.1291704011186416
  1.9064146721396384  7.7633486471419157  5.7828439633028683
  1.9257808541801016  3.9947796092871091  7.6142620711844398
 14.4362673818712839 11.2506156712468162  8.0276392774097207
 18.7666337995934356  3.7572160670195798 14.2200003544769515
  5.9526851564298893 10.9057789039087236 13.6650985279416961
 10.1317576341423248  4.4578006420832388  1.6390606035334057
 22.9622315489447502 11.2330265044916153  1.5185076271756850
 23.0853782025810617  4.0416875374548180  7.9706400051932045
 10.3340630466576329 10.8530992255794310  8.7123349526467013
 14.8884591018600396  3.4472583836433039 14.2737151531865294
  1.8440486811636925 11.0808040202092002 14.4366266553290181
  6.3186870979641645  4.4030182824606747  2.8386391016875638
 18.6050510889519067 11.7768391830629078  2.6409553309442302
  2.5136275617011719 12.7622612310546533 11.6815090767788217
 15.6992532775750284  5.0180200534514281 11.5083965561149579
 21.6055882702244872 10.4235183638046411 18.1246757022140130
  8.2427176835969185  4.3580983886753479 19.2515838162101609
 11.4633605184467413 12.6749196829833757  5.7616215877514803
 23.9904010367706206  5.5865125832868845  4.9415059905806764
  2.0661882342052023  1.7863595240217205 11.6745896335348629
 15.1444837148251885  9.3116598672647122 11.3320735175331624
 19.7807954332001330  2.2787267122504655 18.5749505003970548
  7.5638242547958940  9.7795475773871825 17.4772256895497087
 11.1303909894529642  2.3230688766586653  5.3954726402221436
 24.2644943373410058  9.5349345231850258  5.5525730603343169
 -0.2322322763771719  4.4182453596449260 11.4928899711481751
 12.2663363271935353 10.9007619749630837 11.9195036630945097
 16.6676103645016092  2.9555792927449729 16.7950633112306242
  3.9322380151435832  9.6383104065095804 17.2558159119285222
  8.3178412826478354  3.8469775857899542  5.7322264518579438
 21.1488853498943428 11.2785758448022388  5.3877218913277884
 -0.6130268414700046  0.2066661625582111 13.5129531659698934
 12.8251708599084822  6.9452475967046921 13.6771251908032720
 17.1184206472317690  0.5896078567865596  1.5519301883421266
  4.7741501114806439  8.1437333402251380  1.7424487348891948
  8.3805534221886884  0.2203704017277103  7.8417087078068919
 20.8488448493303089  7.4533084680182489  7.3409370674528294
 25.3019928279543578  0.5399606155216461  2.6468304947655605
 12.4830410580828080  7.9732853908738637  2.5137206335545819
 16.5747078293746313  0.9171350440701186  8.0850506296263305
  3.6814689782549026  7.3414952962732203  8.6167411321066307
  7.7734771586191993  0.3551409961636343 14.0685446723559622
 20.4815424614681234  7.3564280927052774 13.7062947483196584
 21.8005277448760886  8.9925274065913978 11.1808400275314277
  9.1527201217530205  2.0644102522167325 11.7099803043644002
 14.3531395572106568  7.6146501055927907 17.7538851094286727
  1.1989620347118888 -0.9670085826618604 16.6543386859884599
  5.2045998049690017  8.8339914042197023  5.8965823193126692
 17.5686275245128449  1.9610336268831783  5.1007013222428723
 21.2641217006771974 12.8997062916725138 11.0752128606063565
  8.8369611173601932  5.6455269902427894 11.6456585905158860
 14.1530415561225880 11.4753798504569264 18.6685046437723408
  2.3068400813027146  6.7680003481869830 17.2817153831999768
  5.0567694574352924 13.1882727989624389  5.9415961446231451
 17.4037242279981115  6.2047138950258161  5.7333310676058327
  2.1737929101246860  0.2996698108409168  5.3756933813529795
 14.5767816778480128  8.1383543880121483  5.7871955386337621
 18.7705711317252586  0.5021501336633295 11.3322998367496819
  6.1083544382518822  7.8105323778854103 11.5441013733677664
 10.0376988587626013  0.1123395052256437 17.2983762306549700
 22.7676921139227453  6.0105360437753079 16.4512257106475168
  1.9286192041300037 11.2167282737852663  8.1894627398414848
 14.5610408272123539  3.9959341840264124  7.6162019624633883
 18.2634383578358985 10.9565520042017024 13.0596998441513286
  5.6210583287605278  3.7381342390326311 13.5516308885342767
 10.8185341601659868 11.1185623345394013  1.8351209808624531
 23.3280037425858637  4.2442565739616125  1.3310354006523839
 22.9515569210286294 11.0881201420423281  8.3517699304790813
 10.3066581889442563  3.9215626471474998  8.4724865660160233
 14.3131986286551829 11.2044643606312100 14.4413866196653498
  1.2332775082504683  3.7890989478494403 14.3525868405904795
  6.0379156330569739 11.7427520187514958  2.9706558180958185
 19.4643062323505518  4.7708718296465875  2.5879562686236990
 24.1895486979475720 12.8117152604233340  5.7201207799043425
 11.1574098898683758  5.6683407994667698  5.8894859522782381
 15.2470354949587268 12.7906703481714477 11.6128508672960731
  3.0741914516349365  4.8881417907237399 11.5619191410415869
  7.3547220226378505 11.5153290521094931 18.5998501254610176
 19.6830060937468332  4.1442972716861552 19.2091962464963508
 23.9333381747190792  2.1679893482998467  5.3547657364134924
 10.9897102489228029  9.3571415202087866  5.8101616064139101
 15.2857122315916527  1.5871673717272283 11.2416363342123020
  2.6162078739346679  9.4122426248429445 11.5072565486302469
  8.6551821800236084  2.4973343651915108 18.8852567132025975
 20.9937911357413896  8.5397695014460062 17.5523736080714841
 -0.1420234655535275 11.0282607813720119 11.3746635681079340
 12.5248762198604595  3.6127124816185838 11.5897954616981558
 18.4418755691888876 11.9347511630962746 16.4391827591574753
  5.2635593299907670  2.9648767985934343 17.0621547702742404
  8.3827110983528801 11.4697650673450191  5.6654491871957582
 21.0985459643678261  4.0252620681993463  5.2709211733687047
 20.7878831739602816  0.5117640916563838  7.8541219358343097
  8.2437151880626551  7.2918325182493815  8.1228271423609097
 11.9740902711611970  0.1362531043564688 14.1297633641250933
 24.9685676033247326  7.6535031821731607 13.8575801476277771
  4.0069497874037667  0.6737160545550068  1.6094868382160157
 16.7135852892685257  7.5684795127717379  1.8549639700682841
  8.4857729978153067  2.9086583202154932 29.1452336823409333
 21.4782285430080648 10.0891904536311259 28.8708035508222736
 25.5308220379761686  3.1594897256843888 23.1665119445469649
 12.4946361476660392 10.7125492297390217 23.0372370502378345
 16.7925470167184550  2.8409052280738543 35.2050193110618181
  4.2752023021433745 10.1882937562086173 35.7227789633589055
  1.3309849255881951  1.6792814476298676 25.9895700393713263
 14.0323904741600831  8.9103824594658754 25.6771165188346338
 15.8190274572746379  2.1177336270692044 20.2355992225819818
  4.4431061618758747 10.4793573387742249 20.7556215720443262
  9.5294205283826265  1.1593688717247366 31.8786403674994787
 21.8472176526788289  8.5474954296635275 31.7816584132594677
  1.2006446061000342 12.1249053787105403 25.8036002814999570
 13.6340332127058126  4.7209318168437084 26.3132188764759398
 20.2809631287731094 11.3669924372957460 19.4333001928696092
  6.2974320345745687  4.3994605588266751 19.9990666443635128
  9.5406662940042626 12.0979234082239522 31.9824246805038825
 22.2814321789277408  4.8489870241456003 31.4621058184600031
 10.6064594533627350  3.1709813265708555 26.2788154193491081
 23.3023718138804377 10.6020354883545131 26.0567780650601009
  3.2468536459669091  3.2407962830070773 19.7822190456993141
 17.8811562680327789 12.9804325720596658 19.8500111169109772
 19.3414159757665374  3.3133119529731867 31.8834330105910162
  6.7136723743092270 10.0526001115472816 31.8301968575143306
  6.1762866738481943 -0.5387293023164489 29.7309265152066189
 19.0109587355383951  6.6143937921237326 29.2846249253748105
 23.3856631413296405 14.1660202493480565 23.2421662442320205
 10.5169814256938370  6.9634219688755827 23.7703612624162233
 13.8900630469774864 14.8227079484275084 36.0162333935452139
  2.8959716224683243  6.7187029716507665 35.4722978701398546
  2.2822083731964597 14.0830483818873304 29.2597368847517600
 14.5582537727159576  6.5301334148992209 29.0488852344869635