Li P  S  Cl
 1.0000000000000000
    20.5609999999999999    0.0000000000000000    0.0000000000000013
     0.0000000000000033   20.5609999999999999    0.0000000000000013
     0.0000000000000000    0.0000000000000000   20.5609999999999999
 Li  P   S   Cl 
 191  32 160  32
Selective dynamics
Cartesian
  4.7335438433017432  2.4990445979405020  2.9706536088043998   T   T   T
  4.8367952175669808  7.8900987869832173  6.8026424849987404   T   T   T
  9.7240096672083212  8.3645675661361842  2.0334663261294330   T   T   T
  7.5292781903603165  1.0920406420324849  5.8067367171114235   T   T   T
  3.2967244753517666  5.0100429950631735  8.0718207816112155   T   T   T
  3.2519789971604056  3.2911920655234139  0.1442806054484466   T   T   T
  7.2348454410373071  4.2849837650308107  9.4389077132268486   T   T   T
  8.3496969362014557  7.2751597438814013  4.5587829660077333   T   T   T
  7.9408314436175962  4.7189846946166965  6.9983523343747409   T   T   T
  6.9336805599900950 10.1572595510103234  3.0891081228377497   T   T   T
  2.7960374542265405  0.4441771836979304  3.2221287960649798   T   T   T
  4.0775045116274944  7.4061562367466092  9.8252687152760760   T   T   T
  6.6464811088027433  5.5155237998427955  2.0178816892529641   T   T   T
  7.7443889315568226  0.3482102767542964  9.6258234485358170   T   T   T
  2.3334771299555572  5.0733632493392093  3.1001754739389242   T   T   T
  0.6871937597794410  7.7397158569831470  8.9738350374867597   T   T   T
  9.6119744196647687  2.2051029220766201  8.6026132837735290   T   T   T
  5.3164757036224222  8.2374524412834820  3.2778875720737615   T   T   T
  1.5897145000973514  7.3229894566371891  5.4301578290830399   T   T   T
  0.5418804088012603  1.9966239597031283  1.5789140707907812   T   T   T
  0.5494392420633559  2.5295025042257793  4.4556055656716147   T   T   T
  2.2035084265705449  9.6639886184470090  8.7236115971111889   T   T   T
  4.9826860850502666  2.5571504996326824  7.4663173702340497   T   T   T
  7.5310585746145664  7.8004595281528060  0.1449146284373388   T   T   T
  1.9166831816239003  3.5070107630062561 15.3343339639283780   T   T   T
  4.2709568282391333  7.3282955840522064 19.7387167807890336   T   T   T
  9.2647033749525161  8.1460278195272071 10.6926780887150397   T   T   T
  8.0686316881623394  2.5448736057213988 15.5402043830556345   T   T   T
  2.6679830161655440  9.9121821679993367 17.8384811890905617   T   T   T
  3.5936539007035133  4.8794955876119221 12.6208628892745267   T   T   T
 10.1618671933542242  2.9755192022831527 17.5469068886062125   T   T   T
 10.1543115282504779  7.9522385171514891 14.5460145970890160   T   T   T
  8.2419081957945739  0.4095071013605276 18.6711155263169744   T   T   T
  7.3895302661807749  8.4281568811611915 15.3324685756304167   T   T   T
  4.6396123530083857  2.3928837413094883 14.7155642127407198   T   T   T
  3.0068993826425463  5.4461730068857293 17.9368262199834767   T   T   T
  5.9178780596011986  7.6454770116001169 12.3767769808567589   T   T   T
  7.2620511878953691  5.0423539106618440 18.0510012416701464   T   T   T
  3.2363843396234491  2.9187615591233564 10.7118692510905014   T   T   T
  1.6075315721411809  8.1645667857733546 20.3584558279617305   T   T   T
  5.6563468844951297  1.2687101905188398 17.5258654716314659   T   T   T
  8.4623798984473435  5.4929968699555349 13.6371876932730594   T   T   T
  0.0765044950736000  6.7826032021377474 17.5816435573429324   T   T   T
  3.0919439012395098 -0.0090835879405116 13.5287720426082263   T   T   T
  0.4656951007293079  2.8026734849998705 12.8716084615680586   T   T   T
  2.9800063289850360  7.6675677607833235 15.8232055960106290   T   T   T
  7.2789728364581618  3.1883238956673461 20.2577261309071197   T   T   T
  8.3866024324236115 10.1474843965397756 12.7885714141155162   T   T   T
  2.1903688634742533 10.0675489642713405  2.4479940896080925   T   T   T
  7.0053205282942619 17.5394373375850172 10.5395639992417891   T   T   T
  8.3931600133086182 15.8457448398437446  3.2278134188553542   T   T   T
  5.3630547143645160 13.1371024398789196  7.0564181340741658   T   T   T
  2.2607022498440936 20.1811350088364954  9.2932523996560068   T   T   T
  4.7150696228429370 12.6996069490249539  2.4717381654495925   T   T   T
 10.1286030747834630 11.8794104759315644  8.5479948988299643   T   T   T
  9.9951039625876206 18.1733569272964495  2.3015735906623362   T   T   T
  7.2959583551556522 10.3751803344545852  6.9980593029318685   T   T   T
  6.6778846357051727 18.5016867521472044  4.3846912226350554   T   T   T
  2.4065792555176753 13.0385196877716325  4.8590173181248755   T   T   T
  2.8367514236566138 17.2010811635542211  9.8079511024093460   T   T   T
  5.5779974543483020 16.4549723647202981  2.1330155220686571   T   T   T
  7.8085824607194745 15.2204086913452361  7.6295611525392335   T   T   T
  0.2106618996210100 13.2328795774289691  2.8661436929907604   T   T   T
  1.0341315405831775 16.7681121654986605  6.6749953662987327   T   T   T
  7.8429153384014230 13.0769696022278978  9.7033853916761927   T   T   T
  7.2679314988354138 17.6386197811541088  0.1796727673101481   T   T   T
  4.3387486601530894 17.8420211289605639  6.8513537776878817   T   T   T
  2.3748550552914320 12.7541131086173110  0.2263460627768515   T   T   T
  2.3268417963922756 15.2516802068679311  2.7493119192390307   T   T   T
  3.2415092384069131 20.5061068827710677  6.3377373446397405   T   T   T
  9.2369796146646479 13.0376669608518760  5.8038547718524693   T   T   T
  7.4691822127234646 20.2846386280827424  2.4226445072982794   T   T   T
  4.4263349424432255 14.3658634437071502 12.5061809581531058   T   T   T
  2.0650856400037290 16.8198012690717320 16.2658725996181808   T   T   T
  9.8686182395800088 18.6918416904332396 12.3487424014558425   T   T   T
  7.1947009963029975 12.3349442221248840 15.5740429058804501   T   T   T
  1.9394110383515379 20.1293971467770412 20.0918813864578176   T   T   T
  3.7807788154876776 10.8970150603602995 13.0150328252016276   T   T   T
  7.8165953457778645 15.4437842602134516 17.6887849448741257   T   T   T
  7.0024270836955953 20.4975114802491198 13.3016813227415849   T   T   T
  9.5647264896296136 13.3390318476416745 16.8151856807160698   T   T   T
  5.2959945049435326 17.3461121551024142 12.3396644139446394   T   T   T
  2.6564807169435545 13.0746717038480345 15.2298226834893438   T   T   T
  3.0009965759602197 19.7952195658129071 17.2295652343244257   T   T   T
  8.0860479136949106 15.9005812899780263 13.2480304562753943   T   T   T
  9.8560764295666718 12.6377082412081805 19.4644328136404283   T   T   T
  1.2715121008395329 14.3992739455055130 12.6875636537062260   T   T   T
  4.4358768427726938 17.2430547578973581 18.9239288292331516   T   T   T
  6.4349664355241094 11.0806765423725189 17.8998198891609661   T   T   T
  2.1187164458368892 16.4093493049551284 19.8732428540391908   T   T   T
  2.7955934825168156 12.6338647070497387 10.3342129270538479   T   T   T
  0.3969345677098421 11.8523624376861818 12.2080213570356051   T   T   T
 -0.4347042803892967 17.7913116926792725 18.2718316916825678   T   T   T
  5.4309690437459270 13.8294210862766658 18.8207487641907463   T   T   T
  7.1516142476201487 18.6323577257891877 15.4018503059438405   T   T   T
 14.4145203119254113  2.2092210502073271  4.4462514074164261   T   T   T
 13.3643220257798365  6.9223888694766877 10.3294658348886124   T   T   T
 19.2860638390267631  5.6361597314824179  2.8758655893782206   T   T   T
 17.6356313250514702  1.8946330338846038  5.5319626804087214   T   T   T
 13.6664849124592216  9.3637041548180751  7.3022441305226273   T   T   T
 12.2815662025229813  4.7831651255846319  2.8089928236896906   T   T   T
 20.4844592456145520  1.8920794574325437  8.0289427869305872   T   T   T
 18.4200144347540480  7.3967762402308113  0.3388633063231048   T   T   T
 18.2244754491972252  2.5879957084455749  9.9422177752851049   T   T   T
 15.5233953073619837  6.5823245466359568  2.1160570794962350   T   T   T
 14.1740051972774648  3.0190243077759029  1.0834101387138682   T   T   T
 11.6075027622422056  5.1150582139803520  7.0519994958487278   T   T   T
 18.2736857196358535  7.1787253762323546  5.0113289807789565   T   T   T
 16.1083561988356330  2.6575447778069279  8.1511573133430613   T   T   T
 10.6080815575480543  2.3395417863394896  0.6954834515013600   T   T   T
 12.5601591906810999  7.3165618683102780  5.4095693113361376   T   T   T
 18.2415164277724706  0.1012036851146537  8.3806159532935798   T   T   T
 19.7019000718341530  9.0158071700159343  2.2435631918243280   T   T   T
 14.9188862008413494  5.9014432199327942  8.1617332801992024   T   T   T
 11.7439335355346408  0.3270389407002498  2.4173100490051302   T   T   T
 10.8680938830537226  2.8126456232063046  4.0338639423635740   T   T   T
 10.7465737742477447  7.8290844676576956  7.6420292520740736   T   T   T
 18.9069961333553813  4.8592828515743607  7.3130236086631895   T   T   T
 16.5592857847701858  9.4304950602183393  2.8504181573279754   T   T   T
 12.3055238882232132  3.4425054400812729 14.7508383573730271   T   T   T
 13.4671934896041652  6.5504084561290696 20.2881287204943810   T   T   T
 16.1442470260519464  8.0893947779011839 13.1528633361320129   T   T   T
 18.3565701520370403  4.3371056191553192 16.6982345591619072   T   T   T
 11.1239154367273105  8.2031751131110742 19.1131419977002324   T   T   T
 10.8671254152214054  1.9970891432760971 12.1040924873190967   T   T   T
 17.2348386830555107  3.2892479577103120 20.6533489021085330   T   T   T
 18.5728042473208461  7.6581006956053956 10.7724097250255824   T   T   T
 20.4022651390074294  2.2078936841525207 19.0758832500094222   T   T   T
 17.9174569960534136  8.2925346374084672 15.0920319607540296   T   T   T
 13.5302914999679889  2.7493227948017807 10.4981333036420423   T   T   T
 13.2820680019867030 10.1239176083900286 18.0494949115391030   T   T   T
 18.6825034252993305  5.6849361343738742 13.7521498361971783   T   T   T
 18.0172517804504579  0.0066852456299765 19.0497742101899270   T   T   T
 15.6386124080877948  2.3942540716392084 13.2053296620080776   T   T   T
 13.9409293054339294  8.5230829328495084 15.7287900581301106   T   T   T
 17.9897686791433991  1.2437473000348571 16.3453968107054024   T   T   T
 20.9415965114597959  7.7044823529237272 12.8574008240689821   T   T   T
 12.4799988439664880  5.8936676878562650 16.8165458318664633   T   T   T
 13.4108403086202426  5.1324291432433151 12.6120821848726532   T   T   T
 14.0441292863247860  0.2468024472291738 13.4311338797333999   T   T   T
 15.4946010958062121  7.0327812075504017 18.2931653882151473   T   T   T
 15.7823508031766426  2.5916356301116514 17.6246769809874237   T   T   T
 18.2000814165907734 10.0855720326800018 13.0600338592420364   T   T   T
 12.9392559252356563 10.6093898646891933  2.3454459575188968   T   T   T
 13.0173918415764245 17.5445155017751944  5.2190035356555775   T   T   T
 18.8628498041547061 16.1975233446066689  3.0167408262336370   T   T   T
 18.5788100874377271 10.7611720299632321  8.2364031800532285   T   T   T
 10.7926974008068655 19.6509047363141462  8.1036045368208267   T   T   T
 12.6029348018427658 14.5083423897205055  0.8481698543854619   T   T   T
 15.6036498843522988 12.2181869559712588  7.7503315736476264   T   T   T
 17.4465731375833499 17.5826615643284683  0.2733266962128144   T   T   T
 17.6850198870748017 15.2418174785423872  7.2060622202655642   T   T   T
 16.2205618078610811 16.2715233078787200  2.5159475742174604   T   T   T
 10.7223755620168149 12.5746543350852900  2.1490074310432257   T   T   T
 13.6333805005012643 20.0341914523557456  6.7979144254048460   T   T   T
 17.5794595087974024 19.2219761486849166  4.7460822825819475   T   T   T
 20.2488682050380469 13.3345375388431275  7.1022345599502863   T   T   T
 13.2299038926793902 12.0275599213217710  4.8219852378286099   T   T   T
 12.4841587891706602 17.9255190310960835  9.7522843511401209   T   T   T
 16.9580663783742907 11.9450592570042158  5.4836199675606965   T   T   T
 19.5576219422408215 19.3124014117914271  2.1673044839612743   T   T   T
 14.4614098267751992 16.5971888817910056  7.9076964561713288   T   T   T
 12.5021785401320731 14.6610918175388836  4.3981488275384581   T   T   T
 15.5289726428655595 13.0826713267551895  2.2825706710253741   T   T   T
 10.7877822805702088 16.1629371700503981  7.5159415343132903   T   T   T
 17.6922182400301935 13.5972171939403008  9.7955550693974907   T   T   T
 15.7237636966703711 20.3220886699729881  2.6208095359769139   T   T   T
 12.6430618716181318 15.3586793765025398 12.8285211413134910   T   T   T
 11.6940489052076426 17.7466662326032640 15.2642138364143953   T   T   T
 20.0664442769728382 17.3867640500618634 13.9974923010973491   T   T   T
 20.0433050540703448 11.9303529027340147 18.9214481409689697   T   T   T
 14.3265289602763097 18.4798839568322748 16.3890939523322636   T   T   T
 12.9737677021276472 12.3840613165732041 15.3581338904782410   T   T   T
 17.1334480781981640 12.9937870757004728 20.1735724617457777   T   T   T
 18.4319656864955697 20.1986485763193109 12.3401688518330310   T   T   T
 16.6902010593682206 14.9941575688044004 17.7985793038426259   T   T   T
 19.8570776295600204 18.1076507194323959 10.4183548044131040   T   T   T
 15.0078247548685244 13.1308226132939740 12.4794586625528776   T   T   T
 14.3453263481948721 17.8847461699587313 19.8646358132939334   T   T   T
 17.8536905590186699 19.0959916750741421 14.9610510879145000   T   T   T
 17.6607064290723486 10.4757254280313692 18.0019151395185339   T   T   T
 10.6277033693505683 13.6440926945859378 13.6773367123270635   T   T   T
 13.0965821290449860 15.8173753882701771 17.6874988646597835   T   T   T
 18.0812323436052900 12.0855407952045120 15.7172901757790111   T   T   T
 16.3208200480562979 17.8612299649131394 11.2369966730981155   T   T   T
 11.9401245924742838 20.2483011395847114 18.7021164231697270   T   T   T
 12.2716607656947225 10.9395615587067354 10.8320840730301224   T   T   T
 13.2325096723764180 14.0451654071590468 10.4385410459386136   T   T   T
 10.3202007883887070 18.3607151639041852 17.7837792589393828   T   T   T
 19.8318871748246615 14.2551814391384291 16.9524910776233249   T   T   T
 18.2590192320354632 15.6171219620215673 13.1815290703814405   T   T   T
 -0.0609986393018645 -0.2592531929896220  5.1119848434696236   T   T   T
  4.9729818069393241  0.1550275250679742  0.0573138057749117   T   T   T
  0.0569583737300886  4.9505973177492724  0.0931506111676872   T   T   T
  5.0378378795601915  5.2353034213776546  4.8201516350976732   T   T   T
  0.0013297121836615  0.0937690668310072 15.5018046902198421   T   T   T
  5.0115335613356438 -0.0219452078319098 10.0249390016180993   T   T   T
  0.1970845858189487  4.9765227488935917 10.3677996641575980   T   T   T
  5.4673192682978069  5.2541464508891389 15.2167558138600238   T   T   T
 -0.4628124927124192 10.2621806738872383  5.1907704250414142   T   T   T
  5.0476247441221558 10.3716591269609211  0.1267042693151386   T   T   T
 -0.5690554185191570 15.1345036401067858 -0.0218699000100970   T   T   T
  5.1295957899458866 15.6092644680620971  4.8607465990130576   T   T   T
  0.2115366900005336 10.4662634110388346 15.4487953770107591   T   T   T
  5.5443876797459861 10.2364430710698446 10.3324735353096386   T   T   T
  0.1147427236627432 15.1259976344272040 10.1655475341334949   T   T   T
  5.0011207787517833 15.4579808811030741 15.5149157083840255   T   T   T
 10.1262573046916380 -0.4768378088495769  5.1241199065669107   T   T   T
 15.2215297536390235  0.2680888372044406 -0.3306478854859127   T   T   T
  9.9825199311139983  5.2791694079747193 -0.0426319151551167   T   T   T
 15.3902879974566336  4.9503280438826733  5.2799426174089632   T   T   T
 10.3937523967643290  0.2625852927062068 15.2158548921416159   T   T   T
 15.3161277745746016 -0.1696999641370345  9.9711547393776332   T   T   T
 10.4130466687294039  5.0078525522107098 10.0709496527064744   T   T   T
 15.4666692061369115  5.3501040664850636 15.4949761698020883   T   T   T
 10.3330394195958828 10.1876807897934576  5.1099925262436185   T   T   T
 15.6748955340330607 10.1417188165526451 -0.2242917484074022   T   T   T
 10.4636582358464363 15.7540349802830004 -0.2897765251848654   T   T   T
 15.3430214911124931 15.2060503524498838  5.1486208786441798   T   T   T
 10.4437203581075568 10.5503060278706648 15.8306360497409901   T   T   T
 15.5042574705508915 10.2034703896674230 10.2184820727982046   T   T   T
  9.9957410218688345 15.4757980671652255 10.4197631632503622   T   T   T
 15.2678328982439400 15.7650822199387104 15.3453843638421024   T   T   T
  1.1829914995932529  1.0365755015221461  6.1572270881516866   T   T   T
  0.7266524426916632  8.8299940965503207  4.0062286797219517   T   T   T
  9.0805206641152019  8.7741085324614581  6.0620646348544884   T   T   T
  9.1623946999985204  0.7735511573362363  3.8315488541637812   T   T   T
  6.3446038754427114  1.4126333429366678  0.9395968984368410   T   T   T
  3.7784011016529337  1.3902206273421260  9.1826544748578058   T   T   T
  6.4106949398380157  8.8801336368994104  9.0855724203900365   T   T   T
  4.1048870811209639  8.8932366519732575  1.2796338377667544   T   T   T
  1.0747839519971560  6.3401464616142738  1.3557709590856135   T   T   T
  8.5969357329809135  4.2716877752411051  1.2306266266812298   T   T   T
  9.3418712239008670  6.1631883374880800  8.7621643030252940   T   T   T
  1.4618861957809044  3.7875660735051961  9.3919791376660893   T   T   T
  6.4112165135711221  6.3385231658895869  6.0014961441891881   T   T   T
  6.0356593861377359  4.0561183515638115  3.5603154850938754   T   T   T
  3.7840521080990852  4.0399811376727932  5.9115917731705414   T   T   T
  3.6470899493352356  6.6173643888176175  4.1629298006866087   T   T   T
  2.4752200050369288  2.7872823111037959  2.4284168087659324   T   T   T
  2.6943237910498068  7.5542550343739210  7.8659708293446737   T   T   T
  7.4287714880411260  7.6908011327052535  2.3131816601620745   T   T   T
  7.3423723226738744  2.6818994644298577  7.8579219240799221   T   T   T
  1.0519127171191622  1.1432910551790239 16.7948887477810054   T   T   T
  1.4887904470910069  9.3652689734836976 14.3765174970202043   T   T   T
  9.3409252043293112  8.9769835991153801 16.4930943919283344   T   T   T
  9.2024591899815213  1.5459747548007026 13.9321130022517767   T   T   T
  6.2684405650858235  1.0825796365982154 11.2209585281222868   T   T   T
  3.7894492374019055  1.2047387065843758 19.2731276491424879   T   T   T
  5.9804346971348075  9.1055338816738889 19.3605994593786228   T   T   T
  4.3144733470201775  9.2473230210125124 11.4852442586159853   T   T   T
  1.3531119097351760  5.8551426363523866 11.7429256955663028   T   T   T
  9.1544191359232610  3.7842532720102589 11.1556443633679834   T   T   T
  8.8860039730763436  6.3740480010141427 19.1310595599049691   T   T   T
  1.3637595986086575  3.8205344634816272 19.4714104658439133   T   T   T
  6.5649084137367071  6.4697071631273495 16.3425895998569395   T   T   T
  6.5198943351690231  3.9176979704594612 14.0967405987672922   T   T   T
  4.1341929616544242  4.1226158830402655 16.3565211265135630   T   T   T
  4.0541291834543252  6.4078123959338606 14.1907697543228242   T   T   T
  2.6727139211473676  2.4204338552223401 13.1408489948063263   T   T   T
  2.1517494178285475  7.7604898617178719 18.2112005028491986   T   T   T
  8.1066477222257873  7.9163396268207240 13.1272268019086145   T   T   T
  7.6639026560012908  2.5719084544433426 17.9514512025750186   T   T   T
  0.8857847090484742 11.4339019750342388  6.2925161236636908   T   T   T
  1.0980032582335297 19.1692661154898545  3.9385141391716365   T   T   T
  8.7455537223729163 19.3142157910371282  6.4805125839600857   T   T   T
  9.2470845838069096 11.3854646016393648  3.7517663159010310   T   T   T
  6.2565300617226907 11.7993144856295906  0.8998302337213890   T   T   T
  4.5500144379160803 11.5000097170829871  9.0018732947949562   T   T   T
  5.8475413853240905 19.2794501183692901  8.7740240340789590   T   T   T
  3.8311253687323048 19.6526045576603394  1.2638019444509299   T   T   T
  0.4838719042156452 16.4380865758324184  1.2103969452252590   T   T   T
  9.5095685355023303 14.3891520560635886  1.1113233566842595   T   T   T
  8.7498028946799042 16.6785550000351144  9.2066054947591507   T   T   T
  1.4119582368863735 14.0541447366431651  8.9462187393265573   T   T   T
  6.3252940318813335 16.7621778236129089  6.1283011114751709   T   T   T
  6.3255883804214283 14.3551021941388317  3.9106834882027703   T   T   T
  3.9159382689456770 14.5505947446608808  6.0273240495972331   T   T   T
  3.9939858321952499 16.9743863227677600  3.7975746958015102   T   T   T
  2.4541673174130278 12.8236621059318754  2.5283022252731446   T   T   T
  2.3045772425938096 18.3358977717173346  7.8047638254801353   T   T   T
  7.7032784241702856 17.8610730099075106  2.4679583678424484   T   T   T
  7.6521285818955675 12.7811070861996221  7.5494609740282170   T   T   T
  1.4397023555798549 11.6033735230726762 16.8245806619366327   T   T   T
  0.9823197501940263 19.2665873957068428 14.4711688909546634   T   T   T
  9.0243821306309293 19.6444798512039327 16.3168394266385484   T   T   T
  9.4109413457053837 11.9240447683377546 14.6092000389103287   T   T   T
  6.8029167716417751 11.3016444286306577 11.3936298848583437   T   T   T
  3.9492189363550336 11.5052015747891900 19.3330061539159566   T   T   T
  6.1898458444217184 19.6397862401848400 19.2243987769149207   T   T   T
  3.7959791739238145 19.4682297645812739 11.2669098003280297   T   T   T
  1.2823990810014292 16.4107757075212248 11.3360781831231066   T   T   T
  8.8990263820450846 14.0936131855558973 11.6991413099619077   T   T   T
  9.1805664361912456 16.9019989984883985 19.1423445717438128   T   T   T
  0.6525311037535491 14.1297339375543185 19.2677904364138115   T   T   T
  5.8901299187006462 16.7775412108152331 16.8609800936151686   T   T   T
  6.2854923536257159 14.4328343534160695 14.2974635455377328   T   T   T
  4.0436812961851754 14.2103951238402804 16.7454015845603372   T   T   T
  3.5787307104195363 16.4595823333480524 14.3047802790279714   T   T   T
  2.6940772628338396 12.7891964120483390 12.8723378929631167   T   T   T
  2.0023327264507649 18.0338503917568254 18.4004133292912506   T   T   T
  7.5780928893967774 18.1109044487218682 13.0505081366911302   T   T   T
  7.4865839840444011 12.9963299702728889 17.8686706542435054   T   T   T
 11.4104213288992202  0.7072689126292485  6.4360256171118841   T   T   T
 11.7366476820074883  9.1306594095770031  4.1032130850869706   T   T   T
 18.9012136313766703  9.2436459069578394  6.5299832483727007   T   T   T
 19.4068542120255927  0.8891203632702763  3.9039678155372828   T   T   T
 16.6514121903466936  1.2038132512150781  0.9148873308826214   T   T   T
 14.3391122273898066  1.2274151696972340  8.7480256657242510   T   T   T
 16.6971808949034788  9.0758196115627126  9.0251658921885838   T   T   T
 14.3695222292909310  9.0026270434185118  1.0341692763758374   T   T   T
 11.2285490625668292  6.3992928645062186  1.0042501883981767   T   T   T
 19.5536272809276603  3.7387456281132918  1.3815958443099048   T   T   T
 19.4314261259757615  6.2107416534976041  9.3554689792706558   T   T   T
 11.6018559291353967  3.6290321357052235  9.1790062543261008   T   T   T
 16.6256768784218849  5.7894498278225619  6.6135082557299265   T   T   T
 16.3376368422081910  3.6278004300738509  4.0651473550066122   T   T   T
 14.1058885227029407  3.7877709759950924  6.3535085357344618   T   T   T
 14.2687097161256773  6.4526168626073437  4.2225086546251784   T   T   T
 12.3496550362916544  2.6836798468184573  2.4587180672688707   T   T   T
 12.9847337441747985  7.2184279956260777  7.8259460496907485   T   T   T
 17.9325160252484181  7.6421567933274765  2.5767889648580304   T   T   T
 18.2777994094615117  2.4352541345452519  7.7732535215468737   T   T   T
 11.7205275163005567  1.3297794704601673 16.5123704067310797   T   T   T
 12.0039653738115604  9.8020184052598562 14.6171125732339746   T   T   T
 19.4513842557538226  9.3197444616599725 16.5552430353281252   T   T   T
 19.3704445267232224  1.2829694161273515 14.3122856229021895   T   T   T
 16.5834248840046392  1.0924904506328601 10.9761263861424858   T   T   T
 14.3425268688162753  1.7391159753405538 19.1411003534280297   T   T   T
 16.7981703392729820  8.5907910522239277 19.5274636392369061   T   T   T
 14.2321356442830655  9.1389624439733286 11.5686105483159256   T   T   T
 11.3420066003967843  6.2874220919785264 11.3553255175232213   T   T   T
 19.3425337186223665  3.8830278709955151 11.4961572213033616   T   T   T
 19.3150315333461009  5.8747017717235481 19.3825716453851307   T   T   T
 11.1346674038568700  3.7816657426694968 19.5238614903803338   T   T   T
 16.9604297997983409  6.3499579414812199 16.6199887681456957   T   T   T
 16.8194324603711038  4.0805053260706261 14.4665062064736052   T   T   T
 14.2331617349912776  4.1621074110632286 16.6055568872680048   T   T   T
 14.1494246760763893  6.5438711864106924 14.2882181780546489   T   T   T
 13.0210947654484137  2.6841408451770583 12.6088987829961443   T   T   T
 13.1565132306512211  7.7752090807317904 17.9428995398280868   T   T   T
 18.4533977121571624  7.9265710608839637 13.0610346517942997   T   T   T
 18.2602321235861282  2.4690233635985268 18.2453267763082785   T   T   T
 11.3813273497908316 11.2544698185815157  6.5495690576317731   T   T   T
 11.3790348259268512 18.8167879383057404  4.0745070811640289   T   T   T
 19.2909032728723311 19.1446260473959882  6.4167400648860200   T   T   T
 19.2102243894166200 11.3401190132097529  3.7503688101414761   T   T   T
 16.7488714692566774 11.1334304213523261  1.1411197004803368   T   T   T
 14.0608643905197930 11.1937356766555567  9.0619590999526274   T   T   T
 16.4435606910035936 19.1024481156814936  8.9342977976693021   T   T   T
 13.7022006325131347 19.8278060538090379  0.7369158958185859   T   T   T
 11.7137078335576117 16.8813409061909852  0.7774999092006715   T   T   T
 18.9913415183522361 13.7997227792345249  1.1304634435912844   T   T   T
 19.3713246394975549 16.1241519634864154  8.8269251071244259   T   T   T
 11.1786293116065512 14.2624464667872726  9.2263258594057653   T   T   T
 16.0682567770303777 16.7958927599790044  6.1834301600443240   T   T   T
 16.8338082672158400 14.1632864316384435  4.1479965554357667   T   T   T
 14.3267331348939315 13.8640955206649732  6.0850408555635651   T   T   T
 14.0277791614702956 16.1756714741402590  3.7075697199286539   T   T   T
 12.9603596514982744 12.8837209615586854  2.5613304694992274   T   T   T
 12.3990011230486932 17.9041325263214794  7.3371759683569113   T   T   T
 17.5681267894493551 18.1987572049139921  2.5805124429426085   T   T   T
 18.0070323852978902 12.8856487876479378  7.7909507948496257   T   T   T
 11.0650921671124607 11.7122596753731916 17.4254872793485234   T   T   T
 11.5397282374597854 19.6792669856203268 13.9356385861307448   T   T   T
 19.2085798049012304 19.6518577770935714 16.6138768170135087   T   T   T
 19.6582366694997681 11.8045802046740764 14.1137632106507169   T   T   T
 16.5353686857993054 11.5968599547659572 11.5064568509892204   T   T   T
 14.9580379101839540 11.3611927038469425 19.0106650382991624   T   T   T
 16.1966485601669561 19.3839130727806968 18.9831202656187479   T   T   T
 14.0214947390900910 19.1718694481461931 11.1898139676394237   T   T   T
 11.0906402896006604 16.7966777659885054 11.5908688191264737   T   T   T
 19.5615106463986628 14.0164924080375677 11.5384027633037913   T   T   T
 18.7743817893595661 16.2700435391519846 19.3554251021308765   T   T   T
 11.5346782787717146 14.3569046052066955 19.1950752980443227   T   T   T
 16.2489132459638483 16.9579654208398161 16.6950343344631733   T   T   T
 16.5421199941013661 14.7705247993142539 14.0181282145089696   T   T   T
 14.3412475315207839 14.2258676813802065 16.5267212565039543   T   T   T
 13.8871362100491265 16.9991561114348677 14.4472002013661101   T   T   T
 12.7359960929135720 12.9305691805014167 12.6464411691576828   T   T   T
 12.5734324706770320 18.1718873918050363 17.8617309636479966   T   T   T
 18.3769466347758659 17.9669769190488893 12.7197873287971053   T   T   T
 18.1177685606549908 12.8823230621395748 17.8967824459115121   T   T   T
 -0.1221438583060091  0.0980614882701139  0.2080099960045661   T   T   T
  4.8925658908250753  5.1292630151327616 -0.7764706771019727   T   T   T
  5.1674985694492142  0.0904478763053778  5.2230795737959248   T   T   T
 -0.1611431781197074  4.8202803421822997  4.9904864521706296   T   T   T
 -0.4646648177794351  0.1516764395960008 10.1837448685760563   T   T   T
  4.9299272338747571  5.2445795299987381  9.9852761997601611   T   T   T
  5.1019259628905838  0.1797091574216759 15.1628837066014555   T   T   T
  0.0044153305434081  5.1539536335601071 15.6867848429029113   T   T   T
  0.2655428444948750 10.1379004647247637  0.3905828274982898   T   T   T
  4.2559121344790993 15.1781368880812373  0.1656438939984886   T   T   T
  5.1515070967168377 10.3623043114525526  4.6865195614082653   T   T   T
  0.0730577295706023 15.4238510824746786  4.9524156349412705   T   T   T
  0.2706542932324806 10.0371857046091453 10.1004681429994214   T   T   T
  5.1986972709402099 15.7248283083155034 10.8498065323471646   T   T   T
  5.7638271825146061 10.3872809469761496 15.3755491625863563   T   T   T
  0.3637578935287046 15.6081332620427506 15.1351875031112151   T   T   T
  9.9302932597295204  0.1968709513247468 -0.1882167774077549   T   T   T
 15.2026172721241775  5.0461196878836141  0.3608162140779239   T   T   T
 15.5605492461152171 -0.0438031049114331  5.1475368572562754   T   T   T
 10.4245597661087412  4.9963075131100831  4.7512823645689055   T   T   T
 10.0565085322628445 -0.1964568457157658 10.3007578979843402   T   T   T
 15.3102875704319068  4.9146914729962923 10.0187531727919676   T   T   T
 15.6175486088498143 -0.2956371080247926 14.7885754480969016   T   T   T