Li P  S  Cl
 1.0000000000000000
    20.5609999999999999    0.0000000000000000    0.0000000000000013
     0.0000000000000033   20.5609999999999999    0.0000000000000013
     0.0000000000000000    0.0000000000000000   20.5609999999999999
 Li  P   S   Cl 
 192  32 160  32
Cartesian
  0.3276453346422895  1.0036606441042419  2.6271121112201752
  1.2673084825693957  9.3795060285998222  7.6533260919881858
  7.8567945139551680 10.2570039006484546  2.1770550295781055
  7.4098768127073580  0.1844828614327528  7.7100402662965779
  0.0623968035841599  6.7252588424353297  7.4145797068229911
  1.2093165450758494  2.0926149512230769  0.2355646221114924
  9.9797919004623363  1.8786309508670542  8.4101342199287128
  4.8124471622198364  8.3295337754808703  3.1068261602847196
  7.3025975287317078  2.7061454059950547 10.2111177944041334
  7.0940591448902071  7.1768810239006324  0.0197039694303330
  3.4134153305434571  4.1539675758371990  2.0142204131243560
  2.7983585448919328  7.3144884017433673  9.8523153212967944
  6.1543971384272798  5.3804988700424596  1.8461794421516664
  7.6929755642715625  4.6114511427588178  7.8222494067072201
  4.5141077098711566  1.2210426214536976  2.9070245685245659
  2.9355346514120755  5.1977265807115129  8.3767760390535972
  5.5460738094508679  1.9382619213531913  6.7936394130597133
  8.9724706111819792  6.4979285954139296  2.5346076562751345
  4.3383843387145937  8.3681653407802266  7.0391485235302804
  2.1139109567696059  4.0980866209424418  4.2063714009932101
  2.4037895023120726  0.9253408650791611  4.8964961575307875
  1.6629253290634178  7.3963404381241640  5.3830458691608296
  8.6553597317305755  2.9666085292297035  5.7553467874744264
  7.0596431831262967  8.1714662560155631  4.6100125092799251
  0.0348733815068465  2.6041437505186615 12.7715772784989632
  3.6927953069725108  9.8970935957848241 17.9723581906488299
  8.5849903632201698  9.9609065231017571 12.4388390527940729
  7.1068424482993144  0.3200733187599060 17.4650538607156420
  0.6089221663061550  9.1075686597927579 18.0353466248613437
  1.4199938111062136  0.1410636747766337 12.1334824289818801
  9.6982717987936624  2.1348085019479899 18.4728942275330930
  5.6818947782754901  7.4346020873041523 12.3280335186237320
  7.4931217278414124  2.2390021503070998 20.3374323175796015
  7.9342948203867438  7.9089311266612885 10.4052159235423201
  2.6487702802573847  2.8114098046431697 10.6030808064458384
  1.5909451484329540  8.2313716133914614 20.2263021157953098
  8.2918018350551801  5.1866303507500140 13.9219605789104239
  7.6233076666903834  4.7073212163381086 18.0082946139163447
  4.3995591557012323  1.6037304924478135 13.3218115315004830
  1.0905588048552062  5.8517449048807251 17.2120813506264945
  4.7839209469522928  3.2979264681281442 18.8421854376775748
 10.1499332596339542  7.2739712362511471 13.6370207800122412
  4.4920217123757631  6.9482293587308250 18.8893174051844532
  3.1576041897264302  5.2024034499662068 12.7683699677559499
  2.3414978325651110  2.8987714212324924 15.0455553792258154
  2.7528850522863122  8.1808400361199016 15.8159136213739853
  6.6781415961521740  2.2531025407693335 15.5086972149627389
  6.8167158876215801  7.9394073186451131 14.9821894147851715
  1.8289584246216839 13.6478697217380169  4.9754377640349583
  1.9478760953654846 20.2808007652711382  8.4894762502032641
  9.7754881326656893 17.2640014745022299  3.2248271192655489
  7.0910516910827335 12.3219233769585106  5.5392272475841944
  0.2540729814419577 17.7293655259977285  7.8606044162575337
 -0.1320236892795865 11.7496772389028461  2.0786047195376463
  7.9224733721100051 10.4436724136960013  7.9057071080625283
  7.6330291626699429 19.5612715347081689  1.1161233388515770
  6.9459746248993817 13.0536570459096701  9.9894542292712742
  7.1468938455101529 16.1931514481893437  1.0858258641804559
  1.5479800823084118 12.5563373941271408  0.3131527652329369
  1.9523613341084332 18.3231682939917313 10.6217045932299534
  5.2212983331462652 17.7963296891347973  2.6291142502329681
  6.5399766525869945 15.1193027903374517  8.1912013289646044
  4.1416287952777830 13.3326788692808993  1.8484393184521981
  2.7030483463567943 15.7969157560779774  8.6008387638828001
  4.7830576476109661 12.6969160431058050  7.2746648697348677
  7.9698718900417136 16.8557205597358859  4.9321918386264194
  4.7452051236105799 17.7944446092722721  7.7184880657474251
  1.8591467251425400 15.1940771010085562  2.8731496505925977
  2.7334550628650764 10.6850047729379849  3.3368921077737150
  2.4550158622766438 18.1779742696175646  5.7292295437306739
  9.3437851457530829 13.7779137976677450  6.9339492792995721
  6.7792528533562146 19.6838784085956391  4.6669441351983121
  0.6460371966941448 12.7861053617171336 11.0433367475142195
  2.7531578736649394 19.4936486892304899 16.0583786483608577
  9.9230657862729075 18.3952357937361519 12.8709274901978983
  8.0758539698551690 10.4932881864836904 18.7121291754395109
  0.1355189473024461 17.8482785363756165 17.7673633533145754
  2.3085500615340830 10.3317735582977672 12.8970969798354691
  9.7459697874874784 12.7141606779369578 18.0954407242154467
  7.2053862158096527 20.1639990134422646 13.8210040380280503
  7.7782441769621000 12.6604855562550966 20.7039123215623952
  8.2087217882336940 18.9305047467194854 10.7586447689750244
  4.2647903325968883 13.7669395691243306 11.7833835300044054
  2.2251282163113832 19.6945640161071758 20.1259282761086773
  5.2366396785672986 18.3380563280406008 13.3558889642831069
  7.7700498931279025 14.3856497066130231 16.5252062855872701
  3.3580742745470977 12.6709124297825522 15.0590951956320325
  2.2356490228104113 16.4546231886668330 19.6499882314342429
  4.9548672326255918 13.5501236782903920 18.8377042015133256
  7.1508044326172451 15.7494310750896762 12.2077703172576513
  4.9024234807255933 18.0949291560994929 18.4239126738483137
  1.5420838546829236 15.1199582509503792 13.2625362044539550
  0.0338761819080198 13.0140384866000272 14.6089600968065856
  2.4624746290332755 16.3202553250124041 16.0694035128370842
  6.6098985573611362 11.7272356953816175 16.3102167360907409
  8.2639581535978746 16.9288796762305367 14.8972029145279024
 10.0984669210938112  2.1672631748130096  2.1605942802623259
 12.4624870198800011  9.9593577379786851  7.4770178393935769
 20.0696416305255667  7.3120221458019543  2.6950956728090580
 18.7756896048578810  0.3451409354026380  8.0196622159888999
 10.3339261054159959  7.2234815599924911  6.3694136311108638
 12.7498047751558712  0.4309585130538684  2.4190849847230060
 19.9928381283943146  3.5146838267416141  7.1683560170930267
 17.4105079529091071  9.4213512870794354  3.0366269331693454
 17.2319883412481190  2.5318396013116504 10.0859786385428905
 17.6560755630815258  7.0479489362277015  0.3145178043819720
 12.4393421996821640  2.4456266664171098  0.2298586912530386
 11.3464067451876396  8.0242082032969400  9.7448445699748625
 15.1260457203633791  7.4989574426596297  2.7314471491552852
 17.5675426678858884  4.8235036338712369  7.6420364500830358
 14.9643189052489980  2.9203638552389188  2.2175073912919596
 12.6654318566418507  5.3960863183944072  7.8520812031218998
 15.5524876127564191  1.7148866641120488  7.2952224571554565
 17.7196333574260052  5.0313026365180695  2.3249862398884864
 14.9544355683488899  7.9563226354844270  7.5760045961301206
 11.8189400999731067  4.8218152926337492  3.2013362428860570
 12.4242282324269269  2.7185813473932297  4.7362822483303963
 13.1814283126302350  8.3864514103200047  5.2223889178953824
 17.4213901677087009  1.5065164911213391  5.4878023658254866
 18.2840582738892934  6.9652632159361945  5.0031481431419200
 10.1794036997702264  2.5844239350941005 13.1985860206095005
 12.5740119668424200  9.9418984499389733 18.3589752533262249
 20.0652399717285839  6.7599425138338871 13.4955505442913868
 17.6956708923974055  0.3727476849018875 17.1365902026319397
 10.5775896475177422  7.3202523294557258 17.0426007369221217
 12.9913993900295885  0.0771273565498240 13.3209896052837351
 20.0776282693541646  2.2683297997479999 17.8610411420720325
 18.2130986177958576 10.5151165187323219 12.3305042312454969
 17.2445780140984901  3.2791464009341564 19.9406238986554278
 19.0817466293016764  8.3377747570815011 10.6718375435555721
 12.6732510324055596  2.1894008854515268 10.4027358638787835
 12.7198134423368288  7.3415546952893607 20.0602247052709011
 15.7957871873943496  7.4325182276238300 12.3598642976319031
 18.3990492849147245  5.1243773703986930 17.5028632939593223
 15.1648853677101378  2.1878885890211142 13.0293472725381303
 12.1653839670932609  5.3570655288693212 17.4513052349642948
 15.4904424814302679  2.7220315532896064 17.8383253904182766
 17.1210768429409228  5.3499188593232807 11.7941389582105209
 15.0656192259759401  6.7405321530913236 18.3580888400112627
 13.4968538889567071  4.9077864804788245 12.3273503000741975
 12.6005957489775255  2.8657332141190528 15.1158821954131621
 13.1472662766648547  8.9038433631471001 15.8380361070003701
 18.4574634260759005  3.5643316512117287 15.1599386662160835
 17.6008360622789581  8.3416285829745984 15.0287041826863828
 10.1787355458861732 13.4984507358051093  3.3863601074608232
 12.2246994617386875 18.9404270777020045  5.6209830851724361
 19.8262220049153051 18.1868365219293864  2.4536084356167063
 18.2535662636090166 10.9808635352472450  8.2837097158562454
 10.3229787307235945 18.5356508763871801  7.9490795118235145
 12.3527063193222748 10.4384202582090655  2.0783180215580574
 20.1394670623288796 13.6276530511971377  6.9032343540142937
 18.1528212554781021 20.1345531874674357  0.8323203042319145
 17.2650114709714444 13.9406980104053417  9.7424725369778145
 17.0896440301811765 16.9113642538400875  0.2202515263497245
 11.5101300046270474 12.1425705236252224  0.4430265869276619
 12.5514111198705187 19.1527822809839492  9.8058806459423575
 15.0152949646834699 18.1044448724385312  2.8103603308818443
 18.3426507276527069 15.2471949182044106  6.8721693637998049
 12.8248108650294323 14.9982574333143344  2.7534669432667518
 13.0596588529336479 15.8776739700693383  8.9797147214153021
 15.2131665483690313 12.9991523161411209  8.0222200778181136
 18.1942779722226931 15.6099343060853961  2.9275277720963984
 14.6340326214225538 19.2649240591010127  7.6078488188061755
 13.3467205321250209 12.5360647928375002  5.0192925482221851
 14.9925972630813078 12.2759351292359522  2.8586491876542737
 11.9909625861398403 15.7612739672197169  6.4378781210594731
 17.5921677160217094 12.6917176466543022  5.3461758521461666
 17.2518781104077092 18.8541778979756351  4.6365101638895547
 10.3880952634249777 14.1015265012660347 13.9328280854127726
 12.2845288547823426 20.4482969182262941 18.0959571861123614
 20.0456161764621221 17.6781509143862898 13.7519000706840995
 16.5108464935458663 10.4118676605939413 17.4044514724897681
 10.0356119995879940 17.6147269733894696 18.1502241079832061
 12.4945102281978055 10.8616960583648634 12.7746953660995697
 20.1888520269160843 12.6025612923803063 17.6876843273076361
 17.5104158928524960 20.2072211301286551 13.5904309744741152
 18.1381384155573180 10.9612018792857135 19.6787674194295583
 18.7652232393894387 18.8007781435990147 10.6874781532347622
 11.6463800917970826 13.0346656664510903 10.3987165007652216
 12.6523246149551110 17.9646989239129695 20.2196608345485629
 15.7649423578989367 17.3971968877422860 11.3305148149039105
 17.7559602051204948 14.7737737097161439 18.4386857467319096
 14.6523183619442161 13.4597993522670762 12.3086922829133130
 13.2150181931486070 15.8998258345245631 18.8116844650147286
 15.3993095691636857 13.2758626539365938 18.6622900817551987
 17.9747423849286534 14.9693088896567232 13.0050364875685798
 15.4770442785677655 18.4295506164693990 17.3396477586093596
 12.7441110856290081 15.4229731564936223 13.2262315588827803
 13.6178545542088489 12.7639650908742190 15.2617066099743841
 12.4943504658544864 17.6800008033103673 15.7725678951856771
 17.0642105990083834 12.3784709639272545 15.7309139393176345
 16.6453830167941703 17.9048246115323408 14.7680493101503938
 -0.3196739489607310 -0.4474573920801795  5.1754205243864408
  4.9100819402755782  0.1525452737135881  0.1399213007645455
 -0.0715513622344346  5.0734984951706270 -0.2098862117149455
  5.0343807318424894  5.0778940251301465  5.1167200565851489
  0.0778733595562624  0.1531353954325028 15.3035946109895349
  4.9722807924048018  0.0928721883920227 10.4372547083860159
 -0.5516330559822948  5.0553043999498462 10.2024775524625202
  4.9592288889129126  5.2057098262737824 15.4984288253978875
 -0.3357977967695877 10.0785625436650843  5.1440346032976647
  4.5743028974515623 10.3009651916330913  0.1236890357262902
 -0.3334266748587411 15.5095131056094093 -0.0317202723598546
  4.8053055915335747 15.2697023185989398  5.0783385617024743
 -0.2262362173399393 10.0237982429657588 15.2950173792407362
  5.0189144821135097 10.3096792631610690 10.0947419585982328
 -0.4346616217271950 15.3925289105379566 10.2939901377782235
  5.1011798703683935 15.4883621307814607 15.5004031719273865
  9.8423837354831587  0.1690367274527019  5.0234074110168789
 15.4149032165782476  0.2419469931609401 -0.3345632438622161
  9.8384540530080251  5.2099728761638753 -0.2897032174471708
 14.9267796260590320  4.9495056263443944  5.2438496761166755
 10.0648230348346530  0.0078335316288518 15.5539923185928330
 15.5074357483618179 -0.3198355182072810 10.5354887576418577
 10.2008616979142257  5.0004036162762509 10.4448374224054064
 15.3233265023421392  5.3491481605668865 15.1260311999614121
 10.1909238087189458 10.2636086925712693  4.8722576245206781
 15.2164662923493008  9.9539947171341492  0.0524161702730415
 10.1616547634873680 15.2280656474441223  0.0288099297237340
 15.0988461916861993 15.5115548336333866  5.3972670487262642
 10.0149562067150093 10.3928441022691604 15.5055299358206060
 15.0440158269372297 10.3987308382527761 10.4424436967198755
  9.9100267733014373 15.5960224375581351 10.3181948711650389
 15.2446101320111698 15.3493447077377372 15.5969919968148378
  0.6990724957219073  1.0448657675292028  6.3193338901303582
  0.8976354623153958  9.0978089944390419  3.8201106485745062
  9.0344489318496741  9.1747346065186104  6.2275033110576281
  8.4531135119322212  1.3720271538944406  4.1780936271788214
  6.3337127244797742  1.1407905950863324  1.4238754591626617
  3.6889258172246628  1.0937086695845952  9.2173104037462625
  6.0070925170225618  8.9686576186354277  8.7743291467571076
  3.2434382479396491  9.2929787066611826  1.3527176204109495
  1.1837458088304307  6.1075337477799332  1.0459586436005657
  8.5120043552141809  4.2184330262230549  1.0488954504645147
  8.9461401446621274  5.9349975025024033  9.2701787876661257
  0.8042875158975811  3.9908510161113870  9.1271007928385188
  5.8977632960675201  6.5616942030529497  6.3535584562790541
  6.4445078927610622  4.0956243035733646  4.1602384177128355
  3.7644133063338998  3.8141503496698950  6.3342451663678530
  3.6480011868321038  6.1282710742777011  3.8868552531180769
  2.3270315057809015  2.1026293468271171  2.8124520140527594
  2.2541454952585385  7.4306940231504104  7.6252965796532095
  7.0072063412243599  7.7078581996187303  2.4126683298058222
  7.6817152656855656  2.3109811804583766  7.8276076181832179
  1.2039990594004177  1.5719490099825828 16.3462967400922352
  0.8781619075263895  8.7230586801847831 14.1329222431320094
  8.7506587071779887  9.0594218974163176 16.5417444100308408
  8.7852698693269282  1.2650851799304574 14.5585101521556393
  6.2942275988938441  1.1102438276547157 11.5762937642996508
  3.8339082379596126  1.3633771392279572 19.6105375534385580
  5.7075735376623307  9.1054017590593048 19.3688888570860058
  3.7393883935478902  9.0633906093714920 11.3380444825107656
  0.6320652668360790  6.3059882933934945 11.4240465895750223
  9.1248502000236584  3.6545972784227310 11.6415333733711233
  8.7819264259731629  6.5113293843376443 19.1520358060864559
  0.9713660464785276  3.9277921612497106 19.0323220932261350
  6.1231665911132254  6.2142740221823001 16.8793630154447527
  5.8821001862356503  3.9916060633952375 14.1176431635727475
  3.5183399796567700  4.2174281397912594 16.5439732245373179
  4.0938988918378501  6.7843166883232309 14.3271817338601899
  2.3704263161290324  2.6129167404816624 12.9265117273067052
  2.3410035398185882  7.6181299249971399 18.1121513541590886
  7.8258712747101562  7.4125013961928010 12.8614384774313528
  7.2643056393885859  2.4808711037108480 18.0404120339812408
  0.7678514743091437 11.3892563153175068  6.5197177438367220
  1.0160758713563665 19.1960723438592318  3.9507722487871781
  8.8380999516269618 19.4703842206629787  6.2496968740539973
  8.9294045558589694 11.5729669952046503  3.9506211405794596
  5.8800973241507606 11.3866546121695738  1.2955967521553382
  3.7781513152399699 11.5672888213000267  9.2344457711488328
  6.1988017584006689 19.5028899431229483  9.3058748444707433
  3.7873422509373746 19.3940703954821743  1.5020956006387620
  0.8928453078791960 16.7499030149645947  1.0270466578379309
  9.0121649253346892 14.1898835877847116  1.4282822276683316
  8.6578405712789355 16.6918995997624222  9.1181373758318802
  0.9288337284325531 14.1416733412872659  9.2297340782440784
  5.9146128017932895 16.6151928067108017  6.1395066015171293
  6.0287463212976720 13.9762843146491065  4.0141190361135157
  3.5448411576294960 14.4192626407389852  6.3973678242232559
  3.6911672302078662 16.5672860630647492  3.9973595916561697
  1.8911851160923210 12.8052041798216116  2.6398230137836562
  2.4432667312955663 18.0849658838016474  8.0323129027530005
  7.4332899185461567 18.0696921898716809  3.0416693655324529
  7.2110839585486328 12.9717759965411332  7.6516171908915940
  1.1172700431640357 11.0420934682637828 16.4573035603495690
  1.1649973629233408 19.3051493303681028 14.1702089958662309
  8.7672738231533369 19.3266743694659340 16.4030334506353626
  8.7114358289298792 11.5529333781579968 14.5089033899870365
  6.2019027313994277 11.3524351427377006 11.5115103007451598
  3.4673326099520483 11.6892299881293891 19.5553932716985912
  6.2207766490748302 19.4698061466632382 19.6564150995112286
  3.8002359585118874 19.5864742458393835 11.7840280736754472
  0.7686583090230481 16.6178838963803166 11.5126328859830700
  8.8321938956472117 14.0642914647033095 11.3807741699675713
  8.8489364677971807 16.1722366011937773 19.4348291520568317
  0.8209287106018104 14.4696546556549208 19.2753036700277569
  6.2534089821573637 16.6203677699538055 16.6784223780399827
  6.2040460964480779 14.1920831472574847 14.4899697132761602
  3.6445314494535150 14.4844028839448349 16.6363238397926807
  3.8834646663131926 16.4641477840710557 14.0957335925756500
  1.9701198480430233 12.7538603902603249 13.0272242837714032
  2.6200838308713266 18.0322795252869064 17.9145090227549204
  7.6438111251968497 18.0592971859922109 12.9460829009899179
  7.4177627187535187 12.7275764044467561 18.3253952067851955
 11.3976821084061744  0.9135520934221940  6.1381141618582662
 11.1114287497072262  8.9579523105039502  3.7091425402470364
 19.4684724341923854  8.6551710615170130  6.3474659039096393
 18.9816119252050619  0.6249685796204242  3.9083376156213454
 16.5351153816614911  1.5159030440835679  0.9796989916649362
 14.1901399992623638  0.6363732611163306  9.1893164404818695
 16.2449608625480764  9.2476390565379258  9.2939298169952700
 13.9187903289699317  8.8328353114366180  1.1654922048129921
 11.1027339425884932  6.1918218642955587  0.9323861855731344
 19.1156343787070462  3.7832208127978064  0.8182007051824000
 18.9068637939617332  6.2525863952223197  8.9693841180526839
 11.2234582325820007  3.8360868253799310  9.0590949505150533
 16.2805331495433521  6.1250456738824521  6.4178546838381312
 16.2561790068196750  3.9906032949665047  4.0331244235017181
 13.8148579146569137  3.6077464334238334  6.5158272399775257
 13.6382394530003914  6.0724070027512100  4.2079868755833534
 12.5599800388467617  2.5950693192344789  2.4055691761143088
 12.4658314286244121  7.8078024892468578  7.3434545081405718
 17.6240074064827255  7.3428964092425986  2.6296033128311902
 17.6802899498595494  2.4985586480350022  7.7115933920304025
 11.3409027882841649  1.5041497458253514 16.5207803654658605
 11.3233496635217499  9.3157345504293225 14.3620120092185779
 19.1481388823488317  8.8762336324492139 16.6500499737508534
 19.3436487620304796  1.1633051424237502 13.9643947290909622
 16.6634830868967789  0.9403640564657666 11.7040029987860645
 14.2458403231013335  1.2402571674233747 19.0360497442064656
 16.2116534835606991  8.7776304207517875 19.1843438850320176
 13.9902420097925209  9.2309483174165834 11.8209058423035245
 11.3881601307305953  6.2070570595942858 11.5353074790312053
 18.9285719517818052  3.8625159808527507 11.4213061747336404
 19.4030419886273187  6.4293643338777686 19.2280743253354736
 10.9329149977280480  4.0108591622672805 18.9912265931399844
 16.6884221725740076  6.2575294700927957 16.2630607552763067
 16.4696975398961172  4.2319339354846424 13.8322656701118554
 14.0750523630867317  4.1536168392923445 16.3536093714752155
 14.1530442590359780  6.6437727936119053 14.0474282481883996
 12.6059556929090775  2.2312500409004969 12.8139259494454443
 12.8840177969302250  7.5424677691131805 17.8662573540994245
 18.0576553699715454  8.0559913829769894 12.8528618174754481
 17.8206377920513859  2.7884960140136426 17.7128599703107739
 11.3980968737829507 11.4695562294616984  6.0847677887720630
 11.0763849032262804 19.5880249429940640  3.6033266050701753
 19.1105345566507161 18.8016795522818043  6.2728090488209007
 18.9234006145161686 11.1087015721535955  3.8811372116421685
 16.5909189191596660 10.8895080247484692  1.1199135757558814
 13.6124699081120841 11.2722219036980924  9.2390462853284028
 16.6068216496929750 19.0716977489170638  9.2692103048665722
 14.0564201684271115 19.7296005608676523  0.8990159555701001
 11.3026855127769643 16.5587866109324757  1.1985631271074946
 18.8198050422198051 14.3513752745119803  0.9290196327743873
 19.0514201414349671 16.7006672824713043  9.0615029690058719
 11.1489490136647635 14.4951322704332153  8.9465631402877293
 16.3105855134109312 16.9098379546425974  6.4622051960437119
 16.3163597937179325 14.3868697364428204  3.9509730304882162
 13.8538354267442134 14.2165315232056084  6.5163706286654746
 13.7691802746207035 16.5170231671298104  4.1798186719325949
 12.6822951490369391 12.7764172909624030  2.6410966904294400
 12.3659740696486757 17.7424942699823092  7.6450549857500931
 17.2654358343808347 18.0282866134636777  2.2254569117614347
 17.4817013334161082 13.1660357955108047  7.5003951365227639
 11.1587539262066286 11.2524428187121863 16.8847374282270124
 11.4501930724573242 19.3512927131846517 14.4097966614222539
 19.4244537474653853 19.5427162948095230 16.4041192022066440
 19.0149913824658405 11.2968909127977710 14.3275652457424307
 16.3132617601509580 11.8209422852866499 11.2938733687461390
 14.0204172401593041 11.4195850870099953 19.7571808798992663
 16.7099317474045819 19.6526179785176396 19.1960731081489726
 14.2249286408647571 19.0285836197965494 11.6448270122991620
 11.0320405720070251 16.5641037051221467 11.6449502006907757
 19.1186465602738558 13.9132267249981521 11.3999224170506324
 19.1947137950028548 16.8839154853537750 19.2789501277762376
 11.5412153187599067 14.0283657329279396 19.3875078365532261
 16.7458423858901782 16.2798858700476075 16.5807361541358240
 15.9021463578903504 13.8936690297885015 14.3961146814052494
 13.9496041534873445 14.3303789791730196 16.8364826878352680
 14.2823292247319706 16.7813412560588304 14.5034243490820920
 12.4986762334151944 13.0447545026587814 12.9949805657431501
 12.3803033223504784 18.0945690800041739 17.9926515846039479
 17.7251666152767982 17.6273992451874655 12.6939744186710826
 17.8469632417193935 12.4575334989129178 17.8815257333095623
  0.1250035766029703 -0.0148612873819413  0.2457469477052144
  5.0660002841098537  4.8875543112829964 -0.1242817251945167
  4.7861340190190269  0.0528390131384898  5.5412517664157761
 -0.3434082556811752  5.3232485754932366  5.1013221041425973
  0.0207721237219351 -0.2739467001293996 10.0420848329531065
  4.4333553697448895  5.1748613934229555 10.6570808258064194
  5.0832200769232845 -0.0261478188974181 15.2182281158439601
 -0.3413977975417825  5.3191328580138055 15.4228103936970289
 -0.5013342142778644 10.5329754783105063 -0.1286469684174546
  4.8235049912510410 15.7399737830930864 -0.3152440729662085
  4.4748413162379750 10.2910365078687018  5.0301018933794248
 -0.0066671225757018 14.9802265505136756  5.2206346704734861
 -0.6154377337564350 10.1831988691257944 10.1213891350472398
  4.8848591985840732 15.1953744553515282  9.9067635440980784
  4.5892627547682769 10.6071285610874408 16.0422788921301240
  0.0606937772156949 15.4301859456348254 14.8282235718263227
 10.0984097326613629  0.5661552982782543 -0.0534109056657365
 15.8077783505377401  4.9637009575962754 -0.2405703534793935
 15.7052187381868187 -0.1551940836442569  5.6842969915393056
 10.3591645192399735  4.5571461190590012  5.2452550849084245
 10.3516644895064065 -0.2098709973269877 10.0940625457067323
 15.5115356872064236  4.9080085122925272 10.5323164782486938
 15.6858159888853841 -0.3936810203675734 15.1947984227672368
 10.2470213286647471  5.5325098586137802 15.4074105929174703
  9.6924690950009165 10.6418333117163950 -0.0521274927663216
 15.1967899163917721 15.8560711623880959 -0.4503385791576113
 15.0125976865604631 10.7690553500309054  4.8215650263509771
  9.9298383695832104 15.6171510563447864  5.1034587914850089
  9.5672630320576335  9.6133101110423027  9.9142696722906365
 15.0454137008263356 15.3208870662242518 10.3845259323521226
 14.8399603526993751 10.6600354884071766 15.8995235458617525
 10.0488401517377390 15.3815833816918737 15.8680226569502594
Cartesian
 -0.0026661709148590  0.0010961367483401  0.0038202081301819
 -0.0040446277002631  0.0088952750646374  0.0196021674472652
 -0.0048091771597409  0.0006279863399228 -0.0088137792990266
 -0.0009572230611892 -0.0031129809259501  0.0089575577046246
  0.0142857435168324  0.0052416675726964  0.0046027654667134
  0.0006385227073460  0.0011655011389547 -0.0108230528335849
 -0.0034286072537486  0.0072141105251839  0.0129827284833659
  0.0129948011413396  0.0009165508309544  0.0016456345837521
  0.0060405016208095  0.0025602983275914 -0.0104415903794850
 -0.0053417594202578 -0.0036266719830200  0.0001763339409465
  0.0197137260464373  0.0037641707469372 -0.0055533746085428
  0.0065511387963635 -0.0070682256382475 -0.0058287681592279
  0.0117931079569568 -0.0108123648497741  0.0054762228114681
  0.0062903173435566 -0.0057352291435260 -0.0005496770457432
  0.0041558180709515  0.0010557411190509  0.0000865173205522
  0.0071839957746937 -0.0040589421006283 -0.0035078548996999
  0.0075929994749393  0.0087151879554659  0.0095231929859624
  0.0005832369859512  0.0088093616252907 -0.0048848719737817
 -0.0012737545047176  0.0001039161790271 -0.0059666225754689
 -0.0084621083862854 -0.0039688045486484  0.0109119959566526
 -0.0018145761909962 -0.0090057427834765  0.0140369447386293
  0.0006441586110475  0.0106845180666084 -0.0051545193472157
 -0.0061894021216562  0.0100931859289260 -0.0074837329025871
  0.0114470567794828 -0.0056441042714114  0.0017249520395742
 -0.0045266595852069  0.0094528177474518  0.0097610897898820
 -0.0055791512988976 -0.0064737524652791  0.0097594242497136
 -0.0053910437890762 -0.0088418342375260  0.0001541873223559
 -0.0104756198572425 -0.0008844632348439  0.0018267496320184
  0.0104598655915177  0.0106061132918818 -0.0145600068693905
 -0.0023542469118820  0.0011037275032660  0.0155289402505053
 -0.0089291841568735  0.0036028596596926  0.0024657151661519
 -0.0134213657936294 -0.0049814629033572 -0.0123442837749496
  0.0012283484508745 -0.0185915387367999  0.0073103416322720
  0.0044249081856477  0.0083598361120416 -0.0029011308751599
 -0.0042099688600631  0.0095267681456264 -0.0024063749312133
 -0.0119054887304771  0.0023625336796036 -0.0010258389201337
 -0.0000486459369278 -0.0129622881687717  0.0087147374707149
  0.0094129678421339 -0.0221666616215498 -0.0009298978095770
 -0.0028533929157061  0.0100449811141675 -0.0093988045812820
  0.0043401952563125  0.0021266810465202  0.0106922184115898
 -0.0021093261093138 -0.0020713926640532 -0.0009901327610112
  0.0112979687391167 -0.0050188798031160 -0.0105962830164184
 -0.0014596085113469 -0.0019767312650106 -0.0085519034931094
  0.0049442722361873 -0.0189541945031824 -0.0034896640262574
  0.0031328211366377 -0.0023889975049523 -0.0143222811023511
 -0.0070132394713708 -0.0041014466603851  0.0086274498738138
 -0.0039455526569136  0.0068513012717159 -0.0007052129998919
  0.0062954790302592  0.0007003387151629 -0.0072496308487664
  0.0086717789079598  0.0064617112207660  0.0010913010011623
 -0.0057423197050664  0.0118883226307526  0.0031829292770564
 -0.0029425595343623 -0.0002875948191107  0.0057438305484920
 -0.0031248050009007  0.0135458515614469 -0.0109199456777640
  0.0012760988247217  0.0097675863410542 -0.0033868224779620
  0.0069380521278847  0.0129930849930315  0.0015404026600915
  0.0109281720137819  0.0082939475370991 -0.0228707117637071
  0.0157705656065430 -0.0029036702370158 -0.0000642335452294
 -0.0021380023083829  0.0057171119833548 -0.0139640269702836
  0.0137068653427499 -0.0019818297205779 -0.0038724028455183
 -0.0100879503721409  0.0019648692451628 -0.0001219555782124
  0.0040186161684099 -0.0008156907649486  0.0083724496613241
  0.0017423980710886  0.0035492572646184 -0.0167712413736887
  0.0020283204632651  0.0121519851487407  0.0027991025392918
 -0.0119401315958269 -0.0161986048600550 -0.0073988286545983
 -0.0026098830149718  0.0097108603673199  0.0032709754821642
 -0.0021165051339425  0.0025509265018127 -0.0079991513683757
  0.0037661794102853 -0.0036147607494311  0.0136282396610721
 -0.0016050128485725 -0.0035953132260638  0.0005725275010973
 -0.0089347368142153 -0.0181332852762744  0.0026102935433309
  0.0090332757574767  0.0095074832942233 -0.0003977500479993
  0.0005701201370235 -0.0020203113462570  0.0004719355791430
  0.0021336990401898 -0.0194220754646343  0.0119496466041973