Li P  S  Cl
 1.0000000000000000
    20.5609999999999999    0.0000000000000000    0.0000000000000013
     0.0000000000000033   20.5609999999999999    0.0000000000000013
     0.0000000000000000    0.0000000000000000   20.5609999999999999
 Li  P   S   Cl 
 190  32 160  32
Selective dynamics
Cartesian
  3.0105762190742618  3.4617140991074700  0.5342873338810289   T   T   T
  4.4805394780146024  8.3291213501022074  6.6229155244713569   T   T   T
  7.2390240958451422  7.2797306823534225 -0.0108472797353873   T   T   T
  8.0536111771736483  3.3417500144690315  4.9992041873760504   T   T   T
  1.9113266469544574  9.8839548192542726  8.2774085069577552   T   T   T
  2.2727953296469039  2.5576114027831109  4.7915993834692783   T   T   T
  7.9979695375947575  5.0181134716261475  7.0029487207254046   T   T   T
  6.8408376854223487  5.4985857755138356  1.8628820364987158   T   T   T
  5.5857314442284931  3.3250375335362277  8.1252517725709037   T   T   T
  5.8444642243968943  9.6257119615057842  2.8375854094743249   T   T   T
  1.5663657731620135  0.7158346469957377  2.0113503756076119   T   T   T
  0.0421679254749031  7.7545817040919243  7.7471273844088619   T   T   T
  7.0908410673380651  7.3672567193678544  4.2315510067196325   T   T   T
 10.2859333185995645  2.8702568012553842  7.3424606569762565   T   T   T
  2.0831503200805193  4.7300797228702258  3.0245343985506321   T   T   T
  3.0180972836973079  6.8052631670369452  9.5382860807365102   T   T   T
  6.3277923959237015  0.9361402089820420  6.9645012817105734   T   T   T
 10.0170172142503056  6.9325382210107112  2.7239313356049193   T   T   T
  1.9326988553300559  5.0825773130743972  7.0549366127350623   T   T   T
  4.5815901570596944  1.5040404277712955  2.8310919068724552   T   T   T
 -0.2281093609787819  3.3419488196127562  2.9665340695121598   T   T   T
  1.7140960608525009  7.2412332317859578  5.2863094221012332   T   T   T
  8.3362368727750198  2.3334392927836873  9.7957497162216498   T   T   T
  9.0257626028397340  9.7772444613421303  1.5404931375893323   T   T   T
  0.3061648106211544  2.9992929748073878 13.3600133901043456   T   T   T
  2.1383644067200227  7.3430257113482797 15.3789253940691228   T   T   T
 10.2215862898035770  7.4788317333781809 12.3530647246991645   T   T   T
  7.3395375844483075  3.4533151222790233 20.2115107915873971   T   T   T
  4.9022736811364700  8.2781476531278422 16.6464316896417088   T   T   T
  2.3470737709227585  2.3856808031161965 10.7129324610614116   T   T   T
  6.4371084893547525  0.9267387255181472 18.1262445241089551   T   T   T
  7.9062369114675137  8.8683695469009027 10.8574048117129713   T   T   T
  9.8108836905750874  1.7347317436389462 18.7924639244371541   T   T   T
  7.7951527957831592  5.6640441378999640 11.3029414454661037   T   T   T
  2.8708348687876439  4.9445438927265855 12.5611401510022684   T   T   T
  2.6648979198737881  5.6099063534079256 18.2354253562546660   T   T   T
  5.2766558203371163  6.9468752783389176 12.1209745742131361   T   T   T
  7.2101721659076166  2.0160125034867105 15.3100625641935064   T   T   T
  4.9952638735640917  2.9921132961671884 12.2976343022028480   T   T   T
  4.4287130993544803  7.1286021234130139 19.6304947035174671   T   T   T
  9.2152339962415990  4.6176137962912529 17.2602190707922816   T   T   T
  8.4692366945517001  7.0914772672058692 14.6736495037474004   T   T   T
  0.5414708689785938  8.3047404783783456 18.1713540031704248   T   T   T
  3.2477086290533870  2.2886532695593522 15.4142417342727160   T   T   T
  3.1110422191381684  0.5294759121228942 13.0057994819882090   T   T   T
  2.6539949200782815 10.3492876131345621 17.4425842044944304   T   T   T
  6.0157228737563431  4.4430247009399189 17.9461628205835382   T   T   T
  6.7602842762546418  9.3260199228916374 13.5347027874033135   T   T   T
  2.5908303471534295 10.6877526331580164  0.9728303507589666   T   T   T
  1.7505945476391596 20.4153777533078511  8.2625139411731823   T   T   T
  7.8899191618063567 16.2358654729492429  4.6809142374595289   T   T   T
  7.1132991200671318 12.5231854071271531  5.3422125019156645   T   T   T
  3.1145410241451064 15.9380408299484060  7.6709719321490066   T   T   T
  5.1591793585858916 12.6052308797679284  2.6101091781803203   T   T   T
  9.1201175445549563 12.1295744714013605  9.2960817121507819   T   T   T
  5.3138841865149740 18.3998459064027529  2.8923521585677623   T   T   T
  9.7541246319405577 13.1195275267343803  6.3859895632939612   T   T   T
 10.1860517488007964 18.1740779212808938  2.2205636395302792   T   T   T
  1.7193878894005230 15.1881547965410988  2.9869819976677672   T   T   T
  2.2202328750371447 18.7661264505341592 10.2760051697753081   T   T   T
  7.7714065699742942 19.4800154792554245  0.8030573985340165   T   T   T
  7.6258984144405613 10.1677696543272660  7.6687909059719521   T   T   T
  2.6763498988298458 12.4281209714504062  4.6403014134522405   T   T   T
  3.0839411629717803 19.0261137380199798  5.7483967948169203   T   T   T
  5.2656012577053062 12.7663098799138730  7.7303280587936110   T   T   T
  6.9270650321441147 16.2966780656692691  1.0866528278618059   T   T   T
  0.3716896524656257 17.9641721953164613  7.3763680096690178   T   T   T
  3.2404202344716166 14.1787241292571569  0.7343672881130140   T   T   T
  0.4100789886942492 12.1904671899535995  2.0730260202376698   T   T   T
  4.5517730827754139 17.8395776099936079  9.2026950613412168   T   T   T
  7.3481014545010028 15.3800987928866668  8.3012530109143352   T   T   T
  7.2795752989594078 19.6957949012166615  4.3480331269918002   T   T   T
  4.8776243028656490 12.6126025383695346 13.4032518684675743   T   T   T
 -0.0825025895215796 17.4205406132268728 17.5934822643172453   T   T   T
  8.2706269260976786 17.8512765996061979 15.4632363924201020   T   T   T
 10.1858623398074055 13.4194272689894092 17.5434116667016262   T   T   T
  4.6213459635019545 17.5268603141361368 18.4180905324996154   T   T   T
  3.3732967118516251 15.1288626131609352 12.2009217981976992   T   T   T
  7.6399477071693811 15.2135440694900019 17.8562338718541902   T   T   T
  7.3047200589290364 20.4818179508538165 13.2623768002793305   T   T   T
  5.3863408990888555 13.5778536542332162 18.4039471974593631   T   T   T
  8.6637677782567817 18.7575175150295905 10.9275362758183050   T   T   T
  2.8496816750891139 13.3635986436650409 10.4030197409801417   T   T   T
  2.2938095757506893 18.2166640093976682 20.3378126318238408   T   T   T
  6.0804546145795237 16.8556380034070550 12.2876781060598805   T   T   T
  7.0165330113086855 10.8866773497574343 17.3335400742720047   T   T   T
  2.1735175061634608 12.9341417143910355 15.1219121920788364   T   T   T
  3.3748955681371835 18.5752022333815212 15.9127460276162349   T   T   T
  8.3415247537411883 12.6222260735775542 19.9693005083149941   T   T   T
  1.6104989373874443 20.6238475665679211 18.5135923284838881   T   T   T
  0.3097225597806002 13.3472455249033395 12.8011961340158074   T   T   T
  2.2932804490274568 10.3054689667425396 12.2934164302682660   T   T   T
  1.9402034938984176 15.3814238555965979 17.3784532557937261   T   T   T
  8.2950746696628403 13.8340566548191823 15.4890596684342192   T   T   T
  9.6941049748601511 16.4455166929285213 13.4246226272866753   T   T   T
 13.3946818715785430  4.6150312346333635  2.7618144722225151   T   T   T
 12.7797348565162778  9.7237758903261415  9.7590655788803993   T   T   T
 17.7572647802204386  8.1175411637597250  4.8008848945091485   T   T   T
 15.6894018008916891  2.3331474553496179  5.5209386116679848   T   T   T
 10.1990515833579440  7.9089687964207931  7.7720716206774911   T   T   T
 13.2474191074196259  1.6941275709252628  0.5753596150535608   T   T   T
 17.8348436317711929  0.0395075354973996  7.6541740772310174   T   T   T
 17.6338730536166324  5.5079632227693214  2.1835894672151932   T   T   T
 18.2980881016164432  3.5674807335683192  5.4723981092765834   T   T   T
 17.7572156176924025  7.0654637085857859  0.1008611841136190   T   T   T
 11.7239337509257044  3.0232120430131539  4.5558218796640739   T   T   T
 14.8976441105862971  8.1198428409800254  7.6423311020449178   T   T   T
 18.4281859858454382 10.0226862723121393  2.2592380468062152   T   T   T
 16.3452511436688610  4.5857667124776924  8.2475703510865106   T   T   T
 15.5846224384669956  7.8871557101850813  2.8842526332320344   T   T   T
 12.2060421919593409  6.0432822319620678  6.3843086492519285   T   T   T
 19.6409954965228408  2.4168895638009857  8.0568601194520895   T   T   T
 13.9880313460413070  6.3522651709604077 10.1950822619592891   T   T   T
 13.6318611715205531  0.3662285637963670  3.5757899643324524   T   T   T
 10.4810607271548335  1.8200711609771185  1.9541384308124703   T   T   T
 12.9684099155546679  9.3022022295431519  6.2862771585654507   T   T   T
 16.2624814375377440  2.4752338978775605  9.8437135767072590   T   T   T
 20.1523822299139042  7.3832040107367654  2.5052208137852578   T   T   T
 11.5939280120869146 -0.0961028166551596 12.8704404692648762   T   T   T
 15.2857558063635377  7.3576748741447116 18.0297177454397612   T   T   T
 19.2057147506916124  7.5731627078928527 14.7757102472399886   T   T   T
 18.8430846932601526  2.0574461984914301 19.9394700959108349   T   T   T
 10.5550393688348869  7.6806572316059221 17.6562441424569450   T   T   T
 12.1244468353265109  2.2961116329234428 10.6068248582650515   T   T   T
 18.2001039377379783  0.0371824137338013 18.0017295092010947   T   T   T
 18.1250252295763019  5.5319262347486333 13.1814560002636583   T   T   T
 15.8037940690337901  2.7554943211933214 19.0080471835950071   T   T   T
 19.9506244940989177  7.9389476242221342 11.2052742854870520   T   T   T
 11.5481880450776249  4.3801829570901205 13.3915896279843096   T   T   T
 13.4628610921643848  5.3160938499892785 19.9068580890340172   T   T   T
 17.2090651008281839  7.3446268516148301 10.5951712394643494   T   T   T
 19.6293017704788042  3.2968335393853900 16.3056550255007906   T   T   T
 14.3598886574125029  0.7775079713398194 13.5301848561887272   T   T   T
 12.1059514664305237  5.3986134662097731 17.0003252575120207   T   T   T
 17.3108375094131333  5.0112743965843425 18.1381218190040947   T   T   T
 16.0434936538038500  8.2290272784571901 13.6270928522038393   T   T   T
 12.4397031324504148  8.9285506356835711 20.0284220930494783   T   T   T
 12.9154741797006221  2.4835190978768775 15.4308032747660882   T   T   T
 14.3306719973256396  4.2538139453839978 12.4611125464040260   T   T   T
 13.1513559496132366  8.2610240489652327 15.9695688558297775   T   T   T
 16.6889994878480081  2.1107635846472799 16.0103025135108830   T   T   T
 19.0141486165489155 10.0910471949560705 12.6154656073629567   T   T   T
 10.4172493517150961 12.2880158831673363  2.3944998447456154   T   T   T
 10.3582479946461259 18.5980024368879207  8.1795276778871422   T   T   T
 16.8297528183508547 16.9666053987399827  0.3059470559097256   T   T   T
 17.6417605769299328 14.6792359460598281  9.7183534976627985   T   T   T
 12.5568599436220740 19.9718038818092509  8.8559257839082601   T   T   T
 12.8323382627288698 12.5646874754492615  0.6177371238102237   T   T   T
 18.7584904250825488 12.1400097284085433  9.9405415819526066   T   T   T
 15.6959667638501390 18.3331661028240802  2.9567633829383375   T   T   T
 17.1391272386594835 10.4328474753175513  7.2870320999914586   T   T   T
 18.2376288485927063 16.0191156464274265  3.3990595870758260   T   T   T
 12.5107533071770511 14.8482942105215159  2.9169509223891978   T   T   T
 11.6063414736231572 15.6967871417832274  7.0550570922685445   T   T   T
 18.7713933430940685 19.1266923789354593  0.4963628578185166   T   T   T
 17.9802940868002139 15.1792236180208935  6.2508875867982834   T   T   T
 12.7615558189162073 12.7611783348948649  5.2287698093823511   T   T   T
 13.2698434914102670 17.2641454576337203 10.2165735414188141   T   T   T
 20.2215033931674029 13.3005247364201100  7.0758132264210305   T   T   T
 17.6572863093734611 19.8045924299583618  3.9221764179470249   T   T   T
 14.7403166384696895 18.3149805543186552  7.9583483462421896   T   T   T
 12.8779065382116151 10.2383932630409689  2.2932880707402084   T   T   T
 15.1520057877810359 12.5816623077954155  3.6465843294641482   T   T   T
 13.2526469732866445 18.2757208660649511  5.4532129241292839   T   T   T
 15.8613950036079974 13.0207005353431402  7.7573906778478205   T   T   T
 20.0459524000239426 18.0003238052678149  3.6166823376666142   T   T   T
 13.2051999774643285 13.4981299827539427 10.6748675675165963   T   T   T
 13.6356870841656921 15.4162259495428628 18.5323135560461658   T   T   T
 18.0487317509091767 20.4469964064309693 12.7523655136077672   T   T   T
 18.5816603102275977 10.7697799210747345 18.1990864807023698   T   T   T
 12.5438480094602998 16.8296518130960742 16.0624062327884367   T   T   T
 12.4052267857402523 15.0881168336488383 13.7199387809797901   T   T   T
 16.7477374303721831 13.9365734365206677 19.7932904776510199   T   T   T
 20.4625096923003440 18.7584643207882102 12.5273985593300221   T   T   T
 15.8500242290112325 11.6120676776730303 17.4920672199796918   T   T   T
 18.6297607955976545 18.6016254550934974 10.4551480832769705   T   T   T
 10.7394554758434833 12.1453373797309787 12.8589472048927043   T   T   T
 13.2021766904041158 19.9361449625110083 16.7874374372051278   T   T   T
 16.0608247032511358 17.1987603586404418 12.4861982541566690   T   T   T
 19.2794059676112113 14.7951857467251298 17.5065475794813423   T   T   T
 13.5631629695167248 12.1082170942803948 15.2899409105893085   T   T   T
 15.6065558790893508 17.4605638833702841 17.9426698264271458   T   T   T
 17.8495326230768470 12.8754219462754911 15.8218122831350261   T   T   T
 18.4564409838797445 16.5506019642516229 14.5088672660973792   T   T   T
 10.7417173816988676 18.3422172310618770 18.4286660084582969   T   T   T
 13.7241158145317925 10.5841159913052003 12.8053069620557523   T   T   T
 14.9316457765373549 14.0024872663865523 12.8691897414213088   T   T   T
 13.2576507102152039 18.1927933514670812 20.4107804050516783   T   T   T
 19.8113112170220091 12.5896236625880462 19.6858380441913887   T   T   T
 17.0997530886304645 19.0703564773225196 15.1499641267693193   T   T   T
 -0.0581821785406918  0.0790675780441771  5.2277126776369371   T   T   T
  4.9993514230746126  0.4521289333873539  0.0166162639588536   T   T   T
  0.0563579955195210  5.2855508666345683 -0.0153493760766918   T   T   T
  4.9102139385466401  4.9164316923174303  4.9431185305327698   T   T   T
  0.1082700158745616  0.1179070587231736 15.4315359657268054   T   T   T
  5.1369119444645257  0.0687190298446947 10.3132322025224337   T   T   T
 -0.2094048985783981  5.1027425345562554 10.1558616407426392   T   T   T
  5.3554451019991820  5.3446578128908646 15.2083433123951597   T   T   T
 -0.1333727756252491 10.4347914198693577  5.0169730106036630   T   T   T
  5.2826808410619623 10.1944312964801327 -0.3319015579674141   T   T   T
 -0.0786179241489824 15.2648960292420401  0.0410110169367431   T   T   T
  4.6611218277384827 15.1457663780568783  5.2167604333615243   T   T   T
  0.2080678988924599 10.4324939756896118 15.4381830348120488   T   T   T
  5.0968884967984600  9.8536187515801963 10.1755218637779379   T   T   T
  0.0349396168420089 15.5642578898270045 10.2447004087149516   T   T   T
  5.1577176796458444 15.7089659332660965 15.3719683732335923   T   T   T
 10.1946716561111117  0.0601670755780368  5.2630964190559411   T   T   T
 15.5496800250904457 -0.0715733645643493  0.0051555808782199   T   T   T
 10.5127132478176275  4.9684577823496578 -0.1009705501210007   T   T   T
 15.4265602284287322  5.5086563615135828  5.3644036747928219   T   T   T
 10.1062622207204580 -0.1652664480591917 15.7180537496715811   T   T   T
 15.1598567236679624 -0.0950875708913753 10.6762725902562536   T   T   T
 10.6231054733546024  5.0652713081908018 10.1079281704945672   T   T   T
 15.5337897389615200  5.1030069810446657 15.3241343542171453   T   T   T
 10.3584052660928911 10.0407465139911611  5.2369564006550569   T   T   T
 15.4491700681155635 10.0720829909435885 -0.0872437088761643   T   T   T
 10.2192594761493059 15.5858453836543234  0.0281864289576594   T   T   T
 15.0488915716779008 15.4601105247419088  5.2795792446126333   T   T   T
 10.2992376326222725 10.2526357935299099 15.1870166305702767   T   T   T
 15.7362593287250601 10.1257288143079318 10.4985132736451447   T   T   T
 10.1892701890267023 15.1784699379061045 10.3989056118028653   T   T   T
 15.5950142108023062 15.2997381318978682 15.3627010128129289   T   T   T
  0.9742100333448332  1.2073799562754386  6.5225039933752855   T   T   T
  1.0778881964827369  9.2615934467913981  3.8810054349848628   T   T   T
  8.9179208333100775  8.7486237797596882  6.0277205378131367   T   T   T
  8.8825304748859395  1.1577374713179724  4.0969026611989614   T   T   T
  6.5668883846259227  1.1567355757669939  1.0853763912329937   T   T   T
  3.9009285795140523  1.3404491733619717  9.2393171979719391   T   T   T
  6.2122475583209198  8.5657500602537802  8.9982774523149818   T   T   T
  4.4164070461223019  8.7198156447465269  0.8641054900588452   T   T   T
  1.2256336566185986  6.3512912309824632  1.3822871544936466   T   T   T
  9.2221304278582128  4.0462512182108439  1.1814354102062326   T   T   T
  9.1964760970346120  6.3032408664194035  9.2752423973204436   T   T   T
  0.9314763070396832  3.9346959771454872  8.7979972996860507   T   T   T
  6.2635392098747840  6.3123838436218671  5.9897127389250970   T   T   T
  5.9774136499330641  3.7592197974809878  3.6224945878217651   T   T   T
  3.8995530532329945  3.7466380606935510  6.1671248609507803   T   T   T
  3.8149240030497769  6.1615566891561020  3.7554741459562879   T   T   T
  2.1737042120496959  2.6990793720335651  2.6513851012156282   T   T   T
  2.3254725022127669  7.7006530924275944  7.4270735695065309   T   T   T
  7.9276057520276622  7.6415428105255057  2.0079991769181271   T   T   T
  7.8902960107756579  2.8693476360159038  7.4946064757313389   T   T   T
  1.0854387716407290  1.4246611398886027 16.6876839145381020   T   T   T
  1.2046261364773982  9.2031857810916868 14.2157397811897006   T   T   T
  9.0306754932144386  9.0912742436912577 16.4366615951923727   T   T   T
  9.2696257579302337  0.9246939356917416 14.1607055781454001   T   T   T
  6.3682038538766683  1.3478440010150647 11.3755407078169917   T   T   T
  4.2984301728143608  1.6859138730774319 19.2093971745986316   T   T   T
  6.3836615702846951  8.9993100180514052 18.7745227850534313   T   T   T
  3.8747237628791855  8.7727740471741313 11.2833132179212079   T   T   T
  1.0549531902588443  6.2523749112020255 11.3808439599254960   T   T   T
  9.5488772052230111  3.8196089741924886 11.5547926840369382   T   T   T
  9.4469665478379721  6.1895098550430783 19.1414365129972950   T   T   T
  1.4045063646362732  4.1145996567888048 19.3840538751041684   T   T   T
  6.8204624729508296  6.1648250516803911 16.4000813751270300   T   T   T
  6.0320216441882639  3.9562318751183456 13.9463425175274285   T   T   T
  4.1258858613191078  4.4066031165233728 16.5385540328978742   T   T   T
  4.1935580214011194  6.8349929372041798 14.3114889455121901   T   T   T
  2.5915025530359723  2.4762676912453059 13.0139393326226074   T   T   T
  2.9248364027303242  7.9027863268748657 17.7634878642882015   T   T   T
  7.8674482855356338  7.4513976702110085 12.5931523942660863   T   T   T
  7.8378198921149096  2.7873951473101428 18.0821236202679430   T   T   T
  1.3027512833601900 11.3611126684378068  6.2759502759188655   T   T   T
  1.3078452592884022 19.5781676058953202  4.0493235795048372   T   T   T
  8.9696321358707127 19.8142118295753207  6.7486433640673802   T   T   T
  9.0311331815766192 11.1952634403474551  4.1020322923234325   T   T   T
  6.5455588458488023 11.4415942958239594  0.8269560657044575   T   T   T
  3.8886155337953587 11.2960613802752832  9.0433216399313618   T   T   T
  6.2599106595225198 19.5217043830055985  8.9820169769371798   T   T   T
  3.5405234863701178 20.1391773298683709  1.3298417292329259   T   T   T
  1.0260281346726425 16.6729196576098602  1.2355926375602437   T   T   T
  9.0520281338656616 14.3351519690923901  1.3726661807089542   T   T   T
  9.2159310106406007 16.9887229877364661  9.4118215395196945   T   T   T
  1.3166221727783192 14.5883936158988643  8.9918575348056553   T   T   T
  5.6910282325341512 16.3800649582478925  6.5662327254738733   T   T   T
  6.0634956912723865 14.2488550615967213  4.0475634024542773   T   T   T
  3.8855705829388207 13.7410259385949765  6.4214641117827176   T   T   T
  3.5542339184183676 16.6366365632782696  4.2729350311039420   T   T   T
  2.7896612631727682 12.7770702400146021  2.4226502717327425   T   T   T
  2.5395623555335152 18.2234303451077935  7.8672244360062775   T   T   T
  7.5714650708087889 17.9619858824772436  2.6420559324989719   T   T   T
  7.6067069872137303 12.7216427583377154  7.6134629158756582   T   T   T
  1.0516430234782925 11.6182431906411541 16.8522578516632926   T   T   T
  1.4305568597189251 19.6675302228222364 14.2170255002202577   T   T   T
  8.7024938162862604 19.6830247094606605 17.0519535918279921   T   T   T
  8.9208601612978118 11.1954668326406495 14.0227684649937476   T   T   T
  6.3514653317924594 10.7869541900344821 11.4354943534134819   T   T   T
  4.2410855346799297 11.5048371258069082 19.1903293495277119   T   T   T
  6.0417820698629185 19.1744585483154566 19.7312152651071848   T   T   T
  4.1227763112757865 19.3273583796667232 11.4949790638335916   T   T   T
  1.0857709775093787 16.6633325068623606 11.5409067013634044   T   T   T
  8.7117295628763820 13.9649599962537732 11.2829295186893415   T   T   T
  8.9724169035132118 16.7383880799912532 19.6612744991021877   T   T   T
  1.1006186174216550 13.8864175826798562 19.5027719366513210   T   T   T
  6.2084150857076397 16.9354479845722068 16.5782206623074870   T   T   T
  6.5626015582972395 14.7949264968660863 14.1254846660368383   T   T   T
  4.1327421352453859 14.1450670460199159 16.4674005145079860   T   T   T
  3.9059242839103976 16.7759956216611918 14.2378568407606654   T   T   T
  2.4880259213080116 12.9897636272236685 12.7175969367335124   T   T   T
  2.5080674890905224 17.9494363134984525 17.9383026025313050   T   T   T
  8.1091567289938649 18.0556294996515838 13.0078101197050735   T   T   T
  7.6021715067284532 13.1099985941165720 17.8308980409920395   T   T   T
 11.6374639986181219  1.2780238521493841  6.2087031630881171   T   T   T
 11.6727674593408359  8.7589636260078549  4.1835649681779650   T   T   T
 19.1090532571365799  9.2749145194839677  6.1579088801100887   T   T   T
 19.2641594229070421  1.1321282736973877  3.9399052335919840   T   T   T
 16.8682445515884609  1.2071401452661581  0.8508167805400441   T   T   T
 13.9804192192334629  1.1366128137185643  9.3438290043366692   T   T   T
 16.7854683324664720  9.1301875392956084  9.0661679858731095   T   T   T
 14.3710661884860542  8.7834997587116188  1.1436227673341446   T   T   T
 11.7659826197818145  6.2236040772520775  1.1245167627416333   T   T   T
 19.1583108872338954  4.0773348921393380  0.9087687023741948   T   T   T
 19.3164151348126865  6.5407902057456164  9.1799319026476258   T   T   T
 11.7322440590604682  3.9798605846886916  8.7916874514392838   T   T   T
 16.6371124261800176  6.7124808562965104  6.4547286003950113   T   T   T
 16.4356680616569548  4.1137483013707410  3.9255223975685554   T   T   T
 14.5182122697305900  4.3647888541927706  6.7858184204178951   T   T   T
 13.9428649475857540  6.5047801196754067  4.2860465040936413   T   T   T
 12.6356921641818047  2.3909622629500800  2.3170564941031646   T   T   T
 12.8484795575062734  7.8305392011436545  8.1096790597051207   T   T   T
 17.8849861872179616  7.6823507659920267  2.6201987587394968   T   T   T
 17.5477831251546021  2.5804878008939913  7.3504184786497087   T   T   T
 11.3779871910527479  1.3049778972953112 16.7514796572614095   T   T   T
 11.7083512200674615  9.1060464943778534 14.1321254870391968   T   T   T
 19.4379136436726370  9.2413153827512087 16.6167285288825397   T   T   T
 19.2806110105727981  1.3003097817688021 14.2687623056992461   T   T   T
 16.0452947832259412  1.1406311100572570 11.9188531118992227   T   T   T
 14.4521840211601571  0.7284102933023667 19.1094018898849356   T   T   T
 16.6878786736138522  8.9081140313734615 19.2737033941409202   T   T   T
 14.4924321498633351  8.8074106337082085 11.4671931408578356   T   T   T
 11.9691416248017291  6.0137947312391322 11.3784216766846775   T   T   T
 19.2960934528825661  3.8530179189071925 11.3030270430831017   T   T   T
 19.6240107000856767  6.6742015839934981 19.4660067944511077   T   T   T
 11.6175736979466677  3.6335191091640033 19.4623995062163964   T   T   T
 17.0225971419751119  6.2142026038622804 16.2834118667190388   T   T   T
 16.6256523540940293  3.6799499461825089 14.2420015530520008   T   T   T
 14.3026526860521734  4.0464772154132973 16.7414135218951863   T   T   T
 14.3641824634095290  6.3424881648444220 14.1938345449948979   T   T   T
 12.7201889887183786  2.5328470881102625 13.0787800870967637   T   T   T
 12.8496716586581883  7.4028475131743701 18.3449427874264508   T   T   T
 18.2805681853026840  7.7943541107619581 12.7352404242029493   T   T   T
 18.0030451748263332  2.7076974152329654 17.8255262159986074   T   T   T
 11.4928930330787082 11.0412963476618060  6.5965549080067518   T   T   T
 11.2710595387294958 19.3867017168194202  4.1165364863589051   T   T   T
 19.2570792045609593 19.2855542261494435  6.1289872952082325   T   T   T
 19.2548608576735703 11.6510145213107759  3.9208467087364709   T   T   T
 16.5326344337292568 11.4536763767428909  0.8402793567814268   T   T   T
 14.4333508031539992 11.4111749934217528  9.3604150273328131   T   T   T
 16.6190818037555914 19.4464211928947002  9.3638614609744462   T   T   T
 14.3895389911107667 19.7540722590458202  1.4463902135472364   T   T   T
 11.5526751190427834 16.5593007368857990  1.2533893807409553   T   T   T
 19.3375851133245291 14.1387928111241195  1.3875327137752889   T   T   T
 19.3665118562911260 16.9042660422551450  9.3100480915602635   T   T   T
 11.1518660023390321 14.0100275727440025  8.9795256047437402   T   T   T
 16.2552487921842470 16.8310949767149935  6.4619277031862454   T   T   T
 16.3616741016649172 14.5300319575436294  3.8847544414971140   T   T   T
 14.0082761228219432 14.1666107833348480  6.5439771255068280   T   T   T
 13.6667601847487532 16.5272378782165177  4.1600428059684464   T   T   T
 12.9321553388083217 12.4854396772197198  3.0190156404869031   T   T   T
 12.5904717775002943 17.7882932826988345  7.8764642141045460   T   T   T
 18.1793473236966037 18.0799342209039757  2.4255447496150198   T   T   T
 18.0875815446731067 13.2822517568431735  7.8460137378614503   T   T   T
 11.4602789229180395 11.7221556993231992 16.2175545414721469   T   T   T
 11.4694828782064384 19.0022580082092993 15.0204808357442978   T   T   T
 19.2772333003645429 19.4526543200606632 16.3820648793044086   T   T   T
 19.5685930304636599 11.6360432316278555 14.1597525870902565   T   T   T
 16.8696017756132193 11.0835185305242874 11.7158530450295633   T   T   T
 14.0162703138212237 11.1613658458823899 19.5573643781782067   T   T   T
 16.7008871398642498 19.0596642408743513 19.5865369870140427   T   T   T
 13.9731422227646505 19.3052050178393948 11.8450372155252168   T   T   T
 11.4244158836643894 16.1702015076521093 11.6086255776190281   T   T   T
 19.4671660742787012 14.3034653178650242 11.4457403678466747   T   T   T
 19.1647719367807170 16.2459589042967849 19.4125730367061458   T   T   T
 11.3800879638963419 14.3100353553093971 19.5568940186106346   T   T   T
 16.9722811300512575 16.5491256103463797 16.4564092742964228   T   T   T
 17.0228213779281532 14.4414303556939192 14.1881147641721252   T   T   T
 14.5696305268720980 14.0608489870970796 16.5575869507328584   T   T   T
 14.2009168919317492 16.4056291151910649 14.2838770164966302   T   T   T
 13.0905567011217645 12.7950307125029408 12.9692731393604532   T   T   T
 13.3699854292035187 17.9577965834217714 18.0527512148507725   T   T   T
 18.2076818262572573 18.3819473053060776 13.0092220492800443   T   T   T
 17.9585356933714309 13.0286191291001074 17.9344363271538896   T   T   T
  0.1978229330719791 -0.1257062057930053 -0.1823251900626321   T   T   T
  5.8504149084444474  5.2662335728893126 -0.4302693266142659   T   T   T
  4.9799369216334091 -0.5555432739471647  4.9449381446418288   T   T   T
  0.0760208269416926  4.9535270432673260  4.8352656211440470   T   T   T
  0.1727832376050618 -0.3260458683492364 10.4444985616185519   T   T   T
  4.7706343134810938  5.0845770453118782 10.7125924300393862   T   T   T
  4.8870986383345256  0.6214505082668128 15.6192252094837194   T   T   T
 -0.1565780035825811  5.1565473868903231 14.9706671711796435   T   T   T
  0.3024345061981610 10.7214358834965715 -0.1912422246757285   T   T   T
  4.6967761743782290 14.9682740268441155 -0.4016878980893306   T   T   T
  4.8045835728837805 10.3108726335193790  4.8275658409638229   T   T   T
 -0.4465388072055189 15.8711023627166945  5.2876895916803832   T   T   T
  0.3870912669983957 10.3720119075735102 10.4987881927307285   T   T   T
  4.5561928710777932 15.3384776390322060 10.4313185798640884   T   T   T
  5.6765544557968743 10.0446521503041719 15.2068297447772025   T   T   T
  0.0074557799868254 15.7481668653072990 15.5808762083679735   T   T   T
 10.0797581293182343 -0.3324280215755510  0.3667624532449598   T   T   T
 15.8512172185460880  5.0590056085452710 -0.4803039661531523   T   T   T
 15.5942951003490826 -0.5706208778599855  4.6252848878914534   T   T   T
 10.3228472208198419  4.7614381937772086  5.3759254597920814   T   T   T
 10.4689112504481763  0.2903510277519757 10.1925031569733733   T   T   T
 15.5335598295338535  4.5425414771405244 10.5810270769479047   T   T   T
 15.4676660063333298  0.0899255585234699 15.6050618643935639   T   T   T
 10.5218659717445995  5.4786543315672027 15.3311346302905456   T   T   T