Li P  S  Cl
 1.0000000000000000
    25.1819793006824639    0.0000000000000000    0.0000000000000015
    -0.0000000000000009   14.5388225279766061    0.0000000000000009
     0.0000000000000000    0.0000000000000000   37.2126966544236950
 Li  P   S   Cl 
 286  48 240  48
Selective dynamics
Cartesian
  0.7003696765443558  2.9432742230277134  8.8875050886706575   T   T   T
 16.8314822241030129 12.0123327702489000  8.8351918359179944   T   T   T
 18.3087083498091232  5.4575988296843576 11.5803333807083018   T   T   T
  5.9229077516461732  8.9386685025618746 15.3942518265002519   T   T   T
  9.1645856422964531  0.8901736553409393  0.9191637383325209   T   T   T
 20.9387733839004682  4.7072121838220333  0.0275828791427384   T   T   T
  4.0053495421048568  2.6509895377399428  8.4308355050475647   T   T   T
 14.1035901811220228  9.4766576764197374  6.0997037807113079   T   T   T
 16.9203606538459539  2.7609160476455279 13.4106242488305156   T   T   T
  3.4733911753769426  6.5850177393238187 19.3129683382237616   T   T   T
  8.7713892586960220  3.0714879707517428  3.2896803365205609   T   T   T
 22.1986301578426861 16.2884048259218552  8.7435951745940521   T   T   T
  4.3271132285639329  4.1707761499481775  5.6274377014061425   T   T   T
 14.0594183966162856 12.7402873364149301  5.6357903222808554   T   T   T
 19.8027386176396334  5.7773332377185991 14.2523643723604909   T   T   T
 10.6167032862551149 15.0914565584171427 23.7722368803324109   T   T   T
  7.9580054036607386  6.8262467753922378  0.5632094027038848   T   T   T
 23.2271127267967472 13.1554589564802207  3.1519148455978812   T   T   T
  1.2473320925993705  2.2059247049363915  6.1999344242876893   T   T   T
 14.0462119069058566 12.6698192979095161  9.1044379827545168   T   T   T
 23.4971777373728941  6.5788872352759427 12.9151919604726650   T   T   T
  8.2560779069119601 10.8121595239327810 12.4619904820233316   T   T   T
 19.2628067760168236  7.8201155938171869  0.1894259854951283   T   T   T
 29.5755179530276138 12.6325195366451872  2.9708799743014245   T   T   T
  5.4308529109330532  6.2623698375186754 12.9775638387845298   T   T   T
 14.6322559993642010  9.0761807843834887  9.2525121229642142   T   T   T
 21.3125333858613644  3.3008955802587310 12.8139425907504840   T   T   T
  8.5110267501975461 10.4644485579861630 15.5688110216572770   T   T   T
 13.0676595085774405  3.8089667808620380  3.0823799152409670   T   T   T
 25.8056014086196726 12.9292312434872194  1.6917801934950567   T   T   T
  3.6195562188651245  5.5317356158922752  8.8160226262019172   T   T   T
 10.1232116990504508 14.9389403173920527  5.3496165854880982   T   T   T
 19.2919174860839533  1.9941079997812279 14.9404005368890829   T   T   T
  4.1781583420355606 12.5823701128548926 13.6633991206966190   T   T   T
  4.9421591277541186  2.5066952271962060  1.4220451131151499   T   T   T
 19.4452820874816652 14.1351927367266370  2.6438084767399976   T   T   T
 34.1811382846132403 15.6010384302438645 19.2562905354632683   T   T   T
 15.6745875737745965  7.5595181126209283 12.5368497919707984   T   T   T
  9.1496877751839989 12.8700944468882064 -6.5913249116318982   T   T   T
  4.9081321594271454  2.1775874811526639 -2.8188468036059522   T   T   T
 10.4598467900824375 13.7634502719794227  8.5799404045496015   T   T   T
 20.3197317716661630  5.8862646522819704  5.8142593161236213   T   T   T
 25.2903186482909206  2.9893713640051449 13.4185352757192220   T   T   T
 14.9195089933505294  5.9210867609828330 15.0487106013799394   T   T   T
 15.9703559964219917 -0.6219980940262304  2.6661282866783949   T   T   T
 -0.3482914036469088  6.1701576382707461 -0.0051335287789640   T   T   T
  7.9785464053843631  3.7947052681089248 11.6680247701342168   T   T   T
 18.7612927206249580  2.2072140788458334 11.3749174421904176   T   T   T
  2.2057771729675211  1.1720951695689921 14.9791282593094071   T   T   T
 17.1806994832763138 11.1352671482750090 14.7313113556388391   T   T   T
 21.6118849568405196  1.0845705205009832  5.2207119009423621   T   T   T
  3.0822360672437346  9.3582968267777566  3.6794556452986646   T   T   T
  9.4906615023557475  2.1809340661216217  8.7278245797427747   T   T   T
 19.5449649883019774  7.4649792290070600  8.4013185919392797   T   T   T
 -2.0718142873813976  1.6036047305726271 14.6694950113371814   T   T   T
 12.0743346786306347  9.1298737190507033 12.9258763187699142   T   T   T
 17.8125672700596738  2.2529427444637533  2.8662628793323583   T   T   T
  7.7439225474324580  4.1660590753496880 -2.9242054446161205   T   T   T
 12.0626182522966960  1.1504352103472719 11.4423664286200175   T   T   T
 22.2206385986347499  8.9565979126901354  8.7846352464984552   T   T   T
 -1.3353693053970119 12.3715789324291485 18.9395343848843076   T   T   T
 12.4133254862740454  8.3251777840925314 16.4882920706878622   T   T   T
 16.4851324901076168 16.5027278285485295 -0.1485665014613190   T   T   T
 -2.6802979112549870  7.4777577101213879 -2.8618965931274003   T   T   T
  7.4941372092604510 13.5944411481009517  8.7012615187493374   T   T   T
 22.1811046919407033  5.9716433519286882  8.5394242217531655   T   T   T
 27.4755915234959076  0.5219459114414581 12.1201975056702551   T   T   T
 12.6316647959177875  5.3925327660590048 13.3592534610342852   T   T   T
 15.8287191312996089  5.6186684993065477 -0.0440013036693395   T   T   T
  7.2973029942712966  7.7018830061771064  3.7660064882730522   T   T   T
  6.8328659484279894  1.7217514943350181  7.4688730508992078   T   T   T
 20.6360905336284191  9.8899225631027967  6.5236669393965041   T   T   T
  2.0863569380049585  8.8159631230490945  6.9030375671720368   T   T   T
 14.1878964907698055  5.4345398734646677  9.0636180808394222   T   T   T
 18.2820939291475781 13.2099937220403092 12.9171284087454250   T   T   T
  6.6083427810213342 -0.8528689552923868 14.0649853316323590   T   T   T
 10.6751435211613614 12.5173028675143421  2.8803100968715967   T   T   T
 23.5351206849966488  6.4411075167805647  2.6303143230110786   T   T   T
 -0.8546866935625745  9.2184568586646023 12.1719872795576620   T   T   T
 13.0444122474350248  2.7224620112643771  8.7924664904540979   T   T   T
 16.1856978679584955 17.4090454118306148 17.6441360769869817   T   T   T
  4.6308325802187387  4.0882909203335664 15.2219399959117414   T   T   T
  8.6444975584018682 10.4361834821408870  2.0732895871147581   T   T   T
 23.8146597364342796  7.4332914229127933  6.5295864282954819   T   T   T
  7.8639668127011131 13.4158524650970392  5.6250855772709150   T   T   T
 16.0556720183585213  3.5209553766361368  5.4109909333490798   T   T   T
 20.4137275445854556 12.5049331916124693 15.6830072068890392   T   T   T
  7.8837512355338140  2.3832031616023035 15.2781706704021172   T   T   T
 16.7790255666362427 11.3887008895310800  5.8406986206224660   T   T   T
 25.4052795896876660 10.9107057983259921  8.4584337359084945   T   T   T
  4.6618237698478646 10.2018927997047903  6.8328718651773208   T   T   T
 13.5484273250092322  1.7376895728157473  5.9642057793737573   T   T   T
 21.3046114688463533 10.8892925677884058 12.5191547316953269   T   T   T
  6.0355376778608711  1.7435464486535883 17.5585546001859036   T   T   T
 11.1741737690441685  9.1442041947158152  2.6195588219336492   T   T   T
 17.6336037496321936  5.6551521054167901  2.9036889831206580   T   T   T
  3.4514272109353556 10.5636872470878913  9.2743329046363119   T   T   T
 18.6908459576229262  9.6053624631022174 11.9932125586158964   T   T   T
  7.4327566655832538 -1.3227330383845357 18.3522830823145036   T   T   T
 11.0217526192514086  8.8952927034306732  7.8442519878253094   T   T   T
 29.4705505652951842  6.0210398053453318  3.0764887780915826   T   T   T
  2.3279081366863008 13.7422118632264798  7.5159706002638504   T   T   T
 16.3041476379866737  2.3489391208866701  8.7220998844892623   T   T   T
 17.6931950832775513 21.9798863975580723 17.6034831678754706   T   T   T
  8.3285464154386712  5.3848698340305035 13.9595103585140432   T   T   T
  5.7925802816211673 12.7815011536590433  0.1866342051364062   T   T   T
 22.4819295991732062  8.2354715130430840 -0.3208581325369561   T   T   T
 23.4819041011716152 13.8006127925061364  7.4942979929024540   T   T   T
  6.8534478109336670  6.2974370707378791  7.7102744813712105   T   T   T
 14.6843763801093026  9.4864993154229680 15.5488782973594262   T   T   T
 25.2602656080719470  9.6873201597758225 14.7633100467158194   T   T   T
  3.4889640744481554 19.3709801308934608 -2.1075761427343944   T   T   T
 16.8139937568525610  5.2856779395210616  8.5843221894261070   T   T   T
 19.1239546243793654  1.0955724203088069  8.2252240148207143   T   T   T
  5.4601419283319581  9.8735315597056079 12.3244141989288032   T   T   T
 10.5946345114094029  1.3829738096874273 14.0341736004613580   T   T   T
 26.5035055939975592  5.8859294137538702 14.5657469756418951   T   T   T
  1.0860816325332578  5.4739305195339885  6.3670679132869017   T   T   T
 13.6305445816167587  5.6787807962089341  6.4387367368345840   T   T   T
 24.8626540467511248 -1.9544940452069095 13.4354476802586955   T   T   T
  9.7608738269808146  5.9035525532518722  8.6638503310402974   T   T   T
 10.7300241594936807 -1.0347379520495223 15.1776280413020146   T   T   T
 10.8047496106728023  4.6021724277318263 16.9989676482455252   T   T   T
  3.4756163025569284  1.6091196514211026  3.4303038319042249   T   T   T
 18.6509858375821267 13.1240728862834715  0.0796984138334784   T   T   T
 24.1722424855491411  0.1140807000829049 11.7801653074169295   T   T   T
  9.4299802270091178  6.5827186603172141  5.4099752956796090   T   T   T
 14.7174756878320991 -0.4980581429616876 13.5017003883473876   T   T   T
  1.1720306244877370  6.8606145820303093 11.2062637168661059   T   T   T
  6.6000245678034730  0.8616208037333907  2.7029728542946061   T   T   T
 21.4590517140831167 10.8135269052136422  2.1407495149741300   T   T   T
 19.8786456718913414 12.9543074806662908  6.3088388045914190   T   T   T
  8.0773071855835212  9.2333063409176397  9.1211580342972738   T   T   T
 11.5489953077623611 12.6547007682607457 12.5150512834708945   T   T   T
 -5.5583046050664091  2.9679450140706742 19.6106359458902411   T   T   T
  1.2393826078212453 11.7887845718286677  5.2772361957531340   T   T   T
 15.3305681286794417  7.9435531562669413  2.8935902062715737   T   T   T
 20.7277440026921695 -1.4406851391615736  8.9644093580633584   T   T   T
  8.4980902314454987 10.1322514054715640  6.5499650542056820   T   T   T
 13.1327100988501595  2.2223259077605184 14.8999800112092782   T   T   T
 27.7332698236501400  8.4585023096251426 13.5093924272924983   T   T   T
  2.6471648095558762 -2.1504664448419391 -6.6905395668738992   T   T   T
 17.0328225537886624  9.9666905823623253  0.7283489929718254   T   T   T
 11.2194871674091186  4.9345317724011410 28.4772614731676867   T   T   T
 21.0017495717014455 18.5730437705057163 28.3508608270646256   T   T   T
 -0.3261917049038961  4.4481109523725717 23.9546761036850988   T   T   T
 14.3423612242102987 12.9307731029446735 22.6810120005407896   T   T   T
 21.7934828185528957  3.6595890834209621 40.1737439387161714   T   T   T
  3.2749204692091367 10.7021851493501146 36.7998112369772059   T   T   T
 10.2902121970804199  7.1432853559403870 24.9022650698371280   T   T   T
 23.5661798262161284 12.0696840081112065 31.9821130830322957   T   T   T
  2.7142891643638163 -1.0109267926437286 19.2890422143424090   T   T   T
  6.9061865378809308 15.1010951133772195 22.9005910172847393   T   T   T
 17.1140243710364146  3.4272015954933721 34.1685360084376839   T   T   T
  5.2353129192308394  9.0504442861433247 34.2270315824261218   T   T   T
 13.4974547098876645  2.5189330938528656 25.5660342502233426   T   T   T
 23.2645272683050877  7.5198721503852051 24.5450090454678325   T   T   T
  1.8528993883491180  3.0527204087748183 21.6274820370814496   T   T   T
 15.3514372739257379  9.5928390446484855 22.6056268380139258   T   T   T
 24.2919817140955843  5.4722699735378875 34.3029562399826560   T   T   T
 12.4626833455646100 12.3050656262599283 34.7749061805899018   T   T   T
 11.4858921240087266  1.6663455963981768 28.6791953149537164   T   T   T
 21.1886778398907509 11.9303559885243615 29.8451288647237973   T   T   T
  2.4008715486432108  5.5818899381265865 23.1920737221812914   T   T   T
 15.7073602980222891 10.7540214643688614 25.6470115358883710   T   T   T
 19.7110793582410651  1.2998117549649379 37.1139177872320971   T   T   T
  6.3453620184701034  4.5764830635605236 37.3778700896860485   T   T   T
  9.8336747849533186  8.4711590264248642 22.5379642773417430   T   T   T
 23.7618936118931146 12.4335192225604914 28.8357320045323924   T   T   T
  4.3475023051341699  2.8376493568004548 24.4490944234915801   T   T   T
  6.4975081467813229  7.7831015112465174 19.3396914897767118   T   T   T
 25.2453358336636597  9.9593813028832763 37.2615884100220072   T   T   T
  7.5033885823973758 12.3422817777164830 34.4863822849982853   T   T   T
  9.2811690195589538  5.5217587814914451 30.6534989782122835   T   T   T
 22.0711150709491477  9.5022892422535499 31.7552414367754707   T   T   T
  0.7405149025315486  1.8297106946162582 24.5734204099657099   T   T   T
 12.7342211631933289 12.8741900765152657 24.7960373556914639   T   T   T
 20.4905986754782674  4.7714130249602125 34.5058951550104425   T   T   T
 15.6390611920690841 12.0403811708412221 36.4697408524584716   T   T   T
  5.9868765007329552  6.8935589763628933 22.6500348719664402   T   T   T
 18.3691353720497972 -1.7898459240979343 23.3584103772964404   T   T   T
 26.9573503231667360 13.1188640991247780 34.4003398842741603   T   T   T
 12.6587063185146729  2.4610375567756262 36.2657580885421282   T   T   T
 14.6442988421281477  6.4524831039329111 28.3052569224852668   T   T   T
  5.5728127035198716 -0.0728137944499130 31.7614488929429406   T   T   T
  2.3941666002402111  9.0195433349770937 22.4362184839480321   T   T   T
 22.0498755644396525 15.0723401509427042 22.3320852502431748   T   T   T
 22.1906122881399241  9.3024605076720910 28.1360451843844785   T   T   T
  9.8019605567629338 -2.1828305036568620 36.6155199088838756   T   T   T
 18.2126730111307964  7.5757872126531129 27.9272584991053066   T   T   T
  5.2925245613331757 15.8078630652064120 28.7896734390899951   T   T   T
  5.6002403404376988  1.9041047926476078 12.2187956683252601   T   T   T
 19.2827950735727072  9.4839129285441679 15.6713331274803025   T   T   T
  0.8278245874112423  9.7722404184738210 33.8740508760935697   T   T   T
 19.3157884761372571  6.8642348440472398 30.6045920206482513   T   T   T
 16.0870132179100764  8.2460724279243607 31.5388238150225035   T   T   T
  1.8441340768642451 13.0733819855328512 23.9298937721722460   T   T   T
  9.6969450093051872  5.8505067796625463 19.1535697853015492   T   T   T
 19.8378226639499218 16.1627116000363387 24.5070760181383989   T   T   T
  1.3781137055488193  7.0332786005339418 35.5509667941823935   T   T   T
 14.0147517998985780  1.4342064889333923 34.3371431954769335   T   T   T
 16.2588916780227919  9.2310738553048886 28.7585665535321802   T   T   T
  2.3295123721072040 14.9256762133709806 28.5693391869384108   T   T   T
  7.4960022080884441  5.3834985442491119 25.5822643803449132   T   T   T
 21.1832368090679068 -2.6406020992578303 23.2054678451615395   T   T   T
 -0.3340359433545291 12.6516279840005588 36.1517870349092121   T   T   T
 11.7647682362369448  3.5856030234226544 31.8706419522138269   T   T   T
 19.9322157870300529  9.1443801107309284 25.1225146741346315   T   T   T
  4.1731504507952977 -1.8423654214993244 28.5387858310928060   T   T   T
  7.9278947758015041  4.4878384916836414 22.3038006021199955   T   T   T
 20.1601653955330846 13.3321931662522424 26.5351424295145399   T   T   T
 23.9522573444286309  9.8503773062678910 40.0402549355186181   T   T   T
 11.5799152952274156  9.6692701503980416 35.9661389896225074   T   T   T
 16.3284585530834150  5.7630247383756643 31.7060074257121158   T   T   T
  1.4932684198376245 11.6947046712545131 26.3521510916091302   T   T   T
  7.9665150522586785 10.0636360471273854 29.2513584748505551   T   T   T
 22.4092665571288734  5.7527228497697749 29.7562194672083002   T   T   T
 -0.1036567150565336 11.3882365758451236 22.5184613583751059   T   T   T
 14.6563005329380402  5.7997414684984037 23.6090575101699827   T   T   T
 18.9283091287928116  8.1345416750999426 34.0101058131451310   T   T   T
  6.6296898343679498  1.1144092407594248 37.2163371028520231   T   T   T
  7.2759585773296998  8.6142010775167357 25.0752603214776713   T   T   T
 23.2775257289795832 -0.3481112416365053 24.8558777368386323   T   T   T
  0.8497408884622156  8.9388241672312816 24.8443199350336066   T   T   T
 13.3462048161271358  0.5354086896011223 19.2534109695965974   T   T   T
 15.5153112847538903 11.9527196280900867 33.6504763548122980   T   T   T
  0.1735587762962280  2.3783709658243990 34.5587405198737514   T   T   T
  8.9370284691109223 10.2035406534658648 32.2816340710185656   T   T   T
 24.8748406767764152  4.1635828941903510 27.8481114772743155   T   T   T
 -1.1357423410676064  3.1720036708887021 19.1572564077047822   T   T   T
 12.1447520862818834  4.6660098762340079 23.5483053443525279   T   T   T
 21.1062768735023241 11.5052412378153015 35.3977563839054383   T   T   T
  9.7846096379303198  0.3961044812681760 34.6918112628782538   T   T   T
 10.2647384941894604  8.3371982330650525 30.0548649356975872   T   T   T
 23.0091289580305514  1.3000092278753261 28.3677063203511075   T   T   T
  4.2905992857403961 10.6495687411784239 24.8950390395484611   T   T   T
 16.0736214481511155  4.0174289594166854 25.4707502968881379   T   T   T
 18.6874426563375380  9.1384332531274026 39.9939607097288956   T   T   T
  3.4901173130662562  1.0669418315642663 36.5194519453127455   T   T   T
 11.6532299456160402 11.3796169363040711 28.6063431367409677   T   T   T
 25.0447457638813447  3.6984115630405823 30.7022159317804295   T   T   T
  5.2004885957834546 12.1761597855674673 21.8300943906610918   T   T   T
 16.8541613501600978  2.2176728301020106 23.2907114475466059   T   T   T
 25.0106236078642254  9.6488132260551183 28.8650704576823465   T   T   T
  8.9128129659831181  1.6741595490217231 31.0673728432417384   T   T   T
 11.9364724594952403 10.7360166068697858 31.7722065683335479   T   T   T
 21.8666656075610106  2.2833977316382907 31.1591532320274212   T   T   T
  1.8993318730438080  6.5442268059895801 28.6430566666238704   T   T   T
 13.2346635220592823  2.3968997429318621 22.4269286299520196   T   T   T
 18.9767664903830351 12.9327126822212399 34.4645952284118096   T   T   T
  2.6570918463834503  3.7468801190928365 37.4538010439566662   T   T   T
  5.4712886340763927  6.6966585746937959 27.9020298877626765   T   T   T
 16.0738982375227337  1.3255013777108402 27.5957400922231635   T   T   T
 18.6732523409793529  5.1611111913901473 23.8799942568829451   T   T   T
  9.1996461457342367 -0.6603716458200963 26.8183922400443002   T   T   T
 13.3995094628408644 10.4167578669755514 37.9617386113002837   T   T   T
 24.7903490723163742  3.4341974194265519 40.0109048575803570   T   T   T
 16.9591636822346956 12.6356374705105026 28.7721281586584752   T   T   T
 15.0256385074571295 11.1884240582072181 19.3417523895787333   T   T   T
  8.3873056728635582 12.0804070980878286 22.8321850972284146   T   T   T
 10.4309836273169285  5.5222391910350384 34.6220161433349887   T   T   T
 22.6899337114310029 -0.2015960269638387 37.4355933929702118   T   T   T
  2.6110960466468383  7.0325334244590163 32.0475446230326781   T   T   T
 17.3834331612865256 14.0678319957259887 32.0158628631560589   T   T   T
 22.1549092781247623  5.6684944152563306 22.3781133388527316   T   T   T
  7.1063333273258635 16.1083586998471588 25.4058717308809285   T   T   T
 17.2610219651574965  5.1248205404482441 28.6390896432954882   T   T   T
  2.4716528831145528 15.0375879489420079 32.1329127879037912   T   T   T
  6.0263582618914349  7.3390255016963319 30.7329665563572938   T   T   T
 18.9263560019648267  0.5598653954636721 29.8482353402012848   T   T   T
 24.7737810129084508  6.8009324409069665 20.3199395951119897   T   T   T
  8.1183895513764224 17.5578020828455976 28.8093860314310852   T   T   T
  9.1286772844673063  3.8768611900658776 37.5705768870375536   T   T   T
 -0.7474119724305845  3.1399135432906879 36.5707834911463578   T   T   T
  3.6191549145157147  4.5566041707131504 30.2497946770687491   T   T   T
 15.3620466331010288  1.9209115657739417 30.7392426449087104   T   T   T
 19.9066859412874422  8.4026157073443564 22.4705174792753475   T   T   T
  7.2548778718015496 -2.2145781728183782 25.1007807099285358   T   T   T
 14.2826138609904394  8.6725253811404883 33.9462504350289223   T   T   T
  3.9127595161803774  9.1878355846608919 29.9490811447589209   T   T   T
  2.6060887079956001  4.5733705692149549 26.4312605337224191   T   T   T
 14.6869888703450897 12.9814671108784019 30.0491120921940258   T   T   T
 20.4422398070965272  6.0796540640087748 26.1681521709197327   T   T   T
 12.4570821164362826  9.2474546485720097 24.0070779849967941   T   T   T
 13.9085321942772868  5.1288246332895939 34.3746514083197283   T   T   T
 21.8192531744608473 15.2432743868391114 34.2849790567989601   T   T   T
  1.2226928350827859  0.1215793904714744 -0.0506583903933175   T   T   T
 13.6157715055487802  6.6199731838314113 -0.1900299368997853   T   T   T
 16.8987855016777431  0.1856247714710770  5.7767776973270450   T   T   T
  4.6509357641390983  7.5295949931252188  5.8471369334666816   T   T   T
  8.6602437835594994  0.3619317959198904 11.5364187813578987   T   T   T
 21.2730677385923670  7.5585502765706174 11.2140525064477412   T   T   T
 23.3332945780621159 11.0615655638103689  5.6639066885916067   T   T   T
 10.9097714740072931  4.0352497813891253  5.7150159836124956   T   T   T
 15.1332034525049739 11.2064572440369865 11.6335708303121130   T   T   T
  2.2075511379275228  3.8691362066441379 11.6405679396248658   T   T   T
  6.6783709788166936  9.9838478268939106  0.4023508639727003   T   T   T
 18.0286102411218963  3.9409916050641618  0.2367782705338405   T   T   T
  4.5704223622249360  0.1593611753300813  5.9215888562076113   T   T   T
 17.2789407250614886  7.3499564211100630  5.8303286251563078   T   T   T
 21.2142126101473991  0.3037253362666640 11.7831357118178683   T   T   T
  8.3467465496139326  7.5878499905580776 11.7887315027726771   T   T   T
 11.9931874758005073  0.4890382655610709  0.6098745721496415   T   T   T
  2.2656083905685467  7.1338880631823871  1.2391953984542960   T   T   T
 23.4735932777042748  4.1139693934578423  5.6351264158520555   T   T   T
 10.8649295716042307 11.3890181542262638  5.4173999162182431   T   T   T
 14.8177393574832141  3.8270903288525808 11.7663071549521856   T   T   T
  2.2625313990380302 11.0499273302870193 11.8775135708885013   T   T   T
  5.1914435545407480  8.2574872891984050  0.2895622119336365   T   T   T
 19.6933819571678441 10.3053454763994807 -0.0188457194482826   T   T   T
  7.2886477629014950  3.6325463843380565 18.2974159749890433   T   T   T
 21.0201409143260562  0.2906792788636846 18.7673013589772673   T   T   T
 24.8297010917002154  7.0223063013968545 31.2848700146336220   T   T   T
 12.3248583017628377 14.2928783156743755 31.4824082800498743   T   T   T
 16.6485858854073925  7.2181467180098746 25.1461816372763813   T   T   T
  4.2408818847585126 14.1721189084986605 25.6983294874512893   T   T   T
  5.7677065301294030 10.8265885995127640 31.5228187904545543   T   T   T
 18.8437087823251446  3.5434161906220480 31.1574645240618935   T   T   T
 23.2096156419171891 10.5939450268588153 25.5756086128258957   T   T   T
 10.1016795577059746  3.3297728673432681 25.5576010452725697   T   T   T
 18.0734678926193055 10.2799787653038912 19.7915741267206649   T   T   T
  1.5496321350667515  3.9611072906385107 17.9036795021628450   T   T   T
 12.3920565731553936  6.9497358005206298 31.3105977157035404   T   T   T
 24.8432802021701207 14.5651084613457762 31.3568335655991532   T   T   T
  4.0965294046930696  7.0970528549267575 25.7385262204813650   T   T   T
 16.5706580792950575 -0.0811902754615979 25.2476924239827483   T   T   T
 21.3968128062533012  7.0860029345578015 17.7054894741786164   T   T   T
  9.7837173816343572 -5.0993244538357354 18.8183558534286597   T   T   T
  6.0638769154836716  3.5945784853327143 31.8591108443623270   T   T   T
 18.5241718643588058 10.7281705688483981 31.0733483121121239   T   T   T
 22.7697630809798497  3.5094852971072030 25.2731130436827698   T   T   T
 10.1606817401082008 10.6007305799464753 25.7648382888689795   T   T   T
 12.7033294094854980  3.4334445399175362 18.4117280556059129   T   T   T
  1.4321564247043121 10.8021494163628233 18.5410390775869551   T   T   T
  4.5833072861137163  0.0474622065438529  7.9644059700107572   T   T   T
 17.0687077320070060  7.5433823727077129  7.8979023312514389   T   T   T
 21.1372213488952241  0.4690977166372338 13.8188560715275734   T   T   T
  8.4116591900592930  7.6290461057408914 13.8503628280191897   T   T   T
 11.1259758172468537  2.4003772674706574  0.8062467709519054   T   T   T
  0.5514087252246856  7.6870526351963582  1.9508487250799924   T   T   T
 22.1355285394118155  2.0088518149306163 11.0187899221278744   T   T   T
  9.4176573272121438  9.1911387514949290 11.0750092862161509   T   T   T
 12.4430414419890205 -2.1750852452143743 19.6040169245790210   T   T   T
 -0.4401155206841121 10.4392548857020380 17.6980770315293370   T   T   T
  5.4675658936244824  1.8700808513654956  5.1294133953058791   T   T   T
 18.0832873032951227  9.0321644234163578  5.1786426605906444   T   T   T
 23.2535072978876016  7.6313398376813071 10.6382758146857164   T   T   T
  9.5108641898552246 13.1520854963012290 10.7679512528106951   T   T   T
 17.0431299520622304  9.4013348452463710 16.3460934016048149   T   T   T
  3.2493272679364353 10.9770595736489085 17.5956481249320831   T   T   T
  5.8239139290598212  5.8754710167021953  5.2206661703584647   T   T   T
 17.8734054096282406 13.2799313994159967  4.6922761923375687   T   T   T
  6.7216914746371748  0.6129191411577199 10.8424530360517011   T   T   T
 20.5552554119606157  5.7988029851753646 10.4189280271730702   T   T   T
 22.0858861061488199 -0.0966436837814866 17.0936388552024212   T   T   T
 13.6921388250963858 10.1948808608140133 17.5864374659315992   T   T   T
 15.0202876832986618  0.1155138602146061  4.7393508353666354   T   T   T
  2.8337514986126124  7.1061058480716275  5.0385696921778997   T   T   T
  2.4694739857648380  3.8071322464869559  7.2496111925765421   T   T   T
 15.1272109654515639 11.2415325112124798  7.4227930322121303   T   T   T
 19.0351207146363066  3.7372490312866291 13.2979151194562633   T   T   T
  6.3449922260106808 11.3846635410111396 13.7948199046015887   T   T   T
  7.2960556864125063  2.7113114427753682  1.5202741086125280   T   T   T
 23.9531087568287191 11.7466923323495003  1.2992700278336886   T   T   T
 23.4213044066595160  4.0341313990274594  7.7587500462908254   T   T   T
 10.8248884809068535 11.2953861644098197  7.4866481841035188   T   T   T
 14.8609627488489995  3.7575465353468340 13.7532291602106245   T   T   T
  2.0373995974801584 11.2034787642003764 13.9242144856403005   T   T   T
  5.8919377054311814  6.6662378505375219  1.5147522522054333   T   T   T
 18.9317377904130595 11.2433020664971295  1.8077117426181479   T   T   T
  3.3185111016325672 12.5616263925171872 11.1291152995935505   T   T   T
 15.9220105614656386  5.4548515127552948 10.9461511617261902   T   T   T
 18.7512550974062648 17.0561795644235872 17.3214799874875496   T   T   T
  9.7409495994796167  0.5796153966636063 16.7393779475240834   T   T   T
 11.6882476350450926 13.1271614799388487  4.8558672940506860   T   T   T
 24.3928836672247371  5.7825380319414315  4.7084216471337053   T   T   T
  3.3214155737639128  2.2907089626744925 10.8533201007330433   T   T   T
 16.3972415408622183  9.8153707993055512 10.8963088384117253   T   T   T
 16.2801404575869029  5.7553994715101036 17.1466480505501657   T   T   T
  6.5681166540705727  5.6123490178406366 18.8001145776604375   T   T   T
 11.6516865849537563  2.1210994038768480  4.8919564506192312   T   T   T
 24.5285275999593892  9.4353358922088226  5.1181486779799039   T   T   T
  0.2473837450056272  3.7899773923400626 11.1232989307237613   T   T   T
 13.2882243275911165 10.6770199832940591 10.9480312370194888   T   T   T
 14.7139905897269152  6.2250024240356137 18.3767734606362190   T   T   T
  6.3456986030086693 14.4001279022421649 20.6024834264056516   T   T   T
  9.0186544686371253  4.2686382709702784  5.1429780793014155   T   T   T
 21.4073871796261699 11.3873033987291556  4.7042579956590167   T   T   T
  0.3860901007225175  0.5761924412576389 13.6507579808981987   T   T   T
 13.4295857477816103  7.6283179422170821 14.2805354342243440   T   T   T
 17.7660085817373528  0.4149073485714831  1.2687917492759015   T   T   T
  3.4003829040682652  9.0613853374737339  1.2393430297648378   T   T   T
  8.6719065746798236  0.5647488296172982  7.3251958990121606   T   T   T
 21.4970263394872561  7.6325488880456849  7.0881549137485651   T   T   T
 26.1795493906709851  1.0969663124554871  1.7840878776196718   T   T   T
 13.3919327800646482  8.0150357636302729  1.3325178368600890   T   T   T
 16.8272609388126995 -0.0492518409693382  7.9345725575247545   T   T   T
  4.8918715495377887  7.7745837712743047  7.8737453727353905   T   T   T
  8.7206148654466382  0.1516132559799653 13.5538020026865365   T   T   T
 21.3346827313166685  7.6321811926593135 13.1893522818060340   T   T   T
 20.4654250073159716  9.3262447286998444 10.4623535812274930   T   T   T
  9.7793658023956613  2.0437638216073641 11.1571841991966298   T   T   T
 11.2749659524208798  6.7705882422433099 17.5788880197430437   T   T   T
  2.4521544707371401  1.3425723857688241 20.1479710966691066   T   T   T
  5.4729105521917365  9.1648581188746441  4.7710391709770690   T   T   T
 17.8869881455911113  1.9687430598503948  5.5269662787934095   T   T   T