Li P  S  Cl
 1.0000000000000000
    25.1819793006824639    0.0000000000000000    0.0000000000000015
    -0.0000000000000009   14.5388225279766061    0.0000000000000009
     0.0000000000000000    0.0000000000000000   37.2126966544236950
 Li  P   S   Cl 
 287  48 240  48
Cartesian
  0.3023781234474138  1.7793247188472325  6.7651110235616363
 13.6819975451773406  8.8669713220703681  6.8879179626880429
 18.2417488801401895  1.5860926688369830 12.9641133280680911
  5.5454572413320893  8.6242308244401880 12.2546104585325377
  8.9263189558388305  2.9775394464086902  1.6529924986940043
 20.0238745080040736  8.5602806312397082  0.5480975486122461
  0.8932395238887200  4.1004596724539866  9.1096315679389459
 12.7191694922780609 11.0460415386818180  9.5957124629687005
 17.0947871675544114  2.1657165852272242 15.1694567963600093
  3.9036278487214990  9.1128386500088929 14.4263286839331961
  9.6542557895175918  4.8270076311858752  3.4263930097244906
 20.9434747918644319 10.7046364311352971  2.5611900523993509
  3.8643391065366859  4.7345438174396914  9.0121716280199848
 15.6667862925912296 12.3918224733331659  9.7049422942807073
 19.0592174315598335  5.9894032709613452 15.2461939194305636
  5.7994814622604176 10.9690624748403742 16.0940249853896731
 12.7540016364154418  4.2652803168023468  3.5068973401853687
 23.8539557817834478 10.6499258415717133  3.3935047889667338
  4.1862169057081857  3.4325866608555242  5.7902939980514896
 16.4584240177722236 11.1932628146119377  6.9595316882323957
 20.5409499093925980  3.4532126884945349 12.0823737854077677
  8.3265246188852515 10.3140582970736396 13.1904481481552622
 14.8016071045836668  5.6953404149847877  1.6687958409255828
 26.0676005263638260  9.1215174723319556  0.9235036560536307
  3.3542408697035739  1.6693846635398975  8.7323355952672070
 15.7448202751468269  9.2361201558005614  9.5287020815911063
 21.2567595709143333  2.7133158386008116 15.0115325451030674
  6.6882758689926822  7.6666886151968763 15.1660132032427519
 11.3287752299331199  1.3925935731657351  2.3311278931888935
 23.6688504972617189  8.0928214141043853  2.7424509736911018
  1.2267285216721571  4.9010201781963980  5.9594397126610303
 13.3416286673337847 12.6079222897698155  7.4696155882533679
 17.0081319949850354  4.6566499956874390 12.9288302759783686
  5.4677323244071836 12.6353269786839970 13.0500269076218451
 11.4256291052048979  6.1775677288968014  1.2795843167032668
 21.1131744756824844 13.3652123255898907  0.1404990257647794
 24.5439163381012371 12.2193887833041650 12.7264411365138077
 10.5697337941508440  5.1810497524140766 14.0053718226187822
 14.8512241973569861 13.7471402527917750  0.5934304833681682
  5.2152318109939069  4.8025801801306773  2.5267869558001550
  7.4705112296456688 12.4718650975888607  6.0283293689312289
 19.9009931274756546  5.2021225701725893  6.8926587720072847
 23.5170730912390518 -1.3116524709629280 15.0993193255641867
 12.0390524533513279  6.4881216521303386 16.8511287279451523
 14.6305876059291222  0.1138310542948693  3.8178389389149885
  2.3384078900221024  6.0767211809905701  3.2978272206226080
  6.4923929152822719 -1.4004759493303081  8.8302571300327717
 19.1094161122092103  8.0762418532386615  9.3687593394932840
  0.5782936343251875  1.6537364402234613 14.6162756088536323
 13.9225466689585033  8.4638962928726684 14.1235936407722242
 17.7341717003506751  0.5914871112508602  4.0428890905953372
  4.7327806226077556  9.3718580521080579  3.0720127180895065
  9.0171750854376036  0.9564733722953814  9.0773133171398896
 22.8436543237226921  7.6580358739016718  9.3928591022240582
  2.6397613001138165 -0.6409208666877648 12.8476499616689637
 13.9440484477842226  5.0326325366658695 14.8743739112626550
 18.7429272641211959 -1.9791633662541828  2.2523547612891783
  7.4580644609180053  5.7926170560050183  1.4153050313294020
 10.4312753950784138  0.0045275190421766  6.8197513659956703
 23.3529273728209184  6.7102485602382469  6.7965372696264552
  1.8902098806873404 13.1692807842931572 15.6699977385726168
 15.7633870985272164  7.0548740217554453 17.1334462977370414
 16.4572230872487140 11.7129161911355517  3.5471115300155045
  7.0422794993719702  6.7652152882023451  3.4372644761692168
  9.6619067682383211 12.4097925878449118  9.1159596766072912
 20.5225935345861785  5.5454335304493902  9.7173144425056694
 24.6391708366421440  1.2166403912559336 12.4335366058640133
 10.0865672040557737  7.9785154249239660 14.0853966185077013
 16.9170854376872200  1.8537756514313113  1.9448405074825084
  3.8444884754022679  8.3058804018787491  0.8450809662641797
  6.7583675714586500  1.0575298267045559  6.9495493657723708
 20.3490132317388230  9.0935830476914354  6.7466711048495300
  0.6223540193661770  8.7904116268635022  6.6604280635181370
 13.4303083400257286  1.9223524062702879  6.8098524642135798
 17.8713266583543415  9.0861037095576691 13.3581967163497151
  6.1540423941217393  1.8164335070944599 11.5792462752067866
 13.2074578093000063  9.6984557057811411 -1.5631251304393201
 19.4032416127609366  1.0775006308363595  1.0895193811811792
  0.1516238154446413 11.2282857182017555  8.5429962643862751
 12.8967572004872064  3.3679031308759080 10.0760186857121425
 18.7128587477770907 10.5200984845788597 19.0712343381564473
  4.1511056144664096  1.8307102081510973 14.0091143634130617
  9.0477350662965588  9.7700417726431734  2.6049431441565507
 21.4687948440523542  1.3706831857829034  3.6365984615459750
  3.9682559555182979 11.8698294780642541  8.9010121799467559
 19.3591668404852406 13.3368757965392284 14.6613546133434873
  4.8513993018595842  7.1147127100633956 17.5313854934712232
 12.1384511822766274 11.3809620134927787  3.9785822964516924
 23.4957560216184227  5.0904353725358114  2.2813256965401307
  4.3404394730852749 10.7130098557829960  6.4441326110520842
 16.6857347897723471  4.5468971011731130  8.0071520710259829
 20.9626650300023307 11.0870794892672961 12.6852690047657291
  8.0573403132516894  1.9258569485737385 13.2214600298634650
 13.0870016176225441 11.6246345664853195  1.7955526116734266
 28.2051380447523421  2.3998379608607978  0.5859258396667153
  3.1586254086173282  8.8172361759260571  8.8518984293120422
 16.1439766880629527  1.8467277444507741  9.2820463090751630
 20.3387373730511030  9.7264494167984346 15.1411806904162454
  7.3385827887673782  3.8171756627086713 15.0862764340127082
 11.6996689401438232  8.7108140926098976  3.2643265641218493
 24.2527663357120709  1.6374129287850074  2.1652276839524514
  1.3184870139690790 12.7676244247680408  6.7049224076334113
 13.7124383996269295  5.7063991133649408  8.1927931319976786
 17.3453409803623515 12.2479062456084087 13.2213421181897584
  5.3830297341808873  5.3135673483206869 13.7006720009320500
 10.7284757690493517 12.9157081423881213  2.2454391645171361
 20.5489063353284394  3.8866938026156266  2.9321006344572367
 19.9183579817754648 12.6186719157881608  6.5379144228007746
  6.9496324513359902  5.2196555082378326  6.8492106876501859
 11.1814633442548441 11.7186516205330360 13.2064215754618814
 24.0288207869894137  4.9434348435202891 12.6812635341963063
  2.8300838953484515 11.2010576301350842  0.6317287789596089
 16.7544852675615665  4.4332284968514486  3.8929122359547388
 19.4716792803416432 -0.7332232722300841  9.1481396241995121
  7.0023238652633877  7.9440575115130887  9.3230010250162607
  9.9278559457815092 -1.1437525775731399 15.2342946644990054
 23.1199351888204490  6.4702892586524294 14.9559425783321096
  2.4539399467521865 -0.1692090887269713  2.2145238428117686
 15.3610480231936499  7.5004296226910574  3.7974023685869773
 22.8966633619200870  0.9755738657787822  9.0606284233926520
 10.0875228708366080  7.3642051286988774  9.7903619743883450
 12.1934251475855557  1.3186932363549511 14.6630461652953112
  0.0668940314957607  9.1363094668983766 14.6981699580027563
  7.9273698988329651  1.9986004940629185  4.2307655647446749
 16.9128625038476805  9.1523208194227870  1.8192746220172904
 23.1870345935283844 -0.5001505947817181  6.4567188684898715
 10.6712325191564315  7.1180729611063924  6.8590615083999449
 14.7161553587866916 -0.6200557133906756 14.3171352233231062
  1.0898103729702882  6.8928683559966197 11.6855847923692355
  7.4364514547071607  1.4053115533885416  0.6466076559900205
 18.7597373958376039  5.6328336879484757  1.2627615037472646
 21.6487474706233805 11.6559075264296155  9.2269087129009719
  8.6545995500983679  4.6754697727471752  8.7621811292121947
 12.8360290549131459 11.7102988875204215 16.1441720913423943
  1.6210260909544369  6.1226704845446385 14.4906930177588062
  5.2510386611593232 12.5284551511486537  2.6686340111234692
 18.2829852910989032  8.0940850310421180  3.7494807572064945
 19.8528424266031287  1.9657277441411312  7.7559730441644037
  7.9389171938391394  8.9682233871921806  6.8508389541075738
 12.6524118873526419 -0.4294101278464695 12.1648208758182488
 23.9305743435891110  9.4035554302785780 12.3657912215403272
  5.7535398278597887  2.2032887151719591  2.2823712624646419
 13.7789105160108658  8.2044396436917442  1.3016527336578330
  9.8090323662665551 12.5823946597387675 31.1727217350629147
 22.6698826335322678  6.0594090539112511 29.6725031214479742
  0.7410565348841481 14.1955164147109461 24.0383287569582542
 12.9548637438265981  5.3168007598344635 23.8152793098631541
 17.6914675464328290 12.7395356880009576 36.7609252805086157
  5.0336314916228551  5.3356343197911169 37.0133142477556163
  8.3629625432594139 11.9560764116651956 29.1356779751704025
 21.5268239132120058  4.1085290724345889 27.9051475997270799
  0.1607097877719265 10.2886212172386191 22.8840394123795363
 12.4550076874494398  3.3613620577231997 21.5209060492383770
 16.4974818328442865 11.1454901660077628 33.6929234226198560
  4.3615079040952773  3.7682563710068919 34.2020961768749103
  9.6868678111455075  9.5764888511114421 27.7058004292536495
 23.0936829147907758  1.5735878402720529 27.7769932380205269
  4.1585198823056926 11.2419041955199717 20.7650022456000372
 16.9064473997660194  3.2514400431842656 21.8598787269607193
 19.6711734976939283  9.5998821192930581 33.9420557580419739
  7.7152783389609043  1.9098469951411492 34.0452278221617419
 12.8538374552402512 11.4094537868913442 29.2864542214410690
 25.3676976355790558  3.2518174069198156 30.3905744964186368
  4.7308687018894950 11.3473154004302117 24.4622157387259769
 16.8746571999761201  4.1738610171550228 24.6207763466824225
 20.6752041171031742 10.6463037972389412 36.1844438478010346
  8.5773111245657212  4.9894660265760580 35.7240459694517085
 10.6696671862718038 13.4139095558319816 28.0173729029328911
 24.7935945823427453  4.5550353409512798 27.8446358232726396
  0.6482539506205007 13.2269785708552128 19.8302783482331826
 14.9559383603144855  6.9580709397597484 22.3112819525802131
 19.9759220364117951 13.3756894050401769 34.3235703522790416
  6.9116230816974129  6.1519458060469558 33.9865322503499030
  9.5836328660491219  9.0267326604053473 30.1759713786622008
 22.1954812719424233  1.8236614340360702 30.6346565435264182
  2.7016033471861927  7.5759684940066583 20.5418303633529078
 14.5972919282566114  0.7767284875840907 23.8037601008747117
 17.7001901013928737  9.4328517152631211 35.8388377080430089
  5.8277600365378488  1.2456070600148406 35.8155064987638667
  8.0286207942600392  2.2526186654402491 23.5384725291227532
 20.1632277843723671  8.7936466206820896 25.1941628413595282
 22.9222059209436111  1.5286607065906117 37.0691407530628894
 14.4080128937567249  8.8942800010135379 33.6835007827958748
 15.4575937304007081  2.4843891843620032 30.0514424987227677
  3.0621484147553075  9.1506377453294654 30.8597900033836012
  6.4265000002376746 -0.7701849598892786 21.6795305266263156
 20.0184878771453114  6.2847306844450674 21.7064045139222834
 23.7854017898507273 -1.1886283793069663 34.3410520813791678
 10.0736603698600291  7.5705897848930777 34.5699323180755727
 14.5578994001030093  0.6035146060282721 27.8363657127119417
  2.3694954811341842  8.9147374253270186 28.0182728029073189
  8.4237203676032930 12.1170706068943410 22.8873091721564066
 22.9217170905818044  6.3451630084491919 22.4929824246130607
  2.0142263658905013 12.3926148756860250 34.6310956089424664
 12.0211081526584049  5.8456746772973478 33.0479079813062171
 17.1278410368325709 13.1230761079604061 27.8086845915529182
  3.7326417522155610  6.2701625333612991 27.4922318884816939
 10.7196869069464515  0.1201121187373950 23.7501155519281966
 23.3881942152394764  8.1331459403057504 24.6589709115382085
  1.4540309815501424  2.1833976197087090 34.2396647371881713
 14.2463740721650929  6.2801250652528644 35.3008314642732159
 18.6654904561004003  0.3489261006969245 30.5699451702575544
  6.4102349210530356  7.9008098188387565 30.4976090486624045
  9.3578782220903420  0.4332105764735049 20.7279208094325256
 21.3594005540049210 10.0555982940694744 22.5760936163792856
  1.5080584245075657  5.6574783031361644 33.8797344895627575
 11.8495422683571352 10.6362844725935819 33.1815795441142782
 17.9407487098294744  2.0034737382777088 28.1234752991920622
  5.8980524155485643  8.8548248309964315 27.8830093091328770
  8.7227125373977827 13.5710019190823097 25.4926315810504001
 20.5544553666077761  5.7112747940574478 24.8278834817919751
 23.9960987170463902 11.3528031515359622 37.1375050505264852
 12.6774318904459342  4.6502587670898752 36.8222749720437861
 15.4989877118357597 13.4664014543060979 30.6744596629649457
  3.3880830606733419  5.4684160392621992 30.2116104682111022
  9.1328771433604743  5.6250335289995483 30.3254033001611809
 22.1582763426478877 13.2930613485194833 30.7004387890759567
  1.2485957964227905  5.5148406825635803 23.8408135408630173
 13.3125489690523970 12.8357433701931019 24.3197277259799947
 16.4754633054944577  3.9026166713332779 36.5148437396181009
  5.9735012031153598 13.3216851433344559 37.3374940333168084
  8.3692648926717848  3.5903862980247352 27.8310021058409482
 21.4584532503907717 12.1048936187522980 28.0362227043848939
  0.1923164091867489  2.5958757943080299 22.5945582855056131
 12.7842575976512443  9.7945192119677067 22.5881506104855134
 16.5051529228321208  3.9518632807943352 33.6830169353794062
  5.2138747903377487 12.1674592668809165 34.5068678264590005
 12.2572291840575858  3.2322202341241817 27.6038386940163925
 22.7921349138910045  9.8014927621943038 27.6259025568693453
  4.2115720439850541  2.2065650952142351 23.7252551120022623
 16.0631563680491780  9.8668115419460101 21.8214952860945708
 20.1464838094466927  3.7068499523387421 33.7217305997671488
  7.7225686273925511  9.6165089457443873 34.6295105508538299
 12.7161969492947389  3.7797166006618461 30.2082392284941434
 25.2310029969012852 11.5574577908182867 30.3453156568175899
  4.0544207983490272  5.3314004784234497 22.8756127404657299
 16.9669604399934322 11.7135010068515140 24.1132873880286702
 20.6220054146243363  3.1732275683837585 36.9904836105416734
 10.4723603709594055  8.7251591730507911 37.1136688922330436
 10.8983979286497803  5.7551999928537416 28.0276730325050920
 25.3191755802704144 12.4473650780303604 27.4936759819932171
  2.1166461927383255  4.0434827489889358 20.4015386817219024
 14.2237699660878967 12.3621015499768419 21.3800371436540821
 19.8923950018553022  6.3572297104423487 34.9593852410832184
  8.3738130557283377 12.3132938231800217 35.6812778076613597
  9.3995719334257526  2.1134928061690954 30.4406591696844302
 22.0185739050292248  9.6751181413709784 30.5659675426370860
  2.7542831787890232  2.5568790182177819 26.4969606713189307
 13.9580687133701353  9.7519247138141569 25.1934087637231841
 18.5292644815408245  2.0347102886813717 35.9079005225470809
  6.3017129306271631  8.5902574635324864 36.9223065446033161
  4.1408438294174399  2.4464402852894924 29.4631732688268961
 15.6474772426561994  9.3502104984950076 30.3183111889862005
 19.4251210321347472  2.0425675658283513 24.4621933171858039
  6.8700783794437958  8.7065768798157404 24.1924195483501379
 10.3769945919143201  0.4998568362548918 36.3554925342681656
 22.4653002903834782  7.6974000933576052 37.2132084496017796
  2.1592970923115313 -0.2664654846303615 29.0675981066779343
 16.2069679959388111  8.5332757410226261 27.6221870205233913
 18.9749709552042525 -0.3890634817761048 21.6297353276635640
  7.8851052593374140  5.0829640760543766 21.3677627103301475
 10.6289530099237304 -0.1385250310745266 33.7335465088326814
 22.7592097482554827  7.6923283849489552 34.2768371470581030
  4.4699503705495394 12.5403687897353162 28.7261948873368986
 18.4558550318890084  6.2935232986985064 27.9686374673024396
 22.9515987819661120 13.9561652725218064 21.9904272463066413
 10.4721789609906981  6.2103534655237373 22.5230420765462540
 14.5118938913968805 13.8312506148702994 34.1565109364237856
 -1.7317970793632200  5.3376873584353053 33.0672843395592508
  6.4924291343088667  0.2015685207029645 30.8424085490998543
 17.9172464427793798  6.9622774061363710 31.3683210266598245
 22.5550604776820194  1.0098950723335269 24.3987067914978155
 10.0444033187546875  8.5160291086953457 24.3132516796972240
 13.9860782502265693  1.6039071825691795 36.6060045958416964
  1.8600041053943728  5.7784785447874638 36.4541328657571881
  5.9030378744470768  0.2463948930025423 27.8498174075501304
 19.2852543866482229  9.1470369211642204 29.2196229329539712
 20.7206565775394722  3.0391281775612757 21.6242619866509003
  8.4828227349625678  8.2751700443096148 20.5021882941003106
 12.9298863880482902  2.5394294176410317 34.0274922793656529
  0.8405167163184478  8.7389576700556564 34.7420474015967642
  3.3407567307482089 13.6097339641976305 32.0911577517809334
 15.7250899649940976  5.7052784745613527 29.7424362925760377
 20.3898877219573116 12.8732320716198867 23.7940726012326564
  6.9929914004037093  5.7731115533233597 24.7795368554684394
 12.7069050368873278 13.0365787463758398 35.8327093544503938
 23.7124532458155954  5.2450163406250541 36.2802210622759134
  0.6455134203662826  0.8596367204084403  0.1742218241073323
 12.5442349431540894  7.4147305564707295 -0.4712299810153591
 16.6444961192742333 -0.1892204981505678  6.6658336059379160
  4.3379507740053160  7.0738298896406526  6.1386010948697516
  8.0512719880357757 -0.6601086805811576 11.9427931403229426
 21.0189901052019721  7.4651194838496755 12.2137596289545627
 23.2572896601628010 10.6690626483319644  5.9723756020526269
 10.6193672228784664  3.4009556725121044  6.3518074762638106
 14.6902845047689823 11.0296241819835874 12.5021293965771836
  2.0269476000120532  3.3656497658852973 11.8581073272259552
  5.4523560909599338 11.0400167574309815  0.6359218300912706
 18.3370693330885111  3.3772850271745769  0.9887133266672918
  4.4657722814813789 -0.2019016953170983  5.4881816368647955
 16.7890294997876666  7.2440222241214700  6.4694789131125585
 21.3922990913424407 -0.0504451471844462 12.1307231148244945
  8.0322791758638132  6.4223383481107899 11.9844426670352142
 12.4765777009515695 -0.2942434101728774  0.5955436569503021
 -0.0987014804253153  6.7016614646644665  0.4342144723021815
 23.2438780159972929  3.1276254866075353  5.9452064269914962
 10.4005387808632754 10.6425399684830602  6.4321088557030039
 14.5907310882336141  2.6140896854320670 12.8343915213799438
  2.0978492008380667 10.4356862518878319 11.9350378697835069
  6.9341160972171814  3.6548020580979386  0.1757017092499095
 18.5577286434528475 10.6396548270855824  0.6382437457302387
  9.2272660418455139 -1.8077399054814354 18.4372604102838515
 21.1074250972480009  5.7845469215074621 18.6270595514234856
 25.0649836815158089  0.0514589719496174 31.5848185820627663
 12.5561549488125124  7.4220289639098880 30.6538421291985657
 16.8456580529203173 -0.0239067709015644 25.1238182656537035
  3.8330793913280141  7.6330382923315110 25.0439854199544030
  6.2558096525287503  4.1031705108226753 30.8213194292226973
 18.8038963395605023 11.5410286068167771 30.8084036320959669
 23.2318055305231788  3.7183093487532801 25.2523720771622777
 10.5169924117832210 11.0839738910652876 25.1978577424805472
 14.5078378274637458  3.5037961760076892 19.3866113366191470
  1.1508113978233327 10.0672308205975263 18.0329671721083145
 12.7162117674402797  0.0677179122025614 31.0243163970698852
 25.0099474688200480  7.3197266384697262 31.0697483262314975
  3.6398920805379427 -0.2037057382048678 25.6401530802908155
 17.0774901258533376  7.7152084391217484 24.8965590222417745
 21.1600417450345937 -0.1232203651659062 18.1278644504476851
  7.8831013111324308  6.2780190165082734 18.3651830605359478
  6.4554176923911566 11.0227240747771926 31.3363370331167879
 19.0074555892580186  3.9405609432008735 30.8819203347213076
 23.3063476511156686 11.4873215455512945 24.9123369461033590
 10.4219348789563195  3.5660578276891322 25.0408163593480424
 14.2091639666551099  9.9409072126275078 18.7847015155568791
  2.9007227820815551  3.5693590434971436 17.2534521346762695
  4.4956002755405180 -0.2084876336272131  7.6289826111116961
 16.8786170479141724  7.2955810280093818  8.5222784976684611
 21.5631725494334354  0.1838791136089795 14.1503924961587551
  8.2008549948818583  6.3291362403255587 14.0032959258729637
 12.8461394354422147 -0.9903620701647515  2.8645103906236349
  0.1988189355507371  6.8224320139215893  2.5573988177391138
 22.3470555030031122  1.7166803219232731 11.2746990065560393
  8.8381472629303683  8.3095594137767801 11.4443047517125951
 11.5974126092018750  1.4118019564042656 18.3726428871593939
  0.3156508131537782  8.5497999861249365 16.9796645546800526
  5.5724090839611353  1.4286526145752008  4.9228622830304252
 17.5132489635689161  8.9749808322834479  5.6383559554583611
 22.1525069938562957  5.9406526167287428 11.6270611122642382
  9.0947573939168080 12.2615458480756541 11.5496475802406611
 14.0892642293442307  5.1043127311635743 18.1522107246202395
  0.3315736424435007 11.9575008574123220 17.9778794600412262
  5.1953993093263682  5.3941362991986956  5.2524133442169259
 17.6832990722246954 12.8470535528913832  5.4957998676908710
  6.1913671533316634 -0.7098295635940619 11.0930026294003099
 19.0191809142149140  7.4772346580365419 11.7322403910508157
 23.1837535963823278 -0.5263902322164261 17.4633898416744806
 10.6017383807322432  6.6426864798799388 20.0839491745780521
 14.6171793394852170 -0.3458737284951355  6.0772274496126499
  2.3426255095906163  6.9703366170119851  5.6921642171222260
  2.4274706232748056  3.5967924381140683  7.4003473897806664
 14.6170585387084646 10.7952896298497052  8.2923564569267416
 18.8253133202316789  3.6070681753469027 14.0517819435507683
  6.3273801158797793  9.7425422673321904 14.1548751311586862
 11.1575750625128300  3.8565848864281920  1.7591801160686742
 22.7926597234265351  9.9355627579111871  1.3939741153007121
 23.8532838411674568  3.2360458450881620  7.9247608256584510
 10.1555504429831185 10.1215076349257966  8.2967615885004218
 14.6943705012321999  2.0909859136762772 14.8783165611030697
  1.9024009111827598 10.4945622041431790 13.9018567211752053
  7.2741691104365733  4.0329431087057994  2.9884549248703562
 18.6270871180091255 10.3936740143638797  2.9183983286201176
  3.3939976373468999 11.8512528088169997 11.4640779507513511
 14.5709807436538252  4.7610458899952270 12.5382147946188329
 20.2861893689181265 12.8176793709047363 16.9835945718625538
  6.7471944725635833  5.2226860313095367 17.0849016371988753
 11.4643564961799509 12.4113376236786426  6.0332867501730512
 24.2578457474659430  4.8585754383067608  4.8223413010390468
  3.0090423966311675  1.6508376565096341 11.3084383519930451
 16.1015688786241498  9.8702532664364249 11.6691914200480866
 20.5010891869456131  1.6988531495622452 17.2024172177274295
  6.2412433778436647  9.1268522590316739 17.9276220543711595
 11.3145711633372397  1.8070887815021550  5.4925248653895906
 23.9874950097480379  8.8837901411445710  5.2020997790489583
  0.0832879681839846  3.3253790072755387 11.2985978366698916
 12.7596573355858300 10.3671132425307473 12.0054352029542510
 16.6436058592595231  2.7964368734512659 18.9545848732632329
  3.4556032972057613 11.3013254550764568 16.3910322735464327
  8.6653372935557975  3.7505024824112034  5.8568319298097080
 21.2247812918397898 11.0196042695249190  5.2303271106033344
  0.2474309109940410 -0.2850320243594912 14.0466254755501527
 12.2096662328661161  6.6971856758424586 14.6347240871326107
 16.7936342714445814 -0.6435829374404783  2.1882632895667649
  5.4977325231416323  7.2525844768151737  1.8464476346288903
  8.3426481884745147 -0.6450709239078939  7.6757396280690227
 21.0482288067358638  7.0415950877391520  7.8992326306676039
 25.0708219380801154 -0.6266946161478706  1.4567652695095554
 13.1604923159131939  6.7635720317487777  2.7642577514639433
 16.8919731245800939 -0.4204473155087724  8.8001228971844938
  4.5791972547639377  7.1149728003474317  8.2373765667921344
  7.5583995635645849 -0.5315043067706640 13.8353592505234690
 21.2099030290564734  7.5533063355600749 14.2228444807005676
 21.8262919520627463  9.0225093693998417 11.1313321839469186
  9.0629800895256114  1.0511872303272081 11.3422205996666143
 13.7228942022085665  9.1767279097290562 17.0334144202713702
  2.1796650998760971  1.5153960933456176 17.6499539561243317
  5.4547920454023195  8.9080892125542199  5.4392963865607333
 17.4047711400041933  1.5702121461582312  6.2901168453785727
 22.3734412035679853 12.6520269508466932 11.5094629488163225
  9.1876163091990222  4.8699956893961200 11.1899919553246949
 15.8078852327527581 11.3508456541580180 18.2548063337209463
  1.5141554319130701  5.0652803260500585 18.4158282308183914
  5.2544204846126963 12.5672475285255292  4.9107550331803127
 17.7049317889477464  5.5026421320630812  5.9434795725090419
  2.5187298873205277 -0.0067711970393614  4.9154511634189664
 14.8078152717286748  7.0360616447118653  5.9182066768433401
 19.5013263451743306  0.0436148636475964 11.3973189873101468
  6.1252218178929567  6.5274150293389273 11.3720944292602173
 12.3432888077444343 -0.3886715157360279 18.8992184765147933
 22.4595423012213864  5.2628475775528543 17.2503087931504879
  2.1031274371876454 10.6787772841146467  7.5461903211161356
 14.5657649026446716  3.5691255415764318  8.3457233706277894
 18.9587784629871798 11.0749531620599466 14.1057498593071777
  5.9892026714437074  3.0175633718258497 13.5204654556163266
 11.0671672242281307 10.6393903584104503  1.7455128751742774
 22.3860884888436900  2.9771449146668383  1.6746601188815591
 23.3206792063860497 10.5225299306322757  7.9864191897107562
 10.6679139959070639  3.2520455915853650  8.4623680586928298
 14.7635525515105837 10.9218446461481964 14.6296291580119533
  1.8991455877759746  3.5097470599829816 13.9154965410641385
  6.8875365159520792 11.1477820139350801  2.2505343656632344
 18.4932002181397834  2.7924504665099357  3.3588734429608511
 24.3822035513197264 12.2414926451748194  5.0350270823634853
 11.9369954652654044  4.8534171987329273  5.9981148282542280
 15.1144468945373358 13.0983990297772834 12.0285503068877642
  2.6665773569618900  5.1847352052875397 11.0387842587195752
  9.6155782896101183 11.3409384334314876 17.0269758878977733
 19.1620730300496760  5.0910998696174961 17.6947996346155811
 23.8476192838982683  1.4160968737261705  4.8945705546113549
 11.6470182998516645  9.1828115269230501  5.6324273833441829
 16.3092892425814853  1.8087208751033264 11.8391680665726646
  2.9443528350740116  8.6506738965745313 11.2290614640808837
  6.7129370435326372 -0.4572786411486143 17.1687052964931759
 19.8198473746735289  8.7547286766235786 17.6898145529172588
  0.1537648617008244 10.6347443154665573 11.0216746722866077
 12.7506758775186331  2.0521082926138625 12.0598166143900691
 17.2653216961135598  8.0211106884730565 18.8004836710424144
  5.8733716669320994  1.0734111031786744 18.2381842536467822
  8.6956174943669478 10.5368708057346083  5.2245747284673909
 21.0483634441855614  3.0304944034390320  5.3945003505886548
 21.2414011686792783 -0.2362793337854559  7.7904090378349116
  8.5197320192267210  6.9248669058369368  7.6666314549086962
 12.1469936154217795 -1.0399202866144990 14.3216390455316631
 24.8539739264282069  7.0280232585448026 13.5445884276811785
  4.7876442830393184  0.3844540422526067  1.2508227538814241
 16.8452343205761679  6.7725824794063154  2.1569313942532418
 12.8685924876945563 -0.4912566143615174 28.9644749476405465
 25.2724024530588771  7.5046607798046541 29.0659352668127546
  3.3616786029251449 -0.2918140992019261 23.5897170562391345
 17.3906045429728380  7.8924015403802752 22.9391316151945510
 20.5944800003592832  0.7856405789901565 36.0690721228339299
  8.3184906653447861  7.4092058766714208 35.7198926700548611
  4.5552723152755821 12.7094637957782339 26.3589417663865540
 18.2075844160114215  6.2162770485747698 25.6249939613274726
 22.6139991630934993 12.7408957548108983 19.0689859095514649
  9.9354302849687741  5.6717418581449728 18.5041539537005484
 13.4609102968033465 13.0201868006593173 32.0865976374734316
  0.4588702898773783  5.4545309494734520 31.6356452448632375
  5.0210095935150516  9.2816852027393271 25.4953403043563149
 17.2370659865809515  1.9334262807275369 25.8458458100072797
 20.9570522652971505  7.7875068245055008 19.2120406054798032
  8.7948561304235753  0.0522092707239528 17.4705661572798263
 13.4358007544404998  9.1816224741919648 31.2892947563228603
  1.2352594615221284  1.6851760268890186 31.9830353632720232
 14.9949180164157987 -0.6215978728630688 25.8505424533663302
  2.1522442819818073  7.7645103198417287 26.1759453191961740
  7.7791501972127808 -2.5103110869640619 19.9194979018555429
 17.6787857191683244  5.4131936459725978 18.9948297255700069
 23.2272797685094154  0.3665736105720713 32.2793351525588577
 10.5933355028589098  7.2099648961256619 31.5277359715812189
 10.2702230134319930 11.1004706446013408 29.4874243180412421
 23.1582800087524099  3.4953499364434362 29.4197423011519170
  1.5598641598271559 11.2461055041048823 21.1390365208730806
 14.4829492629367902  3.7318915749112533 22.9848580380156235
 18.5243890113228211 11.4674188432951478 34.9121790405369268
  6.4710740353701510  3.5218111173063078 35.0251192949800014
  6.1635898533405911 10.8549156931266246 29.3856874019070489
 19.1528395424434237  3.9718876590171264 28.7510090750224023