Cl48Li287P48S240 E=-2515.724372 eV
 1.0000000000000000
    25.1819793006824639    0.0000000000000000    0.0000000000000015
    -0.0000000000000009   14.5388225279766061    0.0000000000000009
     0.0000000000000000    0.0000000000000000   37.2126966544236950
 Li  P   S   Cl 
 287  48 240  48
Cartesian
  0.9978714832953736  1.6579463540013588  7.1429178498407522
 13.5418343602632358  8.9886472082564683  6.9087890605930600
 17.9900990844657720  1.7630569301536405 12.9201509031971931
  5.4310420283238461  9.0288648790573198 13.0453510742692913
  8.2771684091662241  2.3547539476825463  1.4479084595635998
 21.8392744072403744  8.7199487884055706  0.1321098873131913
  0.1983307163629347  3.6546679751722220  9.3943934386841708
 12.8159911607016781 10.9164788110824329  9.3184742166497543
 16.8867118790556106  2.5167422793150025 15.3455132027565000
  4.3142869201630099  9.7219764299175591 15.5453294202664516
  8.7123761537700215  3.8809962097124173  3.6514831345840340
 21.5685778989219834 11.1871172558006204  3.2067135138735541
  3.1012875945261613  5.2546817865540909  9.3764740729111882
 15.6715844587386606 12.5634146522496994  9.3059681678959496
 19.1904357845401634  5.8111002044540747 15.3113268364932971
  6.3067228919627398 13.1754555914128595 15.4297333145503259
 11.5561588515493288  5.2928845217557736  3.1059508051757176
 24.8205804710991380 12.1890522681732563  3.5291074614781657
  4.3061010617366211  3.6714296976421750  7.0440387911402063
 16.9496952870691295 10.9217182411420399  6.9841821874540848
 20.8023797917957722  3.7649546964367380 12.7921212192976519
  8.3601765238916848 11.0567438741089283 13.0467435894961827
 13.2080522462055470  3.0348194128778290  0.4302412935940550
 25.8663204186379367 10.9369794181436735  0.8162586753181186
  3.1333958219233087  2.0135687505575697  9.3949786709572862
 15.6057989653366320  9.2718534411425466  9.2890586038114247
 20.8755754644843172  2.5503767816137515 15.4076327080407776
  8.3081439803520105  9.7335973066356960 15.5154134576996192
 11.3552028793280151  1.9143123137322027  3.1683140967331602
 23.9476988324131952  9.0153386811540219  3.1095374530212361
  0.9811728054313239  5.5990585744602157  7.0351950829940524
 13.5085061086716447 12.8670064399674384  6.9813473401413999
 17.6442285320509349  5.3698061414033855 13.0141570967850573
  5.1599708777840352 12.5039868880384901 12.9726174212290104
  8.2504600661584355  5.0230999470998521  1.3656360101464171
 23.3318242867134202 13.2324786157819219  1.5398635318260669
 24.3108138315258095 12.6360421863779440 13.0370122086892639
 11.7382596366445071  5.4908622440256796 12.8711972875782230
 14.7823223909241062 13.3703956461535469  1.6338918419065451
  4.1967675377194862  4.9139051445105073  0.9881559026663452
  7.1972752553582655 12.5758859781718044  7.1260069024219552
 19.8596759578657753  5.3192502695422661  6.9103905055190786
 23.1960725779769383 -1.1649419979006232 15.5060361442402677
 10.5529059124741611  6.2854840400779821 15.2845169372071048
 15.2261848659271948  0.8826183351628611  3.4813975866780944
  2.4476074001850572  7.3725527117822729  3.1000666579406260
  6.4896571777078185 -0.0061349790510987  9.4012772911484443
 19.0336479174842204  7.2161324836879013  9.2928308906840229
  0.0318382144860739  2.2762608893319767 15.3890030857378139
 12.5001245476551883  9.4845255110482523 15.4464183090623060
 18.1644592768732345  1.6351580841428868  3.1956934996828261
  6.2491119179803016  8.5330697957543489  3.3553494702984077
  9.3863492466206235  1.6512091679348491  9.3606671285226888
 21.8525190334250077  8.8999645458339778  9.3231309270318814
  2.0508453253535830  0.1285763568794690 13.0033451015010684
 14.7044202851853711  7.5178418947272432 13.0090567799606802
 19.3772624625204912 -0.8178242584731744  1.1301384008706303
  6.6898377179455757  7.7230813630869495  0.4719773823969338
 10.6057642940683685  0.0187233612568014  6.9996208088493770
 23.2619490305687258  7.2634343921634068  7.0072062855383548
  1.9782508326082957 13.3317774476675552 15.4531308037517103
 14.5063926012222417  6.0962576643467798 15.3388432641024615
 17.4556385474528426 12.6732393649804287  3.2191066586836037
  5.4626595332641958  5.7544633683092119  3.2838965187745663
  9.4191778665610499 12.9343900440663457  9.3698477832537197
 21.8671964800365259  5.6273678986455398  9.3287219781897015
 24.0591551727059354  1.5919007979337647 12.9379202497996317
 11.3859428626587089  9.0064375822749625 12.9631611680407506
 15.6798272805749832  1.7067747670527771  0.6138866699779015
  4.4645242733873367  9.9239639053306625  1.5906700935069702
  7.1860484614056430  1.9308377335355471  7.1634096928826843
 19.8548564760191901  9.2370806659932150  6.9813824258757151
  0.9935357079475339  8.9064067258182238  7.0305510696443161
 13.5292405387278123  1.7032632992005716  7.0035808438049987
 18.0451223311584315  9.0830751436280206 12.8720729362111310
  5.4895246356908931  1.8371547419642662 12.9332615732531249
  8.4452780209465708  9.8079973887006400  1.4994330776118283
 22.8737522498880992  1.4072602909921026  0.8442145226324225
  0.2055394818545085 10.7949943695595625  9.3946135812640019
 12.8567372422046855  3.6391243514785430  9.3444029495674403
 16.8917266879826826  9.8008057055337670 15.3253131068967505
  4.3029787338982679  2.4853808744120549 15.3676666195474905
  8.6452602440707658 11.7979870518138430  3.4251922036256701
 21.2784127911944694  3.8699059313667177  3.1951236271087615
  3.0935829368570911 12.4886266285834999  9.3913775727626092
 15.6469747829462928  5.2866678561532749  9.3087907214557504
 19.0785649778750361 13.1780003145463347 15.2708879813137717
  6.3402569485077711  5.9150401103604944 15.4412709663148497
 11.6451952560395000 12.6480471562442762  3.1186351958460330
 24.5106887583694437  5.2093139303656146  3.1498933432759983
  4.3168401484997032 10.8966129255146651  6.9765109994057664
 16.9553349578013659  3.6720285122785334  6.9708254042397124
 21.0074572000717161 11.0662403231145916 12.9910645553925157
  8.3661460905932952  3.8104566644697435 13.0411669348355890
 13.6792925955732123 10.0374495543627447  0.3759227957228427
 25.4486407881904810  2.3255740823904150  1.7811772444655127
  3.1465038132128487  9.2831612515546809  9.3584539802303528
 15.6587272830612338  2.0142650076140485  9.2960115690014362
 20.8051187138755971  9.8019206795926923 15.4656751256865572
  8.3184559595172978  2.4574274265529996 15.5208875855938189
 11.2009026970699299  9.5035698633368551  3.0834266039318137
 23.2772667334852699  1.4847940218244926  3.5551801367447369
  0.9701403191255066 12.8769132866917921  7.1883784421475383
 13.5475024472546508  5.6248779252694394  6.9377963722816647
 17.7307076163827837 12.5606050964074498 12.8960449607996779
  5.1500594076790627  5.3167122962916213 13.0075563874080871
  8.3081770548525498 12.8267566512797764  0.5507528333863072
 22.0148183368477355  5.5828114987294928  0.8287635530278661
 19.9027134240031742 12.5889018126446270  6.9856973021609869
  7.1840927056115476  5.3411474462215516  7.1321360341591546
 11.7417165311424814 12.7542230403144021 12.8875694524362672
 24.2649627250766144  5.3609393370076610 13.0200793963059365
  3.0444284221229885 13.2406662452489172  0.5968448810521572
 14.8057093159886168  5.5359805565669697  0.3795994137691018
 19.1356323457735797 -0.0611267556201019  9.3524874308268391
  6.4576007595327480  7.2943814090011942  9.3369529856266329
 10.5488225129372779 -1.0095595749301267 15.3024981862993528
 23.1895249021200698  6.0899501877195483 15.4939838265116236
  2.2301576014558120  0.1380562124087422  3.3912164878482662
 14.8801373902036840  7.7778826805628443  3.1068087969309146
 21.9870909660384051  1.6796811231555706  9.3219838354993083
  9.3608289406269076  8.9403299519145527  9.3247321334523612
 12.5078849722136933  2.2188266183430598 15.4490137602987705
  0.1338137029773913  9.5087786704143706 15.3245165461304147
  5.4373514117226245  1.6929717886907196  3.4445877248070320
 18.1739716680437979  8.8288362772912539  3.3021421600814698
 23.3055414404050367  0.0338130171775187  7.1148859733376399
 10.6169441814340999  7.3094412036230141  6.9429174836148846
 14.6888150284974248  0.2338828645082409 12.9975083853929991
  1.9161710430331562  7.4104701303718494 12.8348437503222996
  6.0238674753531258  0.8679184293556523  0.6305798254709023
 19.0576821705284161  6.5612912958202996  1.3770782335087219
 21.9737636405645986 12.8666417716618433  9.3387932029030871
  9.3992891721379337  5.6551140066969250  9.3349713208117961
 14.5106120810579799 13.3594979101761702 15.3423903975397096
  1.9975440004607750  6.2451130201381790 15.4183254969779213
  5.1291589419500401 12.7951322042831901  3.1583793103990341
 17.1148334359594365  5.4444761566674309  3.1958206375006553
 19.8764866881892033  1.9648455738904913  7.0189728555241544
  7.1885685211832238  9.2272627533612539  7.0524463765148493
 11.3764462695125506  1.7355793999941804 12.9783262627466360
 23.9943324895419714  8.9172709076101313 12.9675728959011902
  3.4061239287677902  2.0917998113522569  1.0208168030677998
 16.7145415922506224  9.7149524162303535  1.0180165026391803
  9.4439087216312689 12.8726737017280239 30.0957805538376100
 22.0711095850190802  5.6312140898345131 30.2713742888855357
  1.1753826379408157 12.3844157185288459 24.7052825607875590
 13.6123844669048992  5.2555413841872030 24.3806699934123294
 18.0305050452460911 13.1333619538605113 35.9370617897523559
  5.8195478680619557  5.5235394723337485 35.7474786970485638
  8.5754775997010100 10.6652722335720771 27.8063587909807950
 21.1863896970102310  3.9000329565314762 27.9641649922648377
  0.2006086209184009 10.2101199804590017 21.9606052825252931
 12.8352562443337224  2.5105855570731133 21.8461650310265938
 16.4878279127853098 10.3568066091503717 34.1852559876002928
  4.1259662288377665  3.5690617908201014 33.4378030486427065
 11.5860889140815644  9.3466343958183113 27.8290866917557089
 24.0204010494439721  1.9702650601593090 27.9466889122401447
  3.9578835283110960  9.8428014961492813 21.8307572360365363
 16.6815173252450997  2.5619326180344255 21.8733221330665977
 20.4358292916180986  9.5268080494176548 33.9539917966399258
  7.2656676921857937  1.4044835802403577 33.9296127351124497
 12.7577266374313503 11.0303967107440393 30.0574071428465572
 25.1363633929877608  3.7444346489687561 30.4663143649075536
  4.2981379598599840 11.0485353214758284 24.2215123743451350
 16.7790040455056015  3.7836062719761352 24.3342116499488448
 20.5146131650920402 12.0278043896802735 36.0910497025825734
  8.2664959678293286  4.0075881449917956 35.7721996398897204
 10.9971616440137741 12.8973113856520580 27.8296740402732077
 24.5599695242434812  4.9726233888457978 28.0149432300608972
  1.9157097927896996 13.1586471369053584 21.9551823347428900
 14.7143811323142746  5.8597685173027072 21.9027630691383663
 19.4344856059570184 12.8275316108640194 33.6840357536093506
  7.1062754266718908  5.3494591373459022 33.4296501723101329
  9.4046756548429826  8.9489170919436685 30.0574532503060148
 21.9362597494650302  1.6229450781318644 30.1245863149421886
  1.2118653007972999  8.9677678977776107 24.2321257256233160
 13.8255752961714400  1.6555930087765367 24.2020216747159829
 18.6395116445306073  8.7551677113555044 35.8429176186392127
  4.5498456307406627  2.2799535217997229 35.6618023814016283
  7.3041917112318808  1.6560640953478221 24.4295992733103517
 19.8806790008301988  9.0856683591157861 24.3514538907717188
 24.6172972348566397  1.8810855591890874 35.9501649109086117
 11.4085314690747115  8.8266556586260414 36.2665138580316935
 15.6494810377543967  1.9119258665703167 30.3297418322297787
  2.8625351294696015  9.1156495644824762 30.1796923700191577
  6.5699490042257693 -1.2549400147491456 21.8644309749551944
 19.1554917739357791  6.1853840761380861 22.0218554818441348
 22.8158267233202494 -0.3413768975174943 34.0408445980063306
 10.1334755378936432  6.8475448761953732 34.0086565993800392
 14.9033386793236140  0.0838057291620481 27.9516420493677806
  2.1443511856690827  7.1986635869554503 27.9087970739836315
 10.0658587341100336 13.3108148254556919 21.9262244409671077
 22.9434681065467956  6.2874559473645419 21.9403848160916652
  0.8088477340405715 12.5413049008586306 33.8752073803164109
 13.8149218209972915  5.6231963893427110 33.9244918047667454
 17.7322971267136715 12.8757111642557067 27.9204809529360638
  5.0002156602355647  5.5381347131529068 27.8268911533881074
 10.5347019189190050  0.2214523215835058 24.2268758991506132
 22.9731097817397405  7.4325843215480800 24.5609806560899671
  1.8094018753035033  0.6912184427674583 35.9821197437766713
 14.4928841123368137  8.2761604277541103 35.6499760273641115
 19.0824632377460368 -0.0059705721365906 30.0949089805136261
  6.4249452312834459  7.2923273071943298 29.9107073787742408
  8.2160909190240581  2.1637507026562006 21.8312998498008817
 20.6371830374758432  9.2410066962463855 21.6947997945283042
  1.1214882308913878  1.5514137747309988 33.5838745354112334
 12.8124656846965266  9.2354322752304814 33.7488576103570637
 17.7016170680369029  1.6824540177596901 27.9475435315265592
  4.9802022386752940  8.8734260893417449 27.7905806466689640
  7.6090947323340998 12.9051235894569629 24.5719515948491782
 20.1818783706772251  5.4828282867579015 24.4713493653240342
 24.7075306101989902 12.6406639849786355 36.1862131252416717
 12.4223841015479888  5.2542343091844428 36.1566783566109464
 15.6827002267122939 12.5674123836144691 30.2519675216346045
  2.8596680911541559  5.4041141236693093 30.2081364948758484
  9.4369100191542206  5.6447316848904929 29.9489747402240418
 21.9514360598877936 12.8408813421629251 30.1080870896243979
  0.7921137700365473  5.3939225416736640 24.1588575471732732
 13.6779535747046523 12.3968446284238567 24.5379182336372565
 17.9830971687714651  5.5235063941652633 36.1464583843566771
  6.0813745847880485 12.7293830799815364 35.9371374095525269
  8.6224511114883526  3.6828798664096132 27.7985704543873169
 21.1751664803685244 10.6784501363608797 27.9404025363081097
  0.1654988821452211  2.4932906681484308 21.9300546024762113
 12.8423211475673327  9.7672624461165682 21.8521559745541936
 16.5208685579396608  3.0962175128333977 34.2967133059850724
  4.1885948190800084 10.9331559350186840 33.5679775827844296
 11.0290355529277093  1.6618011325577540 27.8646517395555371
 24.5735434830104928  9.5155397418204188 27.9894323464116184
  4.0338212069261044  2.5184457576549124 21.8804302208901902
 16.6903778602639896  9.8123803835077190 21.8666171279041492
 19.6320856143781164  1.6505190450371621 33.8255032873942980
  7.2137904340592556  8.8334802251111473 33.6007234494322304
 12.7520302196440589  3.4927571052494502 30.1633846732376973
 25.1743566848431044 10.8131817582816492 30.4171442827041112
  4.0794718569289481  3.8370733568329483 24.2793848426729717
 16.8257790911581999 11.0417561619444946 24.3051253650541668
 20.9378486644052089  3.4456711964048004 36.0014569619802032
  8.2611438425056978 11.0941135215886604 35.7114662161831049
 11.6473583434708523  5.1023415751947470 27.7915447725750191
 23.8900960744381798 12.5262911643124522 27.8948750678508723
  2.0644284700446645  5.8656582407884317 21.8366697210173868
 14.6703027600750673 13.1372921653592822 21.9503670072572206
 19.7428478202722886  5.6463574470738056 33.9281192305428974
  7.2497348986882129 12.4955848157109379 33.4531395320594740
  9.4446943154164487  1.6638190918499187 30.1569484409970343
 22.0613163904742180  8.8417844442574154 30.2318994103358101
  1.2783292522909617  1.9171621505159275 24.4459187149198556
 13.8609209859613998  8.8970616870016723 24.1794978486212102
 18.6177279317425040  1.6480489003886469 36.2913680014926214
  5.4725553056846374  8.9492923335744585 35.7707547106055443
  2.6852108928641374  1.8190577544352513 29.6754240256830215
 15.6949924281643725  9.2410434978419058 30.2443655606528665
 19.9077090522765801  1.7757124452016473 24.3963264892340739
  7.2228486384002215  8.9836868874655060 24.3501078523466603
 10.9533173586810619  1.3349587312867073 36.4423405412805579
 24.2804945392854172  9.5928128067214224 36.1192247172763388
 14.8789960318653076  7.3361346425734801 27.9610727817200129
 19.1518094594395336 -1.0359635233987670 21.9866165368704323
  6.6117702810639338  5.9938036165835609 21.8032403599043931
 10.1569161180646859 -0.6343870326793623 34.0211662889803179
 22.8969523499887266  6.9091089487347919 34.3647121926332488
  5.0229750333700958 12.9453382379714945 27.7388240874665541
 17.7688716062854652  5.6525007373500058 27.9437087498658485
 22.8995622881326923 13.6057358147672485 21.8429321396443008
  9.9874335721745329  5.9830338574067108 21.9451261327973270
 13.2399459294627064 12.3683250613636151 34.0018663987109235
  1.3855047118001729  5.0579659727175370 34.5388625018970359
  5.7992071373129583  0.0258232445814088 30.5058786929066414
 19.0576669695132601  7.2455349162225930 30.2554379768458972
 23.1513053968179783  0.1914292085593012 24.3182635170145218
 10.4145141561213599  7.4647552508209367 24.3291328354777541
 14.4575118975201491 -0.2464171003519688 35.8785849812441029
  2.6215892238074803  7.6610652662737300 37.2380502046801212
  4.9682071558529923  1.5254702391138912 27.6660968052849512
 17.7213557012138416  8.8716005948604426 27.9366769993551785
 20.6305750106184256  2.0359999592895512 21.6868847747501192
  8.2573687569778098  9.4146969086322798 21.8227145388921890
 12.9370705760116653  2.1146514269829142 34.2603066670947527
  1.2165842504138276  8.8360417357221195 34.3778919579691120
  2.6623141835304693 12.7020823603926054 29.7145862960894327
 15.6728568862184705  5.2546723872630317 30.2302189227629192
 20.2164069657970451 12.8190567409538616 24.5066750136222637
  7.5256328839924480  5.5657067131266729 24.5151476470764145
 11.5052288471472615 12.2943082583825802 36.5099732652223210
 24.3813365240217514  4.7866798603108780 37.2046075755042551
 -0.0388899112918000  0.1034981945377147  0.5024151136777755
 13.1360716084447091  7.4365579211318655  0.5781610580110658
 16.8193288068762783  0.0127190732181298  6.3610873005527591
  4.1992167980094317  7.2712125649241974  6.2660185806681890
  8.3554325005679306 -0.0044750417690621 12.4780802779558559
 20.9953429264383047  7.2659789392191536 12.4556819251890261
 23.1318242437863191 10.8683536376718273  6.3852563064292802
 10.4899918339349192  3.6386211714573582  6.4088962693134430
 14.6885387383768578 10.9356356612468453 12.4426031249816145
  2.1123634424513988  3.6242301354078892 12.5243498414296557
  6.4709984804844609 10.7189891943229654  0.3270731773046935
 19.4374780622397410  4.2071702681099126  0.6174222169511356
  4.1940964709739621 -0.0219937681466498  6.4283823437816272
 16.7557150845312854  7.2878285646913366  6.2902948168812935
 21.0302251297638740  0.0118115832455233 12.4617773233487359
  8.3596619391903868  7.2786352373263901 12.4449758091417078
 13.0241834843722764  0.5005739516214014  0.5948578602043082
 -1.0831626365067657  7.2648820950558131  0.1628271730487548
 23.1428789645659023  3.6563678638510040  6.3387268979637437
 10.4544804819978765 10.9540445614938005  6.3229954089127611
 14.6806399842794040  3.6590137005083019 12.4509964707797263
  2.1310390531684704 10.8864365856944278 12.5026649101383285
  6.2711970253291360  3.5411587514840663  0.2599269132229857
 18.6625626869910199 11.2301318589268533  0.5908948475722728
  8.6289837178390840 -0.0408569930326531 18.6049990791848181
 20.7369873842573327  7.1830817665681437 18.6550234943831761
 25.0348727795961317 -0.0596100176151210 30.7863937687309104
 12.5180980816871550  7.2430750395619015 30.8453502722757698
 16.8186620567573293 -0.0032047229645436 24.7906542621405315
  4.1534382204307860  7.2477088271771226 24.7001457383736991
  6.2319979503680116  3.5141213049556939 30.5149585153011316
 18.8668656879641254 10.8610950845277952 30.8765045634233033
 23.1293787103519684  3.6927128789070536 24.8174834987898052
 10.5208467205279739 10.9114318822503389 24.6840237141344865
 14.7159901141218921  3.5894109092533149 18.5962447227555678
  1.8962849611991131 10.6285413750758906 18.6146171916694421
 12.5717148894174766 -0.0104799054334405 31.0314181479811673
 25.1946984232139357  7.2251953225529881 31.2419587398391414
  4.1660258999880764  0.0109055182825070 24.5902662467245818
 16.8258568254322967  7.2565215998697159 24.8061269700391378
 20.7735491229530460 -0.0586430546017065 18.6124255113422734
  8.6788868752217141  7.2371228607436793 18.5965936488520036
  6.1769798095226740 10.9196790863293032 30.5495617948019671
 18.8542813696369080  3.6100721421395154 30.9403434506798547
 23.1505322025144871 10.9391328460839556 24.7701927504275119
 10.5214102241154688  3.6210252167035835 24.6988443359317316
 14.7122689411377880 10.8599155146795532 18.5997712398647934
  2.1035192348186000  3.6074150711737865 18.5955445104072439
  4.2095790125497068 -0.0492255471825608  8.5155937671120938
 16.7283647797698976  7.2814929689582346  8.3841387465553439
 21.0374467558135372  0.0350556379514631 14.5043397086871604
  8.3630371679724504  7.2829682236324995 14.4904913990961930
 12.9689739256515821  0.1135773046228643  2.7282949155250180
  0.2443004915036775  7.2616040095063630  1.9304135876108397
 21.8986671313639221  1.7541916484061166 11.7407494498208020
  9.2304481398721734  9.0221944137026711 11.7396873859507540
 13.4182505127257663  2.0104781145270683 17.7574687859322147
  1.1525119628620568  9.0722973120949657 17.3727384648488545
  5.1440737595697588  1.6935738902521009  5.8067594372935334
 17.7484887103282745  8.9741404115629937  5.6586151590363603
 22.0506113796054777  5.6227602378881372 11.7566257944825416
  9.4423090170035984 12.9088003423618805 11.7854165560011968
 14.0075821195614107  5.4951906407472570 17.7438517111469487
  1.3061820204664696 12.6005036906855263 17.7279988995678188
  5.1866150776242108  5.5790733957130527  5.6366153647406163
 17.7778881069596686 12.8825049936210441  5.6523214475968713
  6.4067624794232580 -0.1440406475762752 11.7872530355013598
 19.0463991461984570  7.1373865627685875 11.7527112919056975
 22.9292665997819185 -0.2827858825092222 17.7893763729608700
 10.4111910244323234  7.3425863037995542 17.3698893643250187
 14.8758504575351527  0.0194187584281736  5.6999400253263062
  2.2656293227712920  7.2548857754161986  5.5529505590610579
  2.0977789846739472  3.6349512944719007  8.0369060953818483
 14.6838261507004706 10.9356496367211591  7.9241051076185931
 18.8665804370205130  3.6180295989747315 14.1897820745072316
  6.3088982299784773 10.8833903776560561 14.3325421038191720
 10.2645000003741327  3.6485744460023097  1.9184777595444542
 23.5927337279098097 10.9721843269190344  1.8720780905458405
 23.1024177990381716  3.7176741958583293  8.4253796832806245
 10.5258573969318547 10.9395803755096281  8.4098135785322352
 14.6797496100577405  3.6394464377776963 14.5058009691695400
  2.1365764049311733 10.8830501718556008 14.5454201730134631
  6.4955848594145467  3.7335340219209132  2.5749881878994363
 19.1727854206907686 11.0172980562263270  2.6948472944538846
  2.9981030280650902 12.6288511624977051 11.7929653218592758
 15.5352258279239823  5.4048935346323184 11.7417867351637835
 19.8558201614403167 12.9561184069068869 17.4735697290723522
  7.2708431941012002  5.7379060420838091 17.7183329299990149
 11.3880552224060843 12.6417936772183062  5.5891107500608950
 24.1018864264960797  5.3308081649586674  5.6114116028359691
  3.1895526634624951  1.9958051788823326 11.8331141660697874
 15.7692625312407984  9.3256427887645295 11.7163185572580097
 20.2140373921283860  1.8995065680292329 17.7156958397412723
  7.7209099632069549  9.1891029659320616 17.8610564722000333
 11.4133734316139464  1.9670253442200114  5.6479018207727547
 24.1104550335025110  9.2143723546302674  5.6361318379262597
  0.1698423941892770  3.4947511996110285 11.8186595852758369
 12.7428071494022728 10.8183138981974789 11.7390813400136675
 16.7232918501622727  3.2404166118358835 17.7665125385190947
  4.0799137654641591 10.5143576648183430 17.8908861468400566
  8.4933324786887638  3.6154517297074049  5.9170540333293085
 21.2211211488334648 10.9033893060349314  5.6441850580387580
  0.0185450134306986 -0.0327151702408370 14.3083175219101548
 12.5957384308399138  7.2967446351469718 14.2008103940441437
 16.9695522289088032  0.0860647120934650  1.8629989934310129
  4.4338836950505707  7.3139139534531816  1.7003555059630124
  8.3787129480717191 -0.0001071601721303  8.0296473937391895
 20.9541398108730803  7.2616547052847427  7.9323941639473246
 25.0972577164820514  0.0927359101116636  2.7877207196595526
 12.4922975384233865  7.5024226984212943  2.6147704383134638
 16.8508980871329257  0.0295396461750838  8.4487261093852659
  4.1600230122776756  7.2692484659067107  8.3517231330119355
  8.3607433293719300  0.0015178026824265 14.5206896007244630
 21.0178572615739121  7.2989209332983656 14.5016773647623474
 21.8676234644802996  8.9986437006816260 11.7301989456802893
  9.2105347455547939  1.7436625670734629 11.7661134715510851
 13.4181113460649026  9.2844873635579503 17.7520031422334306
  0.7805496163367520  2.0397932907674798 17.7767515334378849
  5.1788876608780914  8.9329665778278979  5.5606196423534575
 17.7591026389390727  1.7008317826088168  5.6326247193956558
 22.1022425057949050 12.9239182533140227 11.7609776403688908
  9.4446062601223986  5.6485371580598454 11.7582426544416467
 14.0080231823812618 12.7688019350782760 17.7513565569495917
  1.4005245569295981  5.5107764079492281 17.7404031497020185
  5.1753472461459555 12.8727911538141147  5.6813435535053278
 17.7196033865186671  5.6182194421911120  5.5870975900313535
  2.2445713247192791 -0.0257720604808962  5.7902360319657538
 14.8359632577000529  7.3037751356786957  5.5475371790885024
 19.0780917366898422 -0.1186067485026496 11.7670835051495359
  6.4133940760882817  7.1503715092565141 11.7476065114834469
 10.3657674581516410  0.0580525311821103 17.3815757940341555
 22.8524386518530456  6.9446529669397430 17.8095851155193330
  2.0983942686504804 10.8783359784412923  8.0166579895717067
 14.6972609821066946  3.6561807205647789  7.9216950069733993
 18.8896832718777539 10.9009666257491933 14.1962788734528118
  6.3073916110528936  3.6346476415602940 14.3112010407121062
 10.3399494221865478 11.3183237922111761  1.6442428128895057
 23.3214262031981256  3.5713310203958994  1.8965772094702802
 23.0987552187166543 10.8130417416872291  8.4727456004298016
 10.5869143517041220  3.6485563463368540  8.4903934451575527
 14.6765902584921424 10.9098581585144991 14.4977041480159841
  2.1096827481278604  3.6546152666291274 14.5748541382256551
  6.5317118038333648 10.8240559478167437  2.6210363467367279
 18.9352241899395004  3.8856957245338379  2.6716232405931764
 24.1099548815593785 12.5785277096853250  5.7928734495881198
 11.3900748084335053  5.3084573063970923  5.6162642730643402
 15.5529531365578073 12.6827932014387983 11.7440666834036840
  2.9905266873869598  5.3605034268589691 11.8052466570119989
  7.2184926163551815 13.0085410078369303 17.7228873394272384
 19.7936307297597551  5.6407969680808883 17.5660680232565838
 24.1368232541977790  1.9681148247211955  5.7368074855396900
 11.3970195178132681  9.3014864871402825  5.5556683693558968
 15.7533061075610235  2.0435514383333571 11.7225572826256013
  3.1992524691564359  9.2563416395713318 11.7917693355545747
  7.6795462791403022  1.9262094215317700 17.8556912689310465
 20.1390031086695132  9.1331228670926752 17.7387098684515152
  0.1787663217356072 10.7602771016304484 11.8131912693582279
 12.7347202228916796  3.5379046216779639 11.7522740707990163
 16.7193479252095010 10.5186773990212483 17.7681294340010112
  4.1135393248310237  3.2581022281908592 17.7460936332409034
  8.4955599209837924 10.9596742503405871  5.7056225011026562
 21.2185989194008329  3.5941534865613587  5.6075273988049421
 21.0237247092589321  0.0068572202621090  7.9858177727331396
  8.3794219977170794  7.2902376356711196  7.9834554924112302
 12.5985765094785336  0.0237085161697616 14.2142274117784613
 25.1620438827466053  7.2314030265842435 14.2358760509609574
  4.2065874015861633  0.2216061067526914  2.1031038612162138
 16.8878786766671425  7.4378939334887271  1.8286728800782630
 12.6674138212984335  0.0338436121009429 28.9597127000947303
 25.1275469614835139  7.2335666520711248 29.1691884475546281
  4.2200107020428490 -0.0390431532143315 22.5308297955694563
 16.8328510202485653  7.2606973867115459 22.7548721135026639
 20.1530730474361341 -0.1003705835791649 35.4199748806314503
  7.7523431646534124  6.9784391031940700 35.0906537991549570
  5.2851355677149643 12.9584806137514814 25.3519424144964134
 17.8940296109900920  5.6276767708996367 25.5156543637639359
 22.2957647227115885 13.1485401332647083 19.4717849890959336
  9.7982174578983461  5.7887749025761916 19.6305081501185867
 13.5466884950612414 12.8159401863012530 31.6508605351092527
  1.0043303857088153  5.5411883055618736 31.9310089060197058
  5.0412556696016111  8.9761325509374963 25.4179886074447587
 17.6831535484963922  1.7325226775609279 25.5121946056133666
 21.4690652673350399  9.2066067787381574 19.3752370388735535
  9.0018667849916927  1.9394833525725337 19.5011264156249631
 13.4633262959854463  8.9611533208736081 31.4594390711200198
  0.8755537896350525  1.6571175090314980 31.3205739363960696
 14.8806176483333061 -0.1426018270810365 25.5143005111420678
  2.2299576312599276  7.1106079248205702 25.4491140179533595
  6.5729929378010237 -0.4942613173849345 19.4492648532650811
 18.9996931608524484  7.0941905761729585 19.8603215733650309
 23.1194609800613584 -0.0628988029675883 31.5601989423772551
 10.5486044318417669  7.2420756383009071 31.4965672161783381
 10.4866553697837510 10.9302062510567453 29.1417774127555589
 23.0560575487552377  3.6281734337138922 29.3133080644678579
  2.1631547254952261 10.9203511831602675 23.1417942268515233
 14.7410174213498557  3.6241382357038869 23.0328466954202327
 18.6743033454325165 10.9763323551765737 34.8990589703103140
  6.2353627961559202  3.4610271186833002 34.5441786662135755
  6.1853006179041454 10.8800232742720038 28.4794502923766402