Li P  S  Cl
 1.0000000000000000
    25.1819793006824639    0.0000000000000000    0.0000000000000015
    -0.0000000000000009   14.5388225279766061    0.0000000000000009
     0.0000000000000000    0.0000000000000000   37.2126966544236950
 Li  P   S   Cl 
 286  48 240  48
Selective dynamics
Cartesian
  6.3025174879315315 -0.3823327068760278 13.1577655874410535   T   T   T
 14.0035421428445748  5.5963751479170076  5.3299710783976444   T   T   T
 16.0474861111727023  3.8222668236802364 15.3886553428982555   T   T   T
  5.5210396585057184 10.6127744581562400 12.2280172332733894   T   T   T
  8.0779884943073608 10.1099834092389980 -2.4945159048170908   T   T   T
 14.4347268665965469  9.2710894098522996 -2.6836673263214341   T   T   T
  0.6751731283941554 -1.8393482120317559 14.8614195047222672   T   T   T
 13.9347044980939572 10.1327477736491751  5.5077831001906095   T   T   T
 19.6003887882235759  6.0147549020897930 15.1881515989620013   T   T   T
  8.3160052574347496 12.6751611078316593 15.8814330700954933   T   T   T
  9.9499525884028515 -0.7888043826349731  2.7382855098129899   T   T   T
 12.7709612555474710 19.8134651916557303  2.5380543602039185   T   T   T
  5.8147727266973090  2.6155606966910727 14.4759722784756644   T   T   T
 11.2207640870760148 17.3682438287904262 12.2559550779049182   T   T   T
 22.8777849750860724 -0.7480681085588102 14.9695275120305329   T   T   T
 10.2889045887076023 15.9126454764853857 22.7984272743885263   T   T   T
  3.8574418969426487  4.4484071434259977  5.4898459979707068   T   T   T
 20.6045207241392418 14.2951900973788231  1.4493347645373107   T   T   T
  0.5346004147827755 -4.3842185037113461  8.7149930374028965   T   T   T
 17.9644128896502551  7.4124902400702419  8.0291819402331832   T   T   T
 16.1980299137431416 -7.5614090434829961 18.1563510810410662   T   T   T
  4.4211380506610212  8.3528517357134113 18.6211368735155212   T   T   T
 12.6669916314019346  4.5567227219670565 -1.2638359976446021   T   T   T
 21.7812396246984008 11.7969641558289933 -8.7865426485421256   T   T   T
  4.9723067414887900  4.3188119112411743 11.4088602252435969   T   T   T
 13.3918436498375240 14.0771573093740319 12.3673040992688055   T   T   T
 21.1042669898385569  1.7961586954250350  8.7625481325766739   T   T   T
  4.0783408935198358 10.2843086091423288 15.8853179322965392   T   T   T
  7.4601878633794376  9.7333801007334930  5.0223519590734984   T   T   T
 20.0505615369986714 13.0210159509668149 -2.7542692001617368   T   T   T
  0.9504036130653472  3.3067565682673945  9.2701573870872078   T   T   T
 16.5742747384783371 11.1130373176150563  7.7226224283294949   T   T   T
 17.2459468925616761  0.2470204831315736 18.7270560414604823   T   T   T
  0.1659815440687689 14.7702993382934373 19.7611879147257810   T   T   T
  6.4414348690697221  8.8259416390056113  8.1296746932193376   T   T   T
 12.0157860348807244 17.6737050089157570  7.3034410083017782   T   T   T
 19.1270046680013337  9.6955743155876437 16.1542301309367140   T   T   T
 12.1364927082415832 10.0933231632107407 12.3371133349062116   T   T   T
  6.3242202400988745 22.9294675653894977  0.4669108426698665   T   T   T
  6.1170136048989834  2.6557806682444673 -3.0355902167014910   T   T   T
  6.2462437641832045 16.4502954811814774  6.9936664587831032   T   T   T
 14.4346787887766705  1.7995956518789977  7.6680654239280406   T   T   T
 29.1515762726850554  3.0151298039962322  8.7278683407833775   T   T   T
  1.3457147357457075  2.0267409268609509 24.6081747605777146   T   T   T
 14.3899814911877950  1.5091162839680441 -0.1992953179606515   T   T   T
  0.5545057587629376  6.2045057255534504  6.8503222788205553   T   T   T
  6.5432349496421329 -0.7568577133990043  7.6486816148228094   T   T   T
 15.0057683415288547  9.7995769287419172  0.9393601958475272   T   T   T
 -10.4670789672777342 -4.9642343161479863 22.2782308450217563   T   T   T
 11.4361778576380626  8.4096444498253291 15.1120056663030002   T   T   T
 24.3175023762448745 -3.7987347776791522 -0.4023726343214006   T   T   T
  1.9457672690556582  6.5379886287493338 -3.0070837240987953   T   T   T
  8.6085879880519887  2.4285138330763392 16.8281560541982493   T   T   T
 21.9806435327144882  7.4471935774385791  5.5525981176851351   T   T   T
  1.5750503700513585 -1.3740785538185594  5.4871955782288993   T   T   T
 11.5132963002955808  7.1627868706403541 10.6334231182582233   T   T   T
 22.2497294137612087 -6.7550335448844399 19.0247341088482500   T   T   T
  8.1664718280447790  5.0790952978378883 -1.2793637164662088   T   T   T
  8.3476474359348387 10.9586129888568937  1.9801467844329832   T   T   T
 28.1961989485512206  6.0328740425479728  8.6086684558617179   T   T   T
 -9.5510052700388233 10.2236976413358462 16.2709598243109994   T   T   T
 15.2294215143177141 13.8193706236795784  8.8841673525304561   T   T   T
 13.8879577157849390 10.3205558142880243  8.7788473326525551   T   T   T
  3.4108279308064069  6.5295004714573279  2.4941114661204602   T   T   T
  9.6928064644539518 11.3451328504297067 18.2851657050022318   T   T   T
 26.6183387495726151  0.1264364824881303 16.6315464371010862   T   T   T
 19.1940062896186419  5.1194787686531038 12.0544049754850668   T   T   T
 14.7366813678001058  7.9427156238328598 11.8986371826115747   T   T   T
  9.6818176147705071  1.8305392924484341 -0.7453327232678005   T   T   T
  4.6525139843018177 10.0498803464751489  2.6622965527098597   T   T   T
  9.9066109031100691  3.6189734703218246 19.2513362153822847   T   T   T
 20.6295135679893420  5.9033896548369604  8.8629640837725692   T   T   T
  1.2948622991994883  6.4144727290216101 14.4946957495195523   T   T   T
 15.5385629309586353  4.9170355281226374  9.1839521034170204   T   T   T
  5.8602131581156209 12.9012981793094443 17.0683819152946228   T   T   T
  6.8166018234257413  6.7379293872839563 13.1999857338797373   T   T   T
  7.8677897679319049 17.4000325662053505  4.4518601984083785   T   T   T
 20.0834024069855275  4.0028313283616885  0.2977625272615728   T   T   T
 -2.7929854775103720 17.2223403861460334 12.4954489032239433   T   T   T
 17.7104328209951589  2.4615039705602153  9.1917870807772957   T   T   T
 13.2493637707735683  2.6357234426271341 18.5873506024157322   T   T   T
  0.0276313459147378  2.5822321348818313 14.8907721011353704   T   T   T
  8.2195196830480626 17.6115572801247815  8.4971474761941295   T   T   T
 23.5955369016141603  0.3911721319256569  6.4302250270518879   T   T   T
 -1.0907456824702522 13.6418100341709092 12.2448990012883243   T   T   T
  8.6704599978383126 10.7467926984529374  8.3422839213132303   T   T   T
 24.0744058132753693  5.9356038016988464 11.8458693524740273   T   T   T
 12.7320949589310963 11.5277985907353582 22.8845561552072141   T   T   T
 12.4585370928205741  5.6611141529951121  7.7128515038066379   T   T   T
 22.9893140790911730  7.7810368503636971  8.0486388600328738   T   T   T
  3.8222368525043833 11.6293013044893847  9.2127135420590474   T   T   T
 13.8213018577777724  2.9164511624781846  4.8845520050962907   T   T   T
 18.5342783925473569 10.4409145097777341 12.2934396760681324   T   T   T
  8.4680803258274473 -1.4188595107795641 25.7903999290990349   T   T   T
  9.3388423288118272  6.7998445973519406  8.5428568099216768   T   T   T
 12.4402296947003066 -1.3725518997357766  7.4206035444249778   T   T   T
  1.5106439712662836  9.9776383602419507  6.1611066567294994   T   T   T
 16.2215725548042187 13.1138089850894133 14.1290152362902646   T   T   T
  8.1152059638710536  3.9808769296286344 13.2356830679701147   T   T   T
  7.5482910090050392 -0.3176566244336361  5.3559484819395982   T   T   T
 21.6185659397537933  3.0473516136575638  2.7453449304808522   T   T   T
  3.4680679120219309 17.3813658203470531  0.4738647344152148   T   T   T
 18.7720616654947676  2.0300102841243803 14.2086186329915254   T   T   T
 20.8036988835059518 11.4824973698707211 13.5263232896196186   T   T   T
  1.3138051742512029  6.7393610464525242 19.1347849292134029   T   T   T
  6.6268466557502430 15.8884318756518432  2.3172296748621650   T   T   T
 16.1923758125738644  1.9277071400863905 -3.3404191039796363   T   T   T
 28.0485199513463925 15.6073911412401198 12.6740842450198876   T   T   T
 17.3009806426958548 14.4319089459736531  2.6157685203680372   T   T   T
 10.5726074647651078  7.8903027666470500 18.0265297936827480   T   T   T
 36.8464871139664396  4.7680934436964018 17.2680372164591880   T   T   T
  3.8947473944308948  8.8246213370251869 -0.8407505524052570   T   T   T
 20.3701824672400633 10.1286578792853561  7.5665770818958453   T   T   T
 19.9836303519430203 -1.7820921136152648  5.9350004282066671   T   T   T
 11.4173905563151585  8.2883820347458332  6.5733471459782553   T   T   T
 10.2805340670963439 -0.1050981797040253 13.2283759227285902   T   T   T
 23.1234640023141012  8.4998609126302824 11.4417433389548648   T   T   T
 -2.5151675320458375  6.2580629572863868 -0.5249095190818688   T   T   T
 19.3067790487099273  0.8034932359417024 -0.9857688058308487   T   T   T
 18.5412482548278064 -1.2341620770101023 12.8213027274405640   T   T   T
  9.8792038312029948  0.5902779575543083  9.0126229206473703   T   T   T
 12.1484721927115409 -7.1463960537280933 20.4626038040186344   T   T   T
  4.0039995458089459 11.5760010203441901  5.8578424180016659   T   T   T
  2.9354608979737757  1.5849959655498338  2.8085833838694869   T   T   T
  9.6662898356127673  7.3975132818747333  4.2614428254434742   T   T   T
 19.9914528945802914  1.1246615351328850  4.7426655445312491   T   T   T
  7.2095145758774368  6.3368570195317746  6.0493135310159154   T   T   T
 11.0835465694094495  0.4635497355744698 15.7986951858639451   T   T   T
 -0.0410177120803225  4.5095481257968295 22.6527749057156278   T   T   T
 15.3980279273883234 -1.2733490449063021  5.4560381053001574   T   T   T
 23.2666217766519878  9.0399687095789822  2.6866575885703927   T   T   T
 18.9219041278975553 14.1628762671259310  8.4291888984348269   T   T   T
  1.5957810955773994  8.8620352433157006  1.3492409527617382   T   T   T
  9.9735129710549675  6.5818474491621162 12.7829448962042367   T   T   T
  1.4579367924103785  7.9974717877018779 11.4274549635953289   T   T   T
  0.8836941968569451 13.9825066476124036  9.2444548279925360   T   T   T
 19.6404832292270015  5.8522940902025340  5.5300666239954808   T   T   T
 16.9562490590788002  6.1765408734136908 14.6578329746209821   T   T   T
  6.7405479759591369  9.8795826878328104 15.8493186426293722   T   T   T
  6.9164440152621607  1.2711510856159560 22.2775481737646288   T   T   T
 24.8304642880892459  9.7262166890142367 14.4788293953091198   T   T   T
 -1.2875740325619562 -2.1604394801273501  1.8485750191704393   T   T   T
 10.3978927799332688  7.3560257894132421 -3.0447032118051256   T   T   T
 16.8757995031173351  2.5593323850577012 29.4666992846740143   T   T   T
 22.5222986429824630 10.1869718503135189 31.3771860569147698   T   T   T
  2.0495735339390606  5.3055518296593203 21.6047847666216839   T   T   T
 20.3778033120861508  5.2816541064746927 23.9037822108189602   T   T   T
 22.2462044094124280  1.9936118160679803 36.4753989956135172   T   T   T
  3.6398214040546826  5.9610018266781912 27.6748472705288968   T   T   T
 16.6515302830275118  3.2302086744018683 22.8996624412710723   T   T   T
 25.3801542906713209  9.9659943573732956 30.2122307928181542   T   T   T
 -1.4531674153482523 -9.6507778805539921 18.8773605414038741   T   T   T
 14.3425273054513287 12.2405616215117838 18.8937262635853145   T   T   T
 25.2039915680233690  1.1860093510148995 34.0253922839839902   T   T   T
 -2.6563796621947344 20.7966666095978745 39.7020872029206089   T   T   T
  9.9422115351860221  9.5245066527319722 28.0021031111050220   T   T   T
 25.1637746722983877 12.6159986208496520 28.4524194490872517   T   T   T
  6.3055914522395931  6.2057282237811888 23.8114390965383329   T   T   T
  8.3232544445907486 11.6959065787303302 13.0769948154823652   T   T   T
 28.3954787230203465 -1.4682158583534415 33.9902542490792854   T   T   T
  0.4230678976966427  4.6421293374576447 30.1593167599991645   T   T   T
 11.3442116946944953  5.9746184349183142 28.8746139431965467   T   T   T
 23.3666650828329381  6.9730734168809994 23.9832893770096156   T   T   T
 11.3285879880786791  0.2848760346452190 18.9415360242474335   T   T   T
 13.3133257409618295  3.4812409601092598 23.4353316727079459   T   T   T
 17.5114456402589838 -3.1210895825035867 34.1716750573585841   T   T   T
  2.4863494277505773 17.2345059560101248 30.4824110902068810   T   T   T
 18.3298307136263858  9.1759612300529163 28.6132077662772204   T   T   T
 23.8927464643942713  9.4233373649836647 28.4004175745578351   T   T   T
 -1.3426832886536324  0.6195567690411919 23.8568092900126523   T   T   T
 14.8891109545491354 14.7758655139267798 28.6420423203449701   T   T   T
 24.8148577977387390  4.9019603543474171 33.8666766273486672   T   T   T
  3.8533649174882649 14.2889717891066219 31.7995998923477394   T   T   T
 10.2792693956154739  3.0768346376290721 28.6152423463473831   T   T   T
 23.9472488828702339 12.2889064178808507 32.1321449024190571   T   T   T
  7.4580839904529403 -5.2341707774090631 24.4592136024572611   T   T   T
 10.3578607466917134  8.6365114911420306 24.1979577438606590   T   T   T
 24.5302998622085511  8.9291305645543222 34.0678637742926185   T   T   T
  1.7406164117140570 -2.9771039250532105 37.5829958299210887   T   T   T
  8.3851207917209365  7.9467743011926082 21.2114267084941730   T   T   T
 22.0253793165465126 -0.4287463290105411 21.7530989445107679   T   T   T
 20.6108600237722328 19.5739432997986640 34.8737901679570541   T   T   T
 10.2440834562547352  0.5551163330739172 43.3213310694067815   T   T   T
 15.8120298618550503  9.4328014095983903 30.4637016552135265   T   T   T
  5.8143276578075911 -1.5224945285011457 34.4275429329563138   T   T   T
 15.6707076879025440  5.9452881398547230 22.7264949029868646   T   T   T
 17.5707765302599412 11.8264818661223483 20.6832006088627089   T   T   T
 19.2371254879651445  2.5888699176296810 33.4231504953840073   T   T   T
 12.7117798760436518 -3.3572180190642684 39.9860019238332427   T   T   T
  9.8749716757228079 12.4702974128668060 32.0968855257345496   T   T   T
  1.2289146347087931 20.1365866746021105 24.9720520422740968   T   T   T
 16.3785231991368434 -3.0865536205583832 25.7457593587129807   T   T   T
 21.2765882217474456 12.4990900714871973 23.8887808953483542   T   T   T
  1.8851605153312418  7.8959272903934030 28.7405772673052553   T   T   T
 21.8484094105357300 13.1203259146776983 45.9044135072431487   T   T   T
 13.5673182673066890 11.9163680937098029 34.6311762705269643   T   T   T
  5.6629054861479391 13.2855741731967285 28.4379478214735926   T   T   T
  3.9134632808965399 13.0028835221518815 13.7629537978200300   T   T   T
 25.1714303084156938  9.9057891686231816 22.1795204915520259   T   T   T
  0.8496013470468241  2.5699954325977856 43.5844910564052554   T   T   T
 17.8334079178815728  8.5440544815645527 32.1400946608325313   T   T   T
 19.6628066024978310 14.2141865915442533 30.2681253567350588   T   T   T
  4.5993424917544949 10.7652511612090063 24.2967948179266351   T   T   T
 13.8221029000585940 16.4835689805015804 14.5465089762824231   T   T   T
 17.2781123697743340  4.3826233417361538 25.4179282501433121   T   T   T
 -4.7762015862210028 11.9793780338858156 37.2703656569168373   T   T   T
  3.1071682629782691 -0.2109800201797770 27.5775812592322644   T   T   T
 14.3409464819674035 13.6585766589709774 24.5888306984089198   T   T   T
  6.6268769272780217 -1.4367604898954802 23.9201598958289559   T   T   T
  9.2770125865715833 -8.7995785384235283 26.2954985375882835   T   T   T
 20.2213938840603475 16.7603631354295075 24.3635499344668780   T   T   T
 31.5152469817033065  6.2686711304339608 34.1689867727601779   T   T   T
 14.9259252953640527 13.2121969338575553 37.0748351184260372   T   T   T
 16.4357351543670163  6.1293145743736908 31.4860922071872409   T   T   T
  2.7343716444534643 12.4175190157821564 30.1730621159725629   T   T   T
 13.0921985214870045 10.4342292778431371 29.3306391113429648   T   T   T
 22.3073713028440466  6.8270266207578727 26.0081210011786510   T   T   T
 -4.0286873972577588  9.3842737185864831 22.3999854743747946   T   T   T
 12.5978348255222130  5.7103257617548424 12.9852696799537206   T   T   T
 12.9153478351775934  2.1061558098979614 34.6474104117529720   T   T   T
  3.3312615278745725  5.6939946214150918 30.4887846623992473   T   T   T
  9.0747920198070773  5.7768775861352619 30.6191278588744318   T   T   T
 21.0129538609616588 -0.4591753912422313 25.9569399199098712   T   T   T
  3.9093998157460526 12.8869341099205776 21.4806404453304900   T   T   T
 18.6032777452745606 -1.3358837599040787 16.4451944413183284   T   T   T
 17.4644661106542927 10.5790497909709043 37.1320606660873835   T   T   T
 10.4375065046152162  9.3195540842426983 31.8325131395169691   T   T   T
  5.7685317674975574 16.5059988338482206 28.5841527997625988   T   T   T
 24.6823809760627739  2.6141700863572486 28.1705392618912072   T   T   T
  1.4042428179603816  3.7143973959025303 18.2914277311995299   T   T   T
 18.8091996649416515 -0.7757883618183059 23.0355750206355978   T   T   T
 20.0842107484975401  8.8652091608750823 34.4760648669687271   T   T   T
  3.7099136709825880  5.8497884398514426 37.1319954476315530   T   T   T
  9.2760099850777866 17.4118758564495870 32.0563415056678309   T   T   T
 22.5023480972575740  2.3026534964865388 31.6709702065310310   T   T   T
  1.1831507099625242 10.3225189634745593 25.5427637983952742   T   T   T
  8.4783446801746916 -1.6232221105593974 22.2158259810610375   T   T   T
 21.0290101359320403  9.2913989994908786 37.2587813933058101   T   T   T
  3.7200440224478348 -1.8635400706673126 38.6223928172265261   T   T   T
 16.9419066048838829 10.7822620031073626 23.6714337323555704   T   T   T
 21.4365514275091158  2.4883092145537629 29.1790450485216866   T   T   T
  2.7135069298545447  8.6873019896351824 22.3802907641131519   T   T   T
 14.2664324516194831  3.0730174652285402 26.3056881910818028   T   T   T
 15.5284919426630221  6.4614802665661637 38.4575922202811995   T   T   T
  9.6000904717847853  5.1374128641023988 22.8972949590533297   T   T   T
  9.8092926408512469 12.3232930758210468 36.0317344929943317   T   T   T
 21.9842249567521435  5.5182826650031052 30.2004655087808267   T   T   T
 -5.1887326640784188  8.6658990723724418 25.9876229317352561   T   T   T
 10.8737334096856930 -0.1241811535635965 25.0681072531046389   T   T   T
 18.2084315585079466  7.4114448367006442 40.2134045647859324   T   T   T
 13.2076774956628604  3.1583468322384154 30.3059308677623029   T   T   T
  4.2588929945452563  8.8906101214248796 32.1327892854733079   T   T   T
 17.4745320486345577 -1.7052944626682800 28.2440980434995232   T   T   T
 22.1194042383730647  3.2983061644063443 17.0432813469034166   T   T   T
 -2.1122367766649326  6.6310682083269192 14.4385843417843827   T   T   T
 15.5213850914569491 -1.2302840898949152 34.2741901109915545   T   T   T
 17.5239453760436206  3.8202830637315426 36.0396077966003503   T   T   T
 11.0689464145435252 12.8992322840857572 29.1025608224362387   T   T   T
 29.5233549423404256  5.6332496704079311 15.2820218770017195   T   T   T
 13.6030401602140607  9.5158626650378562 25.1464766809098457   T   T   T
 10.3610717511184482  7.8037447207904460 37.3207890891573584   T   T   T
 22.9992315290944020 -2.0110193199630930 35.6622169149667485   T   T   T
  4.0891048992415975  4.1419624697078783 24.4481660878357125   T   T   T
 18.6301220572084532 19.0606084190830991 20.1330699400060844   T   T   T
 17.0145282983805615  3.2561430382083594 12.9661631922524911   T   T   T
  6.4682988759419171 14.9558570522597876 30.5126742771873332   T   T   T
 18.9513860839969155  6.2996177678099858 29.0853580628935333   T   T   T
 -0.4456825900741486  3.9836761043159621 39.5136265782535077   T   T   T
  4.3133121656800455  9.5333728058518030 28.2496921300214510   T   T   T
 14.9221333739256092  5.6894605586078137 34.2576208378307570   T   T   T
 18.5829828091088700 21.7894113813281045 23.0833096115956771   T   T   T
 13.4788571238977983 20.2147350711656379 25.6761528650996205   T   T   T
 16.7347235217206460 13.4166697822682188 31.2275293045687370   T   T   T
 -6.9959620532779008  7.7223871349815294 36.5985802943584559   T   T   T
  6.6525247962770013  6.1131182112129618 17.7533993515208408   T   T   T
 19.1571900128032553  1.2001192064785533 27.8131372955668787   T   T   T
 28.5731807686381529  2.1147433864639482 21.4328507059274003   T   T   T
  5.0933199272414411  0.5633277263871040 18.0052542458969498   T   T   T
  8.1179800187660422 12.1065975413367415 29.8624877641348370   T   T   T
 -8.5843531222381344 -4.6525468843513424 40.4535921696693919   T   T   T
  6.4346078332448124  6.4330254760911609 29.3966916972599357   T   T   T
 15.0665251952136519 21.8812958547950842 29.0070572843965664   T   T   T
 26.7715124767709582 12.9626145520497911 24.1692396627757375   T   T   T
  7.7901591642299381 16.4607035668215822 24.8539239545622230   T   T   T
 11.8040107263821952  4.5823860761679995 32.4028876041328999   T   T   T
 24.4889832277115502 18.4576206341162319 36.6585105961651010   T   T   T
  0.2274215193386107 -0.2113805503099909  0.1742023787118856   T   T   T
 13.1523170553813671  6.8095669167680537  0.4410814902787268   T   T   T
 17.1656363544734560  0.9733055643329306  5.6624527086061960   T   T   T
  4.1179298792376873  7.8371840992184341  5.5497961276440693   T   T   T
  8.1391732564811576  0.7520723895206840 11.7429519844314409   T   T   T
 20.5599855783590471  7.8832626126169796 12.2567517402255852   T   T   T
 23.1941390523001516 10.9822757638483033  5.8449366969882339   T   T   T
 10.1161408579986158  4.6733164001139773  5.7181221087783580   T   T   T
 14.9773912612756810 11.4713996757952401 11.6039677096070477   T   T   T
  2.1486571163156074  3.9535400205661131 11.9575700237564231   T   T   T
  5.8588844183535222 10.9247627151211066 -0.0666229815408574   T   T   T
 17.5100092090786958  3.4216296316277215  2.1501678344345905   T   T   T
  4.1014515141459302  0.5539576611594784  5.7871200613235469   T   T   T
 16.3214373412420457  7.6510404167686836  5.9318732526805746   T   T   T
 20.9371713396615249  0.1922177086492984 11.6408678224838056   T   T   T
  8.1736254387569129  8.8062059373938748 11.7029182000546950   T   T   T
 12.4900402013239074 -0.7137171144005502  0.6182324887686802   T   T   T
 -0.3634419037921958  7.2302286196356844 -0.3884890211052361   T   T   T
 22.7210843085668230  3.9977032926016522  5.5223098641219153   T   T   T
 10.3708491033073447 11.7603521120930843  5.4729024102826651   T   T   T
 14.1807622188730349  4.1738648642451981 11.6771834837352930   T   T   T
  2.1087955805788252 11.4534930498581549 11.8732101157635288   T   T   T
  6.6653942532110229  3.7452544944666006  0.0224019690340071   T   T   T
 17.7243903196227350 14.0810558185751891  0.0630737246627642   T   T   T
  7.8509861992095686  9.0200082693446841 18.3078325203456025   T   T   T
 19.4541624232335195 -6.9367938897965731 18.8547562310689756   T   T   T
 25.0398625929002918  7.4735449675213559 31.7172202606460125   T   T   T
 13.0922569110690041 14.5294035817253420 31.9243466650276346   T   T   T
 16.5004288121699361  7.9506889613157385 25.3636015808484103   T   T   T
  4.3624025115918164 14.9953406325304321 25.2386300850487508   T   T   T
  6.2053401186324013 11.2442288144617013 31.4253123611826837   T   T   T
 18.9034516419620147  4.0332379142505648 30.9432874893675596   T   T   T
 23.4079547665204473 10.7756537782269302 25.2725679309295401   T   T   T
 10.6515185298326873  3.3716925348965470 26.2556418777325220   T   T   T
 13.6801358031913711  7.8182114718533544 16.7944742847468937   T   T   T
 -0.5978393717375649  5.4228872324147384 16.2272222018048424   T   T   T
 12.8272262349126276  7.4891456208091691 31.2201446497696828   T   T   T
 25.6196066933176709 14.9584964037686703 31.6555239492488241   T   T   T
  4.4387435218400677  7.6677887045942743 25.3598411643642585   T   T   T
 17.2613164505768069  0.5101309871911279 25.3776298323356180   T   T   T
 21.4471457113959119  0.0807774048384722 16.8207168024324432   T   T   T
  7.9363168907640596  0.2829170808004272 19.2807129343347512   T   T   T
  6.1000856966185015  3.6788949765805019 31.5760643738063429   T   T   T
 19.6246383168149521 11.1529421148011014 31.1861816728346675   T   T   T
 23.1300155922368873  3.6069938013169112 24.9707029830985654   T   T   T
 10.4455098593948179 10.9370200711074084 25.9067030151793638   T   T   T
 15.1617213997508991  1.7404535924538429 20.7467725355211030   T   T   T
  2.5576844316778899 12.4974739197896056 18.1839141262162940   T   T   T
  4.3179632310503484  0.4009087699360482  7.8472544205099162   T   T   T
 15.9455620932791167  8.1700722537257278  7.8409419639922193   T   T   T
 20.4383414173401547  0.3441431697989614 13.6371728739361746   T   T   T
  8.4727953632452984  8.6701748890508235 13.6341660234849424   T   T   T
 10.9586492274463154  0.6758894438122542  1.0016534822223393   T   T   T
 -0.0879848383488123  7.3841001421739572  1.7457067392260102   T   T   T
 22.6753651032838377  0.9279318099048763 10.7821069195018637   T   T   T
  8.8043313689565021 10.4599264819390108 10.8168204012715581   T   T   T
 16.4746753796842285 -3.8894009984120603 19.2025678917290321   T   T   T
 -2.6915721076493906  1.1191756359810419 18.2396043135734587   T   T   T
  5.1268962733431165  2.3559010544842107  4.9851568395863177   T   T   T
 17.6695318673399839  9.0890478011701408  5.1281286862868916   T   T   T
 21.1803576844434360  7.8028540414616705 14.3124461526170563   T   T   T
  9.6740850887973604 14.0341693503396954 11.0727798585074275   T   T   T
 13.3088287299460557  2.9822651898279662 21.0876808908355926   T   T   T
  0.8271238924978377 11.9691925992947041 17.4137251290619481   T   T   T
  5.2108304192805681  6.3825281348712837  4.4946016921425560   T   T   T
 17.7964011887818074 13.6965320550789222  4.8378505530774012   T   T   T
  6.3255565733958861  0.4234151815461061 10.9315013921874584   T   T   T
 21.5804158002985602  6.3780696062337841 11.2660605066316553   T   T   T
 23.8029776645524507 -4.7353954571607657 20.2578033776518680   T   T   T
 11.2946643493142211  2.1547532601206139 20.7836804753628748   T   T   T
 15.0774010200859951  0.9446995461840559  5.3681745962875729   T   T   T
  2.2703167476307407  7.8941697822817511  4.7557664342966071   T   T   T
  2.2183780042435437  4.2529922777499314  7.3159631416059510   T   T   T
 14.4414021867081797 12.0995682341759316  7.2945885577841532   T   T   T
 18.4165849820246734  4.4324768897670426 14.3996114376696305   T   T   T
  6.1685784967226232 11.6994388902356583 14.2944055023234267   T   T   T
 11.3675328151135897  5.8357498569264266  0.7468584400052986   T   T   T
 22.5338611254201950 10.8924839298266765  0.9606216008738788   T   T   T
 22.3320127617712387  3.8978330355310136  7.6085755178651375   T   T   T
 10.4171687960067327 11.9113485521349425  7.5702835861627715   T   T   T
 12.2774341540240801  4.6836270710083570 10.7593786031687522   T   T   T
  2.1908595983546353 11.2521237621111396 13.9495715017567310   T   T   T
  5.1601545888920599  4.6094483095877852 -1.4120952869344392   T   T   T
 18.7522713714534959 12.8294556025245381  1.6874800376685746   T   T   T
  3.6458315066900941 12.8587010278836829 11.5377674671505890   T   T   T
 15.2159352336670715  2.6812465285293658 10.8845671448432881   T   T   T
 20.7519833532297469  5.8867319407952259 19.4973847948100065   T   T   T
  8.4612234057755025  8.0000423219436190 16.6866269091162778   T   T   T
 11.5584896719934243 13.3383676875032755  4.8699415343380252   T   T   T
 23.6139087889076649  5.8202242866850726  4.8400420256182226   T   T   T
  3.2319651222530763  2.3317880660730954 10.9003647225480282   T   T   T
 16.1678983689793796 13.2765565033032580 11.3993861036075685   T   T   T
 18.6079867122766842 -7.3423988007891898 17.0470217447719605   T   T   T
  7.3328667981211639 10.8027380599792284 17.7508987987545588   T   T   T
 10.7711254510948589  2.9445693371260933  4.9862105096681821   T   T   T
 24.4046322622672491  9.2739108697796162  5.3843897048205838   T   T   T
  0.1207156335099761  3.8721720320308726 11.4146421717140925   T   T   T
 15.9518012073208180  9.8342182979848385 11.0416377066118034   T   T   T
 18.7424334363275449 -0.7185872229614109 20.2634589623566050   T   T   T
  2.4025568907507777 13.7772329345778175 19.7406095633596657   T   T   T
  8.4808048117769186  5.1120217573746745  4.4152052193548572   T   T   T
 21.4027978447627589 10.9055153044070252  4.9378360813171973   T   T   T
  0.4217164713384798  0.3361060790019990 14.1565568481083268   T   T   T
 12.3761997218661062  8.0004728631924440 12.7954004519006261   T   T   T
 16.2015780240490841  0.6198927999333217  0.8749752021011850   T   T   T
  4.0745244963952372  8.1489908035116070  1.1296080000617750   T   T   T
  8.2376138547549864  1.0473702103342062  7.2035361951402876   T   T   T
 20.7169750975190397  7.7579601835094874  7.6498784525212402   T   T   T
 24.5999841388827036  1.4465907707972347 -0.9368062480565010   T   T   T
 12.7252346634529516  8.7434684021626765  0.8527339090113200   T   T   T
 16.9026500079995543  0.8145109734286771  8.0968792735866231   T   T   T
  4.1095091612449686  7.9328243894715547  7.6033785909560381   T   T   T
  8.1420718532205036  1.3591540896923029 13.9912057551664333   T   T   T
 18.5686064661435850  7.6780979191309626 12.3907003747347240   T   T   T
 20.9463087474501037  9.6929474343342328 11.5298893431168246   T   T   T
  8.8226892743874323  2.7425388698565580 10.9677894756478516   T   T   T
 12.9438828187330941  9.8444401491344706 16.1681570390445906   T   T   T
  5.8239276331399452  4.1138908469429776 16.7776392051708036   T   T   T
  5.1206809374336464  9.6035879570525573  4.9052873514250059   T   T   T
 19.0987172362619120  2.1906246310629882  1.6982804975699504   T   T   T