Li P  S  Cl
 1.0000000000000000
    25.1819793006824639    0.0000000000000000    0.0000000000000015
    -0.0000000000000009   14.5388225279766061    0.0000000000000009
     0.0000000000000000    0.0000000000000000   37.2126966544236950
 Li  P   S   Cl 
 287  48 240  48
Selective dynamics
Cartesian
  0.7465069358608963  2.7098123435117767 18.6911395172615222   T   T   T
 22.1682916016540261 -1.7005377506941026  3.5268829875028862   T   T   T
 21.2581512012146980  1.8654946050709937  5.6533429979327563   T   T   T
 13.8188634005036270 12.0044831015946833 23.1180212857491725   T   T   T
  8.5922235665886557 -2.1261675310584787  4.4638316702754173   T   T   T
 18.3148716142486556  7.4565991038824215  3.6305049346718183   T   T   T
  4.4496352649014037  3.6249420664320540  6.1934937910948840   T   T   T
  7.3537846239121567 17.4581837907025701 19.0026900135145951   T   T   T
 26.0233008645710697  2.1643314672962441 14.1989424075029049   T   T   T
 -6.9232430271290353 14.8698008798543935 15.3326259399513702   T   T   T
 10.2137584736923852 -1.2995432039127142  7.5607982660256638   T   T   T
 20.3362977836634293  1.8519768402052836 -2.6586998775091093   T   T   T
  2.6943388981073766  1.1422490803230330  6.9886985342412258   T   T   T
 24.8973391709276406 13.3344164242738348  8.2482379959260808   T   T   T
 24.6107264955771079 11.9539803740970552 16.3265693271749299   T   T   T
  2.7221042067335417  9.8871835656575620 25.7205391408762836   T   T   T
 12.9673591969098467  3.5045324437982677 -0.9792441610204582   T   T   T
 24.3753152082851692  9.2000310002697177  0.4973107687375706   T   T   T
  1.8308134142773242  5.2141906774212483 11.4062883342377219   T   T   T
 14.9772800621238567 13.2124623499300036  7.7079545514278420   T   T   T
 25.9435448156165052  5.7859910470101585 15.1231699671828572   T   T   T
  3.1101663766997416 15.2908404639846349 21.2127747223753680   T   T   T
 15.6281178116596067  1.8090730711265561  5.2471022228968485   T   T   T
 28.0914032441667132 11.9243400218870050  7.4856054699793679   T   T   T
  4.2184274591491437 -2.7555139252824694  2.1980021785679722   T   T   T
 13.1649987561081172  4.8127425608109684 10.7121424028155321   T   T   T
 18.2570211550380535 10.4865269810743129 14.2291937019990264   T   T   T
  4.8018929929645662 16.7378998932958041 14.7902688641858830   T   T   T
  8.7481139231172218 -7.8596685942708797  9.3093541168913720   T   T   T
 14.6892022683447898 -2.2860757869268977 -3.1364538675022704   T   T   T
  3.1462638983039266 -0.3118369504226501 12.5345754926311521   T   T   T
 10.1547610670709574 -3.2075639124202389 11.8559623108338599   T   T   T
 14.9289648779399613  5.7247782417577282 17.8184597911155969   T   T   T
  7.9139986146903825 15.9794103186020493 15.5940875998712549   T   T   T
 11.1552112504227523 -4.7887932022323758 -4.9718540873161015   T   T   T
 26.2374232332463109 11.5749057458736804 -1.0822478871300580   T   T   T
 20.6813512691059813 20.5462495884539180 18.6839648200522603   T   T   T
 17.4166109919000007  3.3572854653767426 15.6333152036784835   T   T   T
 21.9608933857726001 13.0997015348323291  6.8826156618850680   T   T   T
  3.2044400235333708  8.9080332618763229 -0.2889925420233013   T   T   T
  6.7270088010273463 21.9594447665658876 18.3027387154764369   T   T   T
 24.8388725325883257 16.7027284716640168  7.1382614626722729   T   T   T
 22.4990530202448262  6.7806693754354743 13.8072101246588996   T   T   T
  2.6411694893978046 -0.3004167474220217 15.5020404050742311   T   T   T
 15.5054505155834583  5.3161189780819100  8.8497864279538963   T   T   T
  4.9851350622993635  8.9929187509992374  1.5499414856413127   T   T   T
  9.3058194083300183 -4.9620689790024128 14.8207671183590364   T   T   T
 21.7122562672898454  7.1674808672029355 10.9084660928953081   T   T   T
  3.2895577416179886 11.2731460751931412 21.5612512411965191   T   T   T
  4.5607932377250924 10.0033092428446206 11.9620033030469557   T   T   T
 19.7897089307880307 -9.0930159936610586 -4.3296121018398743   T   T   T
 -0.8968375541939038  0.4824720746810514 -0.4211199388914830   T   T   T
  9.9520822222346084  0.3173544433352785  5.1727859002410170   T   T   T
 15.0399922428835602 11.3355960800190196 10.7623229895862558   T   T   T
 -1.1969629646350983 -5.4836708399556668 17.1409773675547648   T   T   T
 17.7573160655368554  7.7807074753257952 12.7146359886174896   T   T   T
 16.6938925902016173 -4.9240998483086811  8.7687628562773732   T   T   T
  2.3354488494626846  6.2185245955548858  7.4765595519484780   T   T   T
  9.1736879781344669  6.0592770198138712 16.4835980019850901   T   T   T
 20.5057732114560523  8.8459065492843507  7.5023272746885805   T   T   T
 -7.6322670109789783 -0.2667182577111598 19.2979320684621598   T   T   T
 14.9734285871328350  9.5459098368319228 13.4349263112945803   T   T   T
 14.0915100901367687  9.3049054607051982 -0.6994045538231118   T   T   T
 -6.2626781380500223 -0.0622948122185604 -0.7837816159170705   T   T   T
  0.8887928701904616  9.8877107518775080  7.2811166672104433   T   T   T
 19.2450361518478346  5.1337293183415680  7.3488919087500095   T   T   T
 29.9154192392091396 -2.8358655993543866 14.3497493250868065   T   T   T
 23.2764263406584462  7.4954583623141513  7.8596768630490237   T   T   T
 10.1576537555699318  2.7001462713872955 -1.5687017963076728   T   T   T
  9.2150632407555175  9.1390512731240250  1.3153372215754091   T   T   T
  7.2036714209609860 -1.4898903669095314  1.7359638544753808   T   T   T
 14.9819037245826649  6.6252287102681580 14.9633474766656818   T   T   T
  1.2115335725136613 13.0615914109796041  4.6846986883125146   T   T   T
  5.2684134340828157  0.8142451223819400 18.7113396255914957   T   T   T
 25.2479455007738700 11.9219674602677994 20.3857191813524956   T   T   T
  6.4452705776914803  5.9822109020854324 22.1976948854524458   T   T   T
  7.0871869525509315 15.6944704126627226  7.5849836751552511   T   T   T
 26.5647885521438631 -10.6449351194712083  0.4126259280469912   T   T   T
 -3.8279454591036188 15.6099474756904009  1.0341309812512951   T   T   T
 19.4797408001344117 -1.7914235437290018 -3.7846696662237425   T   T   T
 14.3092590803714703 14.0943803424864491 16.0269132707151876   T   T   T
 -5.2500532200995043  7.5037432886898703 22.2568343537280207   T   T   T
  2.9955471954480237  6.4117461423358009  1.7730158608465405   T   T   T
 28.3106203442288340 -7.2277201965352953 -3.4799634956919991   T   T   T
 -0.6975783361644745 14.0143048292101273 22.2279921054448550   T   T   T
 11.5988019751787981  3.5092090998525651  9.3192962143957399   T   T   T
 14.1688114990928646 15.4567986777881643 18.8311615191569430   T   T   T
  1.2939072961198577  9.7380708185976133 13.6543313184572419   T   T   T
 13.1745235552856546 12.0383680525524195  6.7744766939608274   T   T   T
 18.5205087110215096 -2.9399319254970773  2.1033144906672434   T   T   T
 10.6712557113370803 21.4201759042147373 12.1116935562396755   T   T   T
 19.3051660245751755  3.4323559183206820  1.6880341074294756   T   T   T
 21.3166023106918914 13.4408963708668718 20.0554509594430428   T   T   T
 10.4595179314017521  2.8818866265925873 12.2006531198280825   T   T   T
 10.5817592855676263  4.1548428927729386 -5.2465662530911832   T   T   T
 25.0559900242365181  7.8670312995587208 11.2913421434980972   T   T   T
 -4.5630674733677257  8.9854264166048843 -8.2925513939662121   T   T   T
 27.0019344576081366 16.6623163945658348  9.6543332760224914   T   T   T
 18.1497605943534737  6.6470832688577319  9.5631398708968742   T   T   T
  3.7620873594050508  4.8590833524305843 16.2522128945693254   T   T   T
  9.4063845444037817  9.3251723748054243  7.8982607963022016   T   T   T
 23.8846715835344803  4.3731625108693519  2.2090260209060544   T   T   T
  1.3068706870057749 10.3309492310234088  3.6616308350397166   T   T   T
 11.0145360154259500 -0.5784139016763908 12.7592075972204135   T   T   T
 23.2582042951555721 13.8231387989167462 11.4266447312158892   T   T   T
 -2.8187357561453545  2.2424156359083312 18.5426207584855689   T   T   T
 12.5170675255936796 12.7533192348470124 -0.8135866712138756   T   T   T
 29.2681955917175323  3.4416756169913749  9.2457023289323814   T   T   T
 21.9077590806148770 10.9295806654956547  9.4778744500388719   T   T   T
 11.1294965725992121  6.2893129904499725  7.2197466800037935   T   T   T
 14.6479977413889575 16.3098167630334316 11.6081810836204831   T   T   T
 21.0851108052816372  4.3642095445580189  9.3260750901067713   T   T   T
  7.4262876707866567 19.3183049673262204  3.1351562016299832   T   T   T
 12.7630767807576291 10.0398831776915305  2.1578896023947327   T   T   T
 19.7755273582194526 -2.2300356318718624  9.8470072263058697   T   T   T
 17.3711492479394956 13.7718720332966171 12.4183495435572464   T   T   T
 13.8062542779915383  7.4436549017906488  3.2919330306040688   T   T   T
 22.5872209843571135 10.8957245876859314 13.5673800247766625   T   T   T
  5.1570761752924126  2.0495984812322638 -0.4530175874025211   T   T   T
 10.7732101246755079  5.4807074595457470  1.5826716466492374   T   T   T
 12.4300202900948751  3.9805093275896568  2.6259694340835100   T   T   T
 15.4461519864254573 11.9690285213712517 -0.1915267616393025   T   T   T
 12.4565937278384293  4.8264002200546345 15.3577666548635445   T   T   T
  1.1438519622217413 17.8141631435110170 23.1949193698753184   T   T   T
  6.2040723843627692 -1.9605401625973724  6.4283824917026200   T   T   T
 21.0949302981098334  9.0310055199870920  4.0833570729026167   T   T   T
 20.8521191857428079  0.5804139941165604  9.3438852126613821   T   T   T
  7.8462500042876018  4.7744908245539239  6.9795976663317481   T   T   T
 13.0846588041751239 -0.1789309905853948  9.8467289779641796   T   T   T
 12.8877075315960550  2.5207431580766477  6.7899566411531227   T   T   T
  7.5649287533827669 -13.5580560961134697  0.3358126191679289   T   T   T
 15.8961442344332404 14.7285730826115540 -2.8622150285000991   T   T   T
 31.2507787845402696 15.2899899971842750 12.9195649163697528   T   T   T
  6.7052736609067862  7.9496706610703605  8.2830995269348922   T   T   T
 12.7252146832936823 10.8502351826960357 16.8045274464186143   T   T   T
  6.0674674473554502  7.1324175004540429 14.0723643030312342   T   T   T
  7.7783934417097242  8.7745820404383075  5.9339859543617814   T   T   T
 15.8332709097408024  2.1446671329124443  8.3381237619878945   T   T   T
 13.3128295646665684 -5.1711282816864479  7.9092823572437565   T   T   T
  9.9119785345543292  7.4836205294156244  4.4399004902088723   T   T   T
 19.8956830602182890 10.6201513376869379 18.8933290659127415   T   T   T
 18.0342393653096877  3.5393364630473649 18.7284231893226689   T   T   T
  3.3273206386472216 -5.8213338527918497  5.9052726869994805   T   T   T
 15.3954015079494031 12.5978742126579970  2.2643859874483714   T   T   T
  4.0068814476563546  2.1012072796672316 30.3033933945168634   T   T   T
 15.9650910298272795  1.3781785482884121 28.5039148824980373   T   T   T
 25.9916062617907251 -3.9166758808801463 31.2647870086736077   T   T   T
 11.1879082485359156  7.8008416230343851 18.1669888272517852   T   T   T
 11.0868205551481438 -13.4636853116294954 39.8685692100195865   T   T   T
 -5.6804799983096812  5.7319181161160859 36.1598343500383663   T   T   T
  7.0805138770434901 13.7061996369925474 29.7716523121924368   T   T   T
 14.5979486760971024  1.3770313409879993 24.0598650123837068   T   T   T
 25.4558778671640020 15.0757334172325983 24.8532134900816288   T   T   T
 13.1555642409941864  1.8294872004625851 14.7956465131194435   T   T   T
 21.8640698631358532 13.8679217713694101 25.9798685220224534   T   T   T
 -7.4251850143286813  0.0292091492288752 39.7609272350232175   T   T   T
  6.9515969956070141 16.4701958757394138 29.1898904458786177   T   T   T
 17.6528072830209020  8.0951002388633118 27.7473411591578305   T   T   T
 29.6854973527130390 13.0167781721040949 30.4807645931626681   T   T   T
  7.4181104941337130  8.9807330353363817 23.5748578949193153   T   T   T
 21.5636052169577610 10.3348705865452608 33.6908257837878296   T   T   T
  5.8990156728299876  8.9269948358073616 32.0719925128858847   T   T   T
  5.0724711645662763 -1.6542921320768909 27.9283419241684356   T   T   T
 20.4311715836168446  7.2319083371199593 30.9675565229914866   T   T   T
 21.7187095828538332 19.4336070879379790 16.3467624312891111   T   T   T
 10.8752095469812229  8.4534455201499732 22.6872913217951506   T   T   T
 18.3411767837378896 11.6495977817576044 35.8450285220893647   T   T   T
  5.1154833487041884  3.2411012055513648 34.3687016968145826   T   T   T
  6.6556432424485044  1.1705373165298623 31.9499551258620578   T   T   T
 14.0790235818707963 12.2943983534149659 28.3084463199336227   T   T   T
 19.0417352270661198  1.6930323812642696 11.2767368895078306   T   T   T
 15.1347472245650199 10.0298221771745055 25.9578990302035280   T   T   T
 12.2226010253903326 -0.7319033864670700 34.1339820240177971   T   T   T
  2.0043159370812282 -1.3126959280623947 33.8048387650166688   T   T   T
  4.8927596410600298 19.0103205189199826 38.0793404197647902   T   T   T
 17.0862370588487167 12.7093348307654423 25.7010844231738176   T   T   T
 26.4407105948619758 12.2115456929627424 28.5402769000474059   T   T   T
  8.9075790066347977  2.4975735936239047 24.5101273447694084   T   T   T
  8.2815212135703309  8.5841548931657403 34.0722364967911346   T   T   T
 12.7184507529319575  0.8829182230905018 37.4693483864268160   T   T   T
 10.3633450585357938 -1.1791062249999535 38.3295965841893747   T   T   T
 15.6995665688011048  9.2665050606428334 21.9310147647615672   T   T   T
 17.2698731794117784  2.3138882732093182 30.2938418621231911   T   T   T
  1.0004078562884995  9.1017524913865664 33.9453570490367440   T   T   T
 11.1425688034938357  1.6153613010847927 29.7434312253505198   T   T   T
 31.8028449031034626  9.1044081808466402 28.8522740607344481   T   T   T
 -11.1774095413102419 -7.7330648267040072 25.1785558396642841   T   T   T
 15.2391145178649854 18.4789731454370880 13.5620128133118634   T   T   T
 20.5847107691828377  0.0135739566411713 29.9327787929199509   T   T   T
  4.7178927263090547 17.4603051087268426 40.7867741319259522   T   T   T
 10.8805303030500458 -4.7876732143769427 35.2769158142154282   T   T   T
 17.6604271616562620 11.8841762312855650 21.5443007841285628   T   T   T
  2.4583319400683545 -1.5714445914793442 24.0964434735292876   T   T   T
 15.9470479048171416 13.5997510878273946 22.8385877217875333   T   T   T
 17.5633127365072497  9.8046371627348954 33.3167284407560658   T   T   T
  1.8085261093887433 16.5169624354804299 35.4496931658699452   T   T   T
 12.3058906951637628  6.4026786610390802 29.8827859685957478   T   T   T
 -1.5617249201842025  9.1153683641328360 30.2773574775271221   T   T   T
  5.8453181537174217  2.6773352807720281 23.1085196357312306   T   T   T
 21.3343149979239541 18.3274488557000410 24.7638254981499770   T   T   T
 15.8373475086898310  5.2525323713923981 41.7917176041028711   T   T   T
 15.8704226374938635 14.6261111088491038 37.3159326847717381   T   T   T
 13.5827956385706035  3.3588819966540835 28.1956306926247890   T   T   T
 -2.6401678289265371 11.5979132011930393 28.6501500525293800   T   T   T
 10.7534827456573883 -0.4444673135199436 16.8336332491513652   T   T   T
 21.8702509297933538 13.2402411892479073 16.6002195961783272   T   T   T
 24.4590336721053774 14.7303040526025431 40.0115811589397765   T   T   T
 11.8931061053131923  9.2987488163725747 28.7932086349217791   T   T   T
 14.3348249116766429  3.3971466347842596 30.6938953412184503   T   T   T
 -2.7857897418968851  5.6384132765675785 21.3921937853434869   T   T   T
  3.1999907970760511  6.9325047195079392 23.5790118204974526   T   T   T
 20.8601009214135900 13.1408273676744773 22.9097251084769340   T   T   T
 27.7136474076162180 -0.7861080132572285 37.7878889389569821   T   T   T
 15.4249373987629816  7.6962393829153815 33.9396938476253780   T   T   T
  7.7800110581742130 12.0192361870656335 19.0533981955301535   T   T   T
 23.7941270170305401 12.6292804933485083 31.9915957480688640   T   T   T
  8.1111729156202816  6.6652204461331213 29.9826338346821331   T   T   T
 14.2086498869578897 -3.8011295181409781 30.7625143384727906   T   T   T
 24.1479489521544117  6.3316835441909580 23.5346375154805507   T   T   T
  8.1959484463585266  0.0803468651884182 22.5926630575106309   T   T   T
  8.8504077198370616  2.4000189283318951 39.0702381240321159   T   T   T
 -7.5163595412629611  3.4514758911793320 37.5306283962823670   T   T   T
  5.5938890221071826  5.6983735872814245 28.2500475184208391   T   T   T
 19.6244079075154936 16.1099939406404360 27.9838939368004951   T   T   T
 20.2122933143844321  3.6086950701749956 13.0301880574834001   T   T   T
  9.5807036138975548 12.7916683118979471 24.4098646654281950   T   T   T
  9.8977046396682837 -2.1956087034835092 35.0676296446483633   T   T   T
 -0.8016086331904625 20.7292079712991537 27.9325390620277503   T   T   T
  9.7163691029119335  5.2895703025830851 23.0936520561594669   T   T   T
  8.3203606979327702  6.1222293071832325 26.0145726720762767   T   T   T
 23.4147739112978606  9.5587295586186034 23.6616915355465984   T   T   T
 16.4724244610227615 24.2910348253927353 17.0228071743989098   T   T   T
 17.3083649246807028  0.0457478796096710 31.5887259420638884   T   T   T
  6.3975188029823524 13.1353193039677194 33.6207922444859122   T   T   T
 -0.1758960414758364  2.5203105981220579 27.8666021070429082   T   T   T
 17.5316233984679215 20.9432003974209735 31.1945470810256964   T   T   T
 26.4671169001915239 14.2280779237980575 17.9985491682126124   T   T   T
 11.0782104360043441 14.9116491049417021 22.5344632574481949   T   T   T
 11.8830112503576650  5.9382944707782501 33.9616283355118469   T   T   T
  1.1310209610144188 16.7366293532630621 39.6046445176978636   T   T   T
 21.6778391487962558 11.0382674099741553 37.2107454332997207   T   T   T
 25.9967747576085308  5.8351638808023214 21.4289282877943634   T   T   T
 18.3014424313583177 -4.4306111500918490 23.7353314650942124   T   T   T
 22.3151889153797462  9.1494067535209549 20.4997619195174714   T   T   T
  8.3371009811750572  2.7320040445344884 47.5129279466226109   T   T   T
  3.8021234848645036  8.4245394084412819 28.6265715026922081   T   T   T
 23.0876216332207562 16.7869267563993176 30.6124494879345797   T   T   T
 21.1899553884184897  7.7576233249711022 25.5057240173606239   T   T   T
  8.2146272537337364 14.8118416170532257 26.0064501419325360   T   T   T
 15.3681152051083387  5.7747274284980641 37.9695669023655853   T   T   T
 -0.8029854955692348 15.3341433619586471 33.7808801395145508   T   T   T
 22.4652305556931253  3.8435790816630759 27.6247890910554759   T   T   T
 12.1070892815475606 12.4701407281423542 31.8170106654202307   T   T   T
 17.8077086631853163 -2.0478987087136327 29.0228323602192866   T   T   T
  4.4975333289509427  5.4060069388893304 31.2104661931790481   T   T   T
 10.3918550281640574  2.2872079551287432 54.2902769784777774   T   T   T
 22.6926294418687853 17.7677083688168125 36.8370646465457128   T   T   T
 23.0343849736714503  5.9983393365308819 30.2573651461101569   T   T   T
  9.1840411382987650  8.9503855484970174 26.1676951999234220   T   T   T
 18.0884716905041927  6.9066600738102881 16.5144239902496288   T   T   T
  2.2262325144417607  9.0624757232713744 17.4515426922721630   T   T   T
  1.0423272630474196  4.9614205973411831 43.1874723247616856   T   T   T
 16.9988533447323391  9.8474049575717650 37.2526719061265652   T   T   T
  3.9934856962994925  2.0270296765599998 27.5677147221124343   T   T   T
 13.9769762642483091  7.4140537099679324 20.3517551352408468   T   T   T
  6.8727969393631305 10.9945825003340119  9.6733914288935754   T   T   T
 14.6624081438141225 17.3388862990358987 17.1035882777687256   T   T   T
  6.7219665147869136 -6.9093700619361273 36.2256227606596610   T   T   T
 24.5024020967100284  6.3319302534996327 36.6481253889153180   T   T   T
  2.4046868540119095  5.8221954501177979 36.4995519975398395   T   T   T
 11.5667864195558323 13.0467502922778511 28.0029353469902809   T   T   T
 13.2957501788644628  5.2053143377837969 22.8156304917172399   T   T   T
 11.0428073692931576  6.7153372739933364 26.2582126566155587   T   T   T
  0.3744330692383324  5.9275271673879102 34.0084658228821155   T   T   T
 15.0203453576169998 10.6837871768940396 41.4286006827923359   T   T   T
  0.8466413414209413  4.4411225126802405 30.3183728838488058   T   T   T
 18.4066003799507492 17.5173357596137507 22.8541974324968820   T   T   T
  9.2395357211005980  9.1385344890248650 20.0366282488477587   T   T   T
 10.7588679167173300 16.0469008636661883 26.3860764822138911   T   T   T
 18.4409705850852070 14.0605524805669475 42.3832370032413195   T   T   T
 24.4882065419880206 13.8341578382012891 28.6966606133656654   T   T   T
 19.6899473523858681  6.0230055381397447 28.0100209671905205   T   T   T
  9.8297615426434977 10.7986207918641579 29.1977644333646182   T   T   T
 10.1744976942337146  4.4755212432206095 28.9120351898673142   T   T   T
  6.1716655562055402 11.8942550040124946 24.2541363371576111   T   T   T
  7.7067797717075610  0.6665969240432043 41.8535789063459021   T   T   T
 22.1186406784582203 13.4191211331026299 35.5034668787553898   T   T   T
 -3.1503025548827064 -6.9796137012412087  0.5126304969150698   T   T   T
 11.6508458354690791  6.9742002046750020 -0.3601317712026371   T   T   T
 18.5038752661705388  1.0860797988535782  8.2483233961776676   T   T   T
  4.8506205020686348  6.7766997866933316  5.3896806558053489   T   T   T
  9.0003662487462002 -0.4424034521204050 10.7806807860842220   T   T   T
 24.3975207595394572  4.7668724281234365 11.6207857381562363   T   T   T
 23.5102346533397437 10.4607261707330395  5.7564373586467372   T   T   T
 10.4934394386263570  3.5926278144545361  5.0460549238187973   T   T   T
 14.3725927658729304 12.8958003155710390 12.6918650459997586   T   T   T
  4.1281336566667548  3.4835626845990060 12.4100994504365207   T   T   T
  6.4796905451936571 10.2547799872396688 -0.2178014702925556   T   T   T
 15.0205599216983874  2.7571890830806711  2.1026302778236978   T   T   T
  4.5799960888583069 -0.0359689357487192  5.3033517705284918   T   T   T
 17.5108140701884203  7.3504583916316601  5.7998134549590032   T   T   T
 20.3137497109449008 -1.5066281567037505 13.9454550772861463   T   T   T
  8.0753668544740993  8.5487099735901619 11.3902850567074374   T   T   T
 19.9869785198522472 -6.6486058448020557  1.6398000131805384   T   T   T
 -0.4302377910604903 12.0233244014706653  1.0215049234235192   T   T   T
 23.2680525561179508  3.4008890057495811  5.0496075286605375   T   T   T
 11.3817759952052011  9.9873515202317140  5.4516045550102588   T   T   T
 16.9189677409011630  4.4144059572644805 11.4515207705723725   T   T   T
  2.0765087497082599 11.1657789407830244 10.6049671275528112   T   T   T
  5.3830815926796243 -2.3202416178876786 -1.2298149107654228   T   T   T
 18.2888858831053120  7.5315796510513735  0.1692094515063664   T   T   T
  3.5329956386624515  3.9229069176495397 20.9886856955996883   T   T   T
 15.3682726504796250 11.3941419698413995 19.4949311203218159   T   T   T
 20.1838614789268540  3.4455506447927955 31.0133453582779595   T   T   T
  7.5149333394301729 11.5292422433285040 31.3431093413048423   T   T   T
 12.1069413472258010  3.7627206516845004 25.6822594015413266   T   T   T
 24.2912965163369030 12.0260702148029868 24.6722730506954484   T   T   T
  1.2339722276405263  7.5992437710424960 31.4444469299979374   T   T   T
 14.3690335137521910 14.7931587014524144 31.0402145901261228   T   T   T
 17.9702542586366860  7.3780018199562427 25.2245623494490268   T   T   T
  5.5625278604238080 14.9134310765195846 25.4563552271731197   T   T   T
  9.9128306167769296  6.2733339849250918 20.5565698396936014   T   T   T
 21.4254026485209081 16.9306302293916460 20.7202895363183259   T   T   T
  7.7020858921667532  3.9423813136152037 31.0163220193139288   T   T   T
 20.0773181147122735 10.9812852234031268 30.9732329170258112   T   T   T
 24.1115735321518159  3.8039880242474915 24.9813927246548957   T   T   T
 12.0114837679252879 10.8313657198682307 25.7083679702072558   T   T   T
 15.5585757681551762  4.0405993694349238 20.4714821552071058   T   T   T
  3.1131935776198629 11.6181775049655283 18.6772516766615837   T   T   T
  1.2342679432331065  0.5101279906417058 30.9839645444715153   T   T   T
 13.9227106770970241  7.6079456007595745 31.5555972820160235   T   T   T
 17.8679915751438614 15.2173552139993600 24.9972332409339835   T   T   T
  5.3949543918640845  7.5220537950967419 25.4619554717128374   T   T   T
  8.7737928354577335 14.4936948177440676 19.7903498522764494   T   T   T
 23.8470775957360779  6.2192196181601389 17.9924664742048890   T   T   T
  4.1720020702920886 -0.5181892188863302  7.2343908502215211   T   T   T
 16.6083637721852746  7.4603841828793360  7.7310604151803108   T   T   T
 19.6656957032508259 -1.8290984232287335 15.8144382594298953   T   T   T
  7.3514178421927578 10.4932635792847986 11.7434145171432576   T   T   T
 20.2036860936979359 -4.7079822761574714  1.9769163953059350   T   T   T
  0.8861965541065278 13.2592384746329177  2.1446579874358860   T   T   T
 22.3758050867253289 -1.2549335719041923 13.8946205937336273   T   T   T
  6.7956541756712339  7.3562889089654790 10.4425238833647818   T   T   T
  8.7484909808771949  0.1603831502561367 17.7622764870610155   T   T   T
 -0.9463666997646877 15.5371823585421716 17.9503620643434623   T   T   T
  5.7598370927458493  1.8227221636513207  5.4675338788536791   T   T   T
 19.1112768649039033  8.7801181182585246  5.5258001520260409   T   T   T
 25.1103765063763689  6.1354124316206171 13.0158201154650843   T   T   T
  7.2894832857175578 15.0946946531101265  9.9714745129648943   T   T   T
 17.2943617303792294  5.3163948280107149 20.3408958952777894   T   T   T
  0.6212294381435952 14.6280157928539580 20.5024088888147773   T   T   T
  6.0434416242523765  5.0937191642666715  5.3177070014925798   T   T   T
 20.0839185261947293 15.1379518025403588  6.9542297985520971   T   T   T
  9.2502551318555035 -2.1950467403121752  9.8154147536645517   T   T   T
 25.4025307874423447  2.9968023478040489 11.7482522679647801   T   T   T
 24.0509232538035569  0.9893547805963578 15.9925938978960716   T   T   T
 11.8118071924847818  8.1353273373474622 15.7250500213627102   T   T   T
 17.5658253864335734 -1.7985304316014223  0.4768124876172303   T   T   T
  2.8550666320738411  6.6030776610928603  4.8831949648542832   T   T   T
  2.3748701320162846  3.7673750046265519  7.5819712146767611   T   T   T
 14.9386038724328820 11.0688298357209014  7.8860522378379452   T   T   T
 16.9002613974158891  8.4161720100583040 15.1201761148590013   T   T   T
  4.9782254294862760 14.0298362882484291 14.5142849116866977   T   T   T
 11.2525889115606521  3.2763376560281081  0.5953248957296001   T   T   T
 22.0086794485630115  5.7865952371910794 -0.4543015088401990   T   T   T
 23.6137501519607227  1.4240654151950010  5.2147336495060888   T   T   T
 11.2419789060619344 10.2521198770157405  7.5419108810396791   T   T   T
 16.7389329675384140  2.6923633245925980 12.5934263469910501   T   T   T
  1.4153772595113281 12.4430258149415600 12.1416350202772474   T   T   T
  9.2058854131042036  0.0150018212754242  2.6932005442471287   T   T   T
 17.7376889948892646  5.7694623799545068  1.5015530377804480   T   T   T
  4.0673127322438161 11.7584778102484471 10.4263636962428947   T   T   T
 18.4544883847203494  5.3537954686338018 12.5323442380220289   T   T   T
 22.8619311525417324 11.2819744938593125 19.9480096905457671   T   T   T
  5.1382180845881047  5.2877507836855431 18.2823371594633137   T   T   T
 12.5443912339620969 11.5323637275883666  4.7208601565797350   T   T   T
 23.0621688497383666  3.7304901379289008  7.0907434293506437   T   T   T
  2.9284746499963559  3.4305538111643368 14.1272652024549377   T   T   T
 15.9163011818304199 12.1563049531580951 13.7602677305974872   T   T   T
 20.1194938076603513  1.8783339958560754 18.5104326052558434   T   T   T
  9.1192700432275178 11.2263033292145487 16.2485527797032105   T   T   T
 11.9695170736352789  2.2111009511074493  4.4790645998735839   T   T   T
 24.4091301798891358 10.4388740733756791  2.4446429483318917   T   T   T
  5.9964065934557151  3.0679384741137827 12.9703457270130063   T   T   T
 12.9391253378606326 11.4897961290272921 11.9779188477329974   T   T   T
 20.0529319756358291  3.7337428025026087 15.7498469274628334   T   T   T
  4.6974257534271553  9.0849695587505455 14.0044033905532395   T   T   T
  8.6185845478560363  2.9825564338153936  4.1773852247385266   T   T   T
 21.4577894006755265 10.8899225411216101  5.2227274795776237   T   T   T
  0.0237292009134732 -0.3158510593636443 14.8817254014701970   T   T   T
 12.7588587338367123  7.4025966025884316 13.6971902731252744   T   T   T
 14.4772859833904270  4.7901398123737522  2.7024023890482125   T   T   T
  4.9176813261921328  7.0259813824619952  0.5297983940383965   T   T   T
  8.4093903148323061 -0.6647596463837221  6.3178406996569274   T   T   T
 20.3861642669545695  6.4710970996415016  8.8316612497215701   T   T   T
 23.0408119931294451 -1.3600740421360864  1.2009585095909927   T   T   T
 11.7101478801868986  8.0182268063720556  1.5791329544660417   T   T   T
 16.6824035781067757  0.2354027328068169  7.0907018659422496   T   T   T
  4.7948243988767674  7.0453649047656546  7.4931198995642179   T   T   T
 10.5750969393663432  0.9283285652368096 10.7408249233948236   T   T   T
 22.3522248105024097  4.8425832312206909 12.0810769237075899   T   T   T
 24.6919504246186889  5.7124840273264113  9.8184723590401735   T   T   T
  8.5079490231416290 -0.8398467919619877 12.7974340356859688   T   T   T
 14.7741844777181850 11.7695697792248311 17.4886139422563218   T   T   T
  5.8474532785249744 -4.6965073660102625 18.8329373015740735   T   T   T
  5.7608178114442943  8.3251711582415346  4.5984110143670174   T   T   T