Li P  S  Cl
 1.0000000000000000
    25.1819793006824639    0.0000000000000000    0.0000000000000015
    -0.0000000000000009   14.5388225279766061    0.0000000000000009
     0.0000000000000000    0.0000000000000000   37.2126966544236950
 Li  P   S   Cl 
 286  48 240  48
Selective dynamics
Cartesian
  1.7424191408033030  0.2168933105936358 10.9416843639269494   T   T   T
 13.5975638671057268 11.5356462914937126  9.3159546691494910   T   T   T
 14.6177573031129331  1.0831447841111330 15.2421445771932813   T   T   T
  5.6412475685549470 10.4118358655802101 11.0211672542423607   T   T   T
  9.5851679158448437 -4.8546094813619760  2.5580326448949542   T   T   T
 25.7080489931860043 10.9865960431619065  3.1836875728518312   T   T   T
 -3.3326044949758988  5.3957548932946331  8.4043156330795874   T   T   T
 10.9879033131732644 15.8899703985626815 14.8089948601325059   T   T   T
 18.9222622970609677  2.8132755606044242 18.7934764291322445   T   T   T
  6.2448692728212878 13.3384074474237622 12.7366689446962269   T   T   T
  9.4034385151618647  1.3905973967561893  5.2694101695320557   T   T   T
 18.9913343276737336 14.4529063363259755  3.2104376568392996   T   T   T
  1.4861144924522856  2.1023237474998608  5.6501787129510808   T   T   T
 17.0490055488776093 11.8433768603726346  8.7623117098026135   T   T   T
 18.2673330519260873  4.5779689737983436 11.0911639581675363   T   T   T
  5.1960674568334371 11.8520750056765678 18.7290767938534550   T   T   T
 13.9298671865372796  2.1063374675415396 -0.1189892526619665   T   T   T
 21.8200700819678204 14.4528645509726630  0.5042588008018912   T   T   T
  4.3484001418265406  2.5533483135068731  7.8291722856568464   T   T   T
 20.3737981798931358 11.3820461537685897 11.0561047571371684   T   T   T
 20.8986448118135471  3.5031036598411940 10.8378149174277993   T   T   T
  8.2412307465375676 11.9974757802429863 14.6269529934278371   T   T   T
 16.1427329218270188 -1.2321976853491317  2.9745253883344671   T   T   T
 21.0017377557337710 17.4945007246579323  3.2293078100807580   T   T   T
  3.7417062777162644  3.5925542907187515  4.9202183121391174   T   T   T
 15.2065893368495413  8.5460992609367139  8.6818143153852017   T   T   T
 21.6685525979736369  2.4966612419597403 14.1275543355892275   T   T   T
  5.0101151864349323 11.3115399694408651 15.0956577584443608   T   T   T
  8.9234783231831774  5.1515172815807873  0.6049047129912202   T   T   T
 22.8106815871699453 13.0846648334938358  2.7619380656091916   T   T   T
  1.5151771198953325  2.3382488895728808  8.7722383426366761   T   T   T
 14.3015302247192491 12.4993016213246264  6.1968985830352796   T   T   T
 19.4448648568604483  0.6263319231102726 14.4758255221038112   T   T   T
  5.9509810520872568  8.6869478130284516 13.4629426728676602   T   T   T
 12.0264178053323221  1.7511786721050255  2.5451771798341931   T   T   T
 24.0392945716169777  9.2708695989253833 -2.7766501830581576   T   T   T
 24.1967441880913654 12.9254739483395333 18.4034053349014286   T   T   T
 15.3310860955306385  6.6416803294464950 12.8329698408172330   T   T   T
 13.2687199904045379 12.3124074297696264  0.5233837267962280   T   T   T
  2.2595637956171486  3.6921748508298604  0.3283359603313968   T   T   T
  7.6521595280969086 13.4713264212151849  4.8481900102154478   T   T   T
 19.4490197713761788  5.8586985688011159  6.9631003612770019   T   T   T
 24.9264600524922102  3.3328931467350564 16.2533977846151920   T   T   T
 10.9809719497768707  8.8599001291265456 13.6203894605463969   T   T   T
 18.8050763546176114 -1.7537922771892054  0.3396204793174422   T   T   T
  0.0845257781104624  7.7721446823975420  0.3747312855017812   T   T   T
  9.5005374954059434  1.9652038758452275  8.5638089166764093   T   T   T
 17.6702828766592717  1.5256351054545327 12.3390833964042361   T   T   T
  2.9346012702249098 -0.8271371412200944 13.2689718800494276   T   T   T
 14.7278487723884552  7.2180219938738217 15.6971860784376833   T   T   T
 16.8262814957644835  1.7829246746837897  2.6695231625407994   T   T   T
  4.2414811627713132  4.9547929366185519  8.0432950500227278   T   T   T
  7.5497509959804434 -1.5254624136317638  8.8014396780281068   T   T   T
 21.1591631246009300 10.1729907086322644  7.3883003589562914   T   T   T
 -0.8137022548384071 -1.9486388857686834 12.2672696738614881   T   T   T
 15.1951252640141590  5.9396964981931095 19.2865639656241328   T   T   T
 16.3785377790827482  2.7113698855758117 -2.6112399734723883   T   T   T
 12.2724692972404945  4.3963459957330917  0.1305873550088637   T   T   T
  6.9161251703013606  1.5103552207376161  7.2426710862840684   T   T   T
 19.9550769598266839  8.1586866167189172  8.7955337505049513   T   T   T
 -0.7835494674288851 16.6940687890091723 12.1430568659079796   T   T   T
 10.6362718617071028  5.7094489586612331 13.0565411452502680   T   T   T
 16.9004866347523546 10.4331096372245078  5.8388315845294052   T   T   T
  4.0760877363040651 10.1956971381963459 -2.5278772700151588   T   T   T
  8.9175045666382484 10.7905612215422604 11.9821772906531674   T   T   T
 20.7165309118341057  2.2676555376948055  6.7578962127428026   T   T   T
 23.7955065436593785  0.0984170498478845 14.3936200516896466   T   T   T
 12.8610905300603324  4.7859198264951717 14.2014952466085003   T   T   T
 13.9441673991539794  1.8665719128064102  5.4802026289755776   T   T   T
  0.8445770374411476 12.6533189172020961  7.0190405787112722   T   T   T
 10.6803789926511765 -1.2275670524056683  7.9149390458518196   T   T   T
 19.6762027931947117  6.0093445874412996 13.4218566306265945   T   T   T
  0.5686159130460916  9.9143287265048681  8.6233474966625820   T   T   T
 13.2177216944818365  3.5820445837116299  8.7969135957379940   T   T   T
 18.0116986386247291  9.1712250433439486 12.5525750538794565   T   T   T
  7.3003159108350451  4.1657900033128517 14.6818325992145162   T   T   T
  6.4969008746163501  8.1749515978646503 -2.1284861351343851   T   T   T
 20.0776307054783203  4.1291716254984223  0.1053070620343751   T   T   T
  2.0670398745787040  8.5040164035715886  7.2768961062976611   T   T   T
 12.9180111579980803  7.2460178870158067 11.1525954867240120   T   T   T
 17.9169885117917431  4.0942164173282052 14.5912562502564551   T   T   T
  5.3373035807114402  5.4984183534320383 12.1389821735487011   T   T   T
  4.2317633508341057  8.6453815641010117  2.9583728883684040   T   T   T
 16.4203454119823817  3.7916500945194600 -0.1301220276026407   T   T   T
  3.3529243412878600 12.9083283032759191  8.6325632112317798   T   T   T
 16.0466639443803203  5.1538749982160255  8.6562764448901302   T   T   T
 21.2761320868060295 11.9731573635793236 14.0147420043950213   T   T   T
  4.4501858699919090  2.3574400291309212 12.8176698765071908   T   T   T
 14.0428251327434843  9.0573187332305700  6.1664270699141115   T   T   T
 23.6592593445381283  7.8340483510173424  6.3327095560553426   T   T   T
 10.5909935490131542  8.5572528849563678  8.9510858052102105   T   T   T
 17.2893906974987459  3.3230966632184438  6.3960867032712878   T   T   T
 21.6216832054046719  9.6104354181522673 13.2408560444843513   T   T   T
  6.5020623706553256  2.3567347627262145 10.3784873028419469   T   T   T
 12.6122257070703974 10.3094579618907236  2.6243409117162346   T   T   T
 22.2834597337920712  5.6568578468170836  2.8872968038151301   T   T   T
  4.0394871165518502  9.6228809971925955  8.8262840140465642   T   T   T
 15.6075640502725825  1.2965285859713742  8.2886062923555457   T   T   T
 18.2776664198269785 10.2960789649474105 15.6679812174707092   T   T   T
  8.9802076671882372  3.2535350393765019 12.5045052962301213   T   T   T
  7.3634563110058115  7.9363204787081933  8.9427725462190146   T   T   T
 25.5050738351147359  5.2010940833628005  8.8994961356645419   T   T   T
  3.6322997342553851 10.7254726452692744  5.4863895481114460   T   T   T
 14.1959476683284667  5.3815672841756390  6.2740996829318423   T   T   T
 18.0058231075862807 12.5943891428194235 12.9693915616341684   T   T   T
  6.9519760649990907  1.5058696156566502 14.1057466649476702   T   T   T
  4.1262821433548567 12.6688010039809296  2.9486685958450458   T   T   T
 22.6784396649129789  2.5560675047852710 -0.7134083749880892   T   T   T
 20.8905070166996367 13.2900613669739567  5.1056217639703556   T   T   T
  7.7463637876527480  5.9013689937794735  6.0990042764634040   T   T   T
 12.1427565193482927 15.0252257354302881 11.5328629950590607   T   T   T
 24.2850324411979486  8.2627698704055437 15.0107587736509434   T   T   T
 -1.6623365738322962 16.2438042786250953  2.3568888700060371   T   T   T
 15.3855487894640603  5.7861743262265106  2.9799501735597667   T   T   T
 20.1928025451574769 -0.9748415171498445  8.4677215610693022   T   T   T
  9.4747125056690553  5.1689433674612175  8.6865441799551206   T   T   T
 11.8889716341147054 -1.2658464354426009 15.2499764074128183   T   T   T
 27.1859033430106862  8.7580508482465085 14.3044367583382286   T   T   T
  2.6963873687454321  0.9301302541354326  2.6159428018663942   T   T   T
 15.8487936801767582  8.2184915799308342  3.1518131118369146   T   T   T
 23.4868638116204664  1.3995760825472232  8.4261867069887462   T   T   T
 19.5737463771023386 -0.6667977580364181 18.1422402202461974   T   T   T
 -1.0377295797590544  9.1741159299958852 11.9212766491114603   T   T   T
  6.2737824977930279  6.0109553046004498  3.0596470284852542   T   T   T
 22.2583456082310605 10.0701106360543893  2.6378623480539614   T   T   T
 26.3466266259113269  5.3674872811631040  5.3770777269308425   T   T   T
 10.5575945784983336  7.2969997958012982  5.5006707913805011   T   T   T
 15.1261876186581041 -0.3574850949042380 12.4374449291888194   T   T   T
  2.4696156233154460  7.4541686103433387 12.1040144020818570   T   T   T
  5.9045196709971801  1.3993368706978579  2.5896317162201834   T   T   T
 17.6698735131764408  6.7544775580035026 -1.0840328158008716   T   T   T
 23.0801398597384164 13.2037568348372183  8.5205918700650276   T   T   T
 17.9213089425077001  6.8123586959435354 17.4153026512322597   T   T   T
 12.4846333190810697 12.2061756601540470 12.2893090722057945   T   T   T
  1.9062000556097178  5.8388579498172968 13.9170807321519483   T   T   T
  2.6564511986209611 13.6860244487413230  0.2349619264840927   T   T   T
 20.5326997512594716  8.0140585321475069  4.7191502650867116   T   T   T
 22.9117340737112016  0.3760491627789569  4.9455969519089180   T   T   T
  7.8215905382294668  9.2161169325794230  6.3234261570112338   T   T   T
  8.6695249079370864 -1.0777609949660001 18.4083705277014538   T   T   T
 24.2190992430003291  5.4168118772969773 12.7422156387920591   T   T   T
  4.7937479979925977  2.0574852237547603  0.2580115872164152   T   T   T
 16.3337121381001182 10.8710861664800582 -0.0539178019961144   T   T   T
 10.6411889630559102  5.0143382760078357 28.7809315495074216   T   T   T
 20.6058276141691508  9.6843989475252830 28.9580105750356402   T   T   T
  0.1558058774018468  5.3131398994405235 24.5615399705984103   T   T   T
 10.1052170840065241 14.1677704667854325 24.3259248020113965   T   T   T
 19.3227860669446656  4.7452240403164332 34.5673025516469465   T   T   T
  6.8857711630777141 14.5285217695490196 37.8132123644407443   T   T   T
  7.6805819253298564  5.2037835850613074 29.7804992861885438   T   T   T
 23.0091055494346506 12.5213043798956516 28.9379174586221808   T   T   T
  3.5526396823411699  2.2656264786230169 24.1912815107904287   T   T   T
 16.0264386519591895  9.5455911496934736 22.3192534183232816   T   T   T
 14.5545823867690700  5.8188340145555975 37.1444959917723025   T   T   T
  6.4276241470213584 12.8493487034406240 34.6901532262594330   T   T   T
  7.9827851445596689  2.4168056811314744 28.5780882275159769   T   T   T
 21.8363373042522539  8.5539000088345887 31.8637097687789215   T   T   T
  3.2241691737432276  4.8134223041979336 23.3386119040474149   T   T   T
 11.9724303574788138 11.9289759219746614 23.0462281599515109   T   T   T
 20.3776429785279731  1.8860703107572823 34.4866455365230280   T   T   T
  6.0341426008025394  5.4179935955353740 37.2933765569660451   T   T   T
 10.9429509958729447  1.5760273816217207 28.8504942225111982   T   T   T
 24.1742980930296270  8.5831098731903417 28.4286605596215374   T   T   T
  0.8502678314855745  1.8707425640975923 26.8554475468064062   T   T   T
 16.3045952167096146 12.0778185031588592 24.2300408813483195   T   T   T
 18.9788811221605158  6.7054088072837308 39.9575425588168045   T   T   T
  9.5420988664928590 16.4892119499196959 36.9043949075302393   T   T   T
  7.0337097582281398  7.1070667025866054 26.9142500388406312   T   T   T
 21.2060433959968861  7.6914009101540879 26.3523149613942103   T   T   T
 -1.1608475994226131  3.9746024958888411 19.5167665507183798   T   T   T
 13.1889629028100206 16.0904140902356723 21.2477327570247922   T   T   T
 21.6475670309705279  4.2805634173654710 32.1863304074418792   T   T   T
  8.1740903768024111 10.4670891288500894 33.5044034843270637   T   T   T
 10.5399908702946554 -1.9916707605176904 28.6281291600287027   T   T   T
 20.6951245391530350 16.7647835806311463 29.8273431541800136   T   T   T
  1.9653757411292376  4.6012234299597559 26.5149327351858410   T   T   T
 13.1130769895457000  8.9112275285029696 24.7417814479794700   T   T   T
 20.2675950335293820  8.7872618850015929 34.8020109735519654   T   T   T
 -0.0969075834547910 12.9615620774427480 37.9154850360689153   T   T   T
  6.8683472066769964  9.1056747631657160 24.4220035602225174   T   T   T
 22.3818085504827451  1.2372349727907652 23.3615703273805089   T   T   T
 26.3876926563669016  5.9339248180513762 35.1221840375241499   T   T   T
  7.2853865241542861  7.8677258216518773 38.4391828448243373   T   T   T
 13.9828217527557772  7.2966146867475548 29.0935101953454911   T   T   T
  0.4832974768768692  0.1041313053573498 34.8184265174429370   T   T   T
  2.2393022972893588  8.3977405062048476 19.3230957391622695   T   T   T
 25.1675564816333122 16.5394599845025674 23.6774962242903086   T   T   T
 21.6826559958704266 11.7878120637562542 31.4036755456803043   T   T   T
 10.0884096909622656 -0.8428958634321013 34.5094364893486514   T   T   T
 13.3647212197580352  3.2322430678737657 26.5232112747910200   T   T   T
  2.1196962811788134 13.8847870049014492 28.7018736881707603   T   T   T
  9.4672300162256988  7.8221127994317206 23.1552451134485224   T   T   T
 20.4719782782375006 13.2657445610600071 26.0002056167759399   T   T   T
  3.2631079839027284  5.7951088273707390 39.4580650338087509   T   T   T
 14.0138448999850969 12.9240376454756145 34.7187660324908762   T   T   T
 16.5555832810615300  3.8394234206640987 25.4377901343948665   T   T   T
  0.5624516247744106 11.4415131701346482 26.4951843991348426   T   T   T
 10.1945666932779364  6.5846369684274926 25.4331058250993749   T   T   T
 18.9344327578150100 16.3031934302395918 23.9102147646524372   T   T   T
  3.0188830103621540  7.1672661492703860 36.9407530605397199   T   T   T
 11.6419551647274524  2.0143474376105921 33.8102612610185602   T   T   T
 16.6888295229149577  9.3485491401584397 28.8012107346798345   T   T   T
  5.4947784244642124 14.2866179214212714 31.7667143778877481   T   T   T
  6.1030017605955047  6.6817758844255222 19.2244251289286723   T   T   T
 20.8510499349520302  1.2533368625304147 26.6290320240009883   T   T   T
  1.9868154743672031  8.1036105669184018 28.9330279818499960   T   T   T
 14.4245656704138501  0.9151286570647881 28.8331409999464476   T   T   T
 15.1310879436872021  8.6424100872074483 31.5664476325053691   T   T   T
  5.4737948423589735 -1.3814330095284806 28.8040654645761940   T   T   T
  6.4645627134995234  4.8985867033948765 24.8478442917856626   T   T   T
 18.7393938869956713 13.5314216260658249 22.5231410770538893   T   T   T
 21.4247120253441423  7.3070443339193840 37.4695395797039978   T   T   T
 10.0472804329193721  7.3527565054258712 35.4031505192381317   T   T   T
 15.7750901720525416  4.9643222758060936 30.1479261288753086   T   T   T
  2.8036055384514755 13.6933285264624960 32.2057007770136110   T   T   T
  7.9055201237725141 11.0967221481937095 28.8464576177578707   T   T   T
 18.3732650483735966  6.4769414653649378 29.2204270522146956   T   T   T
 -2.3021077333259607 13.2317236294315972 23.8899688172632878   T   T   T
 11.9556537766892585  4.6439511937996594 23.9205035218302378   T   T   T
 19.3136977667753840 12.4712527399405051 34.7235749117115020   T   T   T
  9.1185242138565439  2.9632790596414060 40.0698689763426685   T   T   T
 12.1558757278296632  9.8097660428555766 29.4078064828770529   T   T   T
  3.0322836263815849 10.4340021611854947 26.4858430363140513   T   T   T
 16.4895353290110904  2.6596561391150950 19.5714459887836121   T   T   T
 16.4571916903021673 11.0597755409780909 34.3252189714066489   T   T   T
 -2.6207024571284396 -1.3707098242006341 35.1210351329509862   T   T   T
 11.1660258444244835 10.9727047641677711 31.9956931967284852   T   T   T
 21.8183170782779357 -9.2153450541194228 28.9107205000287166   T   T   T
  6.0387204804497099  6.8879070564737441 22.3589148900909862   T   T   T
 16.8818779294086596 -0.2690198550392483 18.2948086932130103   T   T   T
 17.5856328147422403  7.3229301572854029 32.4037988995282902   T   T   T
  6.4883898153479134  1.1649929665632204 34.5340898532493554   T   T   T
  9.0233894305324949 12.4933123949152094 31.1390832575978607   T   T   T
 24.2626844530428372  2.8670355305872448 31.9089307023449287   T   T   T
  3.8499569909794307 11.4444491533366701 23.3882269388199369   T   T   T
 15.4124177556361044  5.0522347504518814 22.4424915186047151   T   T   T
 18.2525246478577827 15.0448145305061178 36.0315550020928441   T   T   T
 11.2141475796372809  5.2743031215579181 40.0947899544889736   T   T   T
 13.9303871756853823 12.1387017581852241 26.0816808538228742   T   T   T
 23.1201386235529966  1.3869869764579745 28.8832103795037476   T   T   T
 -0.6089426875048913  9.8733328744735402 24.2675716980305758   T   T   T
 16.4033997150268149  2.1807701437615838 22.3717637079360259   T   T   T
 20.7428402955431253 10.5386784485842941 36.6042838140917155   T   T   T
  9.6759459071193934  4.6549148050335170 32.0167343357596863   T   T   T
  9.3988082635059893  8.6306179579177993 30.2436958349214677   T   T   T
 24.9262001836299092  4.3428355949282711 29.1074764358082838   T   T   T
  1.9358383589949817  8.4748772014166605 24.2754730345466143   T   T   T
 14.0244235169357889  2.8005288968668691 18.4022475602146471   T   T   T
  9.4085215901930734 12.3195295461055174 36.4800827662352347   T   T   T
  7.7809446403117093  4.1935095014634909 35.0170695325811039   T   T   T
  5.4196060619913453  8.0583300317975759 29.2464943840900276   T   T   T
 17.5091850412396326  1.4859929812392569 28.7368514782943087   T   T   T
 18.1161795807636921  6.8292482536191432 24.7652886684345184   T   T   T
  9.1194049878258969  5.1011316514901885 22.8223590658492412   T   T   T
 10.9946854042045725 12.9723104046105426 40.1430827380898947   T   T   T
 22.0308739897405133  5.9650452609788802 34.8977779529676226   T   T   T
  1.3570467834544946 12.9680798311948458 23.7477625396771757   T   T   T
 15.4549418936196776 15.5172771650528993 31.9080016471455146   T   T   T
 22.7088865415100187  7.2937540170939439 23.7891600214944461   T   T   T
  5.7482694606072311 13.4819554421386840 22.9459621066575181   T   T   T
  9.0734777222350100  1.8724862448145172 31.7712275441165062   T   T   T
 29.3994251103394362  1.8933198690593622 28.6451651118291686   T   T   T
  2.2464016876837722  6.5566512023358552 32.0426312267953435   T   T   T
 14.1074084247526823 13.7114704958111311 23.7449700637221390   T   T   T
 20.6010271855518710  4.8284014867304510 24.5146540397450892   T   T   T
  8.1490501289806865 12.4882502263535216 22.2527244532974962   T   T   T
 12.0257941105401507 10.2868946945759632 36.2723237585392440   T   T   T
 -0.2260329040201211 10.3961064996496884 30.9029904780041100   T   T   T
  4.1499769452249007  8.5572919457413814 32.0459799034031931   T   T   T
 14.5731366950185866 -1.7372810903790592 30.2564634429291033   T   T   T
 20.1978028978292272  9.2546885828884768 23.3668022696367892   T   T   T
  7.6995419454542926 15.8395793782743333 22.6967942160373930   T   T   T
 12.2752931183153908  3.4467311910974305 30.8098494489869310   T   T   T
 -1.0585911092027578  4.9499905210857227 37.9196480247155705   T   T   T
  5.0970283058625920  4.9424154016749062 34.1019434005991400   T   T   T
 16.8331113507408219 -2.1500780372553026 28.5607720757086625   T   T   T
 23.7761565265797046  7.7392115550401606 20.5496490543402324   T   T   T
  7.0255268465020038 -2.0557036256821277 25.6065418681252268   T   T   T
 14.5595296189824559  8.7294187014648443 35.3334216796658325   T   T   T
  3.1099106381704771  1.7782745419088164 31.1181896014625714   T   T   T
  4.0754007301330457  5.0955167271919199 29.4879600230390864   T   T   T
 17.9020559234991836 14.1839524178759202 31.8514101425800291   T   T   T
 20.7009527163252613  6.3913503320649756 21.8564055857191022   T   T   T
  7.1355865811597088 15.5781034570508563 25.7151994390279306   T   T   T
 14.5964578305248605  5.5537772008461692 33.8576241388992543   T   T   T
 18.8630922880417273 16.3225038041368151 37.9887779693731176   T   T   T
  0.2364589361459414  1.5537920550267614  0.3535806005128233   T   T   T
 13.3137442704010791  8.1260848540645352  1.1752037855485071   T   T   T
 17.3107564703451828 -0.2114080551854999  5.7891385953595460   T   T   T
  4.5390187438090708  7.2715987480403133  5.8158363057542646   T   T   T
  8.5952914241321210 -0.1616757184256284 11.4211669337129091   T   T   T
 21.3913705383129695  7.2658394945052178 11.4624661617629400   T   T   T
 23.6110512068530340 11.0376854373630664  5.4231789379304312   T   T   T
 10.9468731674686275  3.6831280641798840  5.8016527882362023   T   T   T
 15.3122347898893896 10.1905327570181967 11.6203010697512834   T   T   T
  2.1897272870884508  3.8629533240074156 11.4001762166305483   T   T   T
  6.9358223578673472 11.2992160816929044  0.3870940815911529   T   T   T
 16.5965999103265816  6.3484076342471134  1.0820885514055560   T   T   T
  4.4123250788010893  0.0305540544297102  5.6180670680578455   T   T   T
 17.1035654646741762  7.1715305685220976  5.7252390130081299   T   T   T
 21.5193290742771310 -0.1166433919896017 11.3902673898486562   T   T   T
  8.5055873131584843  7.1748408391005105 11.8808814611957114   T   T   T
 11.2622799100644251 -0.0170676322095508 -0.2871814973855015   T   T   T
  0.4570357517287313 10.5498337037510019 -1.0556852355568802   T   T   T
 23.4333487789897177  4.0297959979701083  5.6545055081702111   T   T   T
 10.8125986264975147 11.1223114714807245  5.6491175811491328   T   T   T
 14.8087029339924872  3.2313046054586438 11.6682769600414247   T   T   T
  2.5728102342192907 11.0383076636329491 11.6462203141287457   T   T   T
  7.3530009703371642  2.5774445833909478  0.0379274073229216   T   T   T
 22.6044715280751021 11.6686025709508439  0.5985579091924580   T   T   T
  5.8019654455869594  8.9605288866361281 17.5811852971820350   T   T   T
 22.7379207610025134  1.0157572205207659 17.7663606853863598   T   T   T
 24.4750433758291521  6.8299987828142319 31.8584044486959819   T   T   T
 12.0459718887459193 14.1658646780267663 31.5709656181294562   T   T   T
 15.2092596112029845  6.3694862826342815 25.4743321270462708   T   T   T
  3.7979645987142057 14.1195206299037146 26.0024425951670182   T   T   T
  5.7420759836305919 10.7373613971724691 31.7188332345431867   T   T   T
 18.1699683097025471  3.6191482997375943 31.5026436416617699   T   T   T
 22.4457292287284886 10.7435833987744083 25.8921097917838310   T   T   T
  9.9726989799904810  3.0720195456685668 25.7478742464617731   T   T   T
 15.4459666802234850  8.8705958640727314 18.9574422077206250   T   T   T
  0.1150185378936397  6.6155104429623499 17.4535396078518694   T   T   T
 12.0989429053490767  7.2460297199027988 31.6059122450112895   T   T   T
 24.8228346044288983 14.0262670415319413 31.7579551659278607   T   T   T
  3.8879618003073002  7.0476169585457589 26.0318398604889474   T   T   T
 16.6931694761045577 -0.1659412755340703 25.6678611856406533   T   T   T
 20.5459449108491441  6.9745106589664578 18.3285944932241662   T   T   T
 12.1616646869121556 -0.4474762103459730 17.9745272833318097   T   T   T
  5.9793566734155945  3.4992452178534710 31.6854704145059891   T   T   T
 18.3165269384473746 10.6895907995874566 31.3498048781053669   T   T   T
 22.8530141554697011  3.6867847013619097 25.8250745114320495   T   T   T
  9.9546094399643099 10.4819474614630721 25.6649051073027685   T   T   T
 16.3009676752009085  3.9791206921283977 16.6619221938199367   T   T   T
  1.0205208550959881 11.3773804288067186 19.7928782169311468   T   T   T
  4.5609225411250307  0.2727437936461252  7.6709825212461968   T   T   T
 17.2753028100829127  7.4018884627662693  7.6871988397887749   T   T   T
 21.5809882950348495 -0.2415790213991974 13.4644927633314424   T   T   T
  8.8737416248559065  7.2718318830370929 13.9055286260559967   T   T   T
 12.4755672961622324 -0.1055441626559574  1.4146771323094316   T   T   T
  1.2290136945709780  5.7610108063162304  0.3137665746349421   T   T   T
 22.2874574950669881  1.5128799509172273 10.5663008740682010   T   T   T
  9.4342627362997380  8.7885574633444268 10.9172623203411145   T   T   T
 18.3824864339183733  1.6485871488729780 20.9688321254682464   T   T   T
 -0.7739381922161108 10.5871784244734410 19.6520489358446930   T   T   T
  5.5601785537620891  1.5837279210270110  4.9856659714150418   T   T   T
 17.8460329617796418  8.6960235899563632  4.5524781710471798   T   T   T
 22.2481786196762741  5.5085814269476883 10.7496910205571030   T   T   T
  9.4853582999944237 12.8487443024750352 10.4265045906784497   T   T   T
 13.3748375482170463  8.3428112737614430 18.5962142046619086   T   T   T
  4.9920465475773517 13.2521889573543934 20.6939718934144068   T   T   T
  5.4437105056296922  5.4202636401543547  5.5490591152947415   T   T   T
 18.2704098626266358 12.8414037283963776  4.8303686797172620   T   T   T
  6.7004517998833304 -0.1555837475254320 10.6388481624746714   T   T   T
 19.2853151745214504  7.2199198828249642 11.1679447796104050   T   T   T
 23.0784652319545529 -0.6569785562350281 16.5157089763321387   T   T   T
 12.3278030976567834  9.0718072081941070 20.1645657024153557   T   T   T
 15.2007803951665306 -0.2636362999444019  5.1776001417318556   T   T   T
  2.6638276660913065  7.1588786444826713  4.6549466844951874   T   T   T
  2.4810255680169080  3.7515029762067362  6.8858554951405582   T   T   T
 15.1722569960971985 10.7201966560598354  7.5751129735781095   T   T   T
 19.3078246121598411  3.4007937082896738 12.9347561598421734   T   T   T
  6.7299134738539710 10.9651587489090030 13.1110501692248764   T   T   T
 10.6274051622346892  3.5145032427255352  1.2521206376369314   T   T   T
 21.3764285623953540 14.8309759995784027  3.0177914518091509   T   T   T
 23.7243534531151781  3.9779074903222553  7.6699020616418476   T   T   T
 10.7036860933530171 10.8153138273741654  7.7011535711139381   T   T   T
 15.1570450832305657  3.1638413126819200 13.6914525304812145   T   T   T
  2.2688971146851058 11.1464536104292637 13.6651191230989628   T   T   T
  6.7526358960655255  3.5492833491867959  1.8763997340443028   T   T   T
 24.4742898668046109 10.4353683306330591  0.8242794211348823   T   T   T
  3.6376996986711241 12.7536386504332757 10.9236443255915905   T   T   T
 15.8196577020722824  5.0448522862853391 11.1206904226529577   T   T   T
 18.8660561044124648 11.6042475667399891 17.6513138013374515   T   T   T
  8.5761392969038255  6.0511801255774120 18.7728747410438253   T   T   T
 11.6619455242433272 12.9061808100656332  5.2932938765883817   T   T   T
 24.0191447721484579  5.7968895519474639  4.9369928831476440   T   T   T
  3.2730189625735298  2.2472701483659869 10.5269273630040470   T   T   T
 16.3856337253553122  8.7068885015410640 10.6938495289236979   T   T   T
 19.4954875986748206  1.4636363421135699 16.8002181244013080   T   T   T
  5.8511674409626258  8.9671018042923851 19.9822601859427564   T   T   T
 11.6786368515967602  1.9366338445786877  4.9650621427922221   T   T   T
 24.5412790605441415  9.3770199986685245  4.5022953377414989   T   T   T
  0.3413826028271719  3.7452600961326268 10.6678087029520441   T   T   T
 13.1986746611672920 10.1126806687201789 11.3742155748066196   T   T   T
 21.3595756047011918  2.4239186149214835 16.7056115116013046   T   T   T
  7.1118067212206171 12.1886183560648966 16.8688689103813516   T   T   T
  8.9818114413531536  3.7164817808021593  5.1926502069237896   T   T   T
 21.5987314489721172 11.0545336272294072  4.9865983675590480   T   T   T
  0.5263530509087428  0.0491714516351153 12.8406420000553112   T   T   T
 12.8948192996459419  7.0377020180465166 13.4891438652511209   T   T   T
 17.5608454133036531 -0.0296133479805107  1.3461691427547950   T   T   T
  4.8420241417221135  7.0330893058108224  1.4204535186019993   T   T   T
  8.6248221620957199  0.2445177928242316  7.2433999288334237   T   T   T
 21.1263813734602763  7.4886116061527579  7.0882132807836795   T   T   T
 25.7427633780974574  0.2029816724707594  2.0137922847129923   T   T   T
 13.2141434458478084  6.2961381141913506  2.0534252605032952   T   T   T
 17.4163131629534860 -0.1706661613400290  7.8036831236232231   T   T   T
  4.3181435192425068  7.5274698447267205  7.8162182868838936   T   T   T
  8.7688915338279134  0.0230526999645327 13.5551076875269061   T   T   T
 21.8413909577981968  7.3729016756827113 13.3716651002470375   T   T   T
 21.9992170491789807  8.9514443897259000 10.5055026059284486   T   T   T
  9.7977566594983774  1.4643049988410621 10.9713206907008978   T   T   T
 10.9472905344697420 10.6863128031134309 19.4735730903294950   T   T   T
  1.2566640535956206  5.1712719092291390 16.6523769261477241   T   T   T
  5.7335810748976339  8.6071600105183084  4.8892510270307499   T   T   T
 18.0945839430976179  1.5217961927719157  5.0219642621736531   T   T   T