Li P  S  Cl
 1.0000000000000000
    25.1819793006824639    0.0000000000000000    0.0000000000000015
    -0.0000000000000009   14.5388225279766061    0.0000000000000009
     0.0000000000000000    0.0000000000000000   37.2126966544236950
 Li  P   S   Cl 
 288  48 240  48
Selective dynamics
Cartesian
  1.6155807214056115  0.8250670034845483  6.1405498715910367   T   T   T
 12.6654290706528023  8.6342349990273046  8.3719721940692597   T   T   T
 21.6432431492514610  2.4438391496257474 12.2965906667975187   T   T   T
  7.4175006607531486  7.8196054309390428  7.8717851505752323   T   T   T
  7.1592328774160645 -3.0542266229280308  2.8243912646224114   T   T   T
 29.5258487355051962  9.7379227501254970  6.1707977841336463   T   T   T
 -6.7711515230015475 -2.1534158110172905  7.7431236027511305   T   T   T
 14.1637882147516727 15.6219099650730886  5.2094440933758630   T   T   T
 27.3931173299578710  6.0686311869016052 12.2152708542151007   T   T   T
  4.3309346551194432 17.2750360388011330 19.3777648570840455   T   T   T
 10.5429695611191061 -1.1148146845465503  7.0741646641834954   T   T   T
 19.8112420346014382  7.6642494724462464  2.5698020794755130   T   T   T
  0.3509729833179268  3.6225204411208094  8.2771459923376884   T   T   T
 16.3406699252257610  9.8646875413510760  5.8616296823219605   T   T   T
 17.0877198168188116  1.9851255327855568 13.8107593976987495   T   T   T
  5.3042506595732126  9.6559756832934447 15.2670923875709743   T   T   T
 13.1767709373005335  2.0270233506619544  0.5111628329565852   T   T   T
 26.4621472947384220 12.5609854255917099  7.0468708986095985   T   T   T
  9.0939760042640234  2.2314268538588919 12.8658332564189912   T   T   T
 13.8027003013453449  8.4672142801034465  5.3581729639176112   T   T   T
 19.7627175597557390  0.6546636251551177  6.7133935021290139   T   T   T
  4.8780117640395657  6.5142171109780636 17.1763923095780413   T   T   T
 18.4695783927122186  0.9010886731646379 -8.7137959761800641   T   T   T
 26.8568812695353145 16.6244961939330054 -6.5935429592367445   T   T   T
 -0.6131519274569699  3.1459725670703098  2.9761666121952817   T   T   T
 15.7064603062815618  8.3620428331343071  8.8451873407272981   T   T   T
 24.3395016379748732 18.5262552887575822 21.5620955853329974   T   T   T
  8.7074535947210450  9.7356532002363494 11.9126331521437123   T   T   T
 15.2616975304247493 -1.4287087338026156 -6.5022302356156043   T   T   T
 27.6371737191772731  4.1249920958986994  5.7601523337405247   T   T   T
  4.4193127254961162  1.3032776523047358  7.2665617432835257   T   T   T
 11.2478939914094660 10.2897667662322103  2.1983063051042100   T   T   T
 27.0391338112115172  4.5866755387392049 17.8278011588883523   T   T   T
  5.5161816653687579 16.7402624777640057 10.4564992731888005   T   T   T
  3.0639381252997668 -2.1673524848133443  0.3521473830942751   T   T   T
 26.0516152676262500 10.7090352761105621  9.1222503596396471   T   T   T
 25.6149482062461260 17.4195009920932193 14.0137663932872822   T   T   T
  5.9108776341811566  8.7185387277846829 11.4195810617912983   T   T   T
 22.0525238016424190 14.9716762843825713  8.6035369123587415   T   T   T
  2.2593573873848865  9.1964100341374522 -2.7500241112335639   T   T   T
  6.0067670093360199 11.9033579167325065 12.0294018647731118   T   T   T
 22.1419063392373801  9.8496320899153176 -1.1646737213750145   T   T   T
 26.9749817647751335 -4.7173769545548438 25.9699817356821008   T   T   T
  8.2771387796459486 12.5964290246085202 23.0564448118251129   T   T   T
 16.9602370529886777 -1.0533573221882875 -0.6534741237279624   T   T   T
  6.1992674904470997  5.5214794413894692  2.8205526463914055   T   T   T
  7.4974935054038534 -3.4108031909191854  6.9265820048260771   T   T   T
 21.6127613925719579  7.7240811867517731  5.5994357841003541   T   T   T
  1.1428295372712698 -2.2490462275284333 19.7331964810768916   T   T   T
 12.5939947017196161  9.8749473537516863 20.4440152645639230   T   T   T
 14.7160889588229225 -3.7268395162321162  9.1121311761210038   T   T   T
  6.8267005403283729  4.6106051219702895  7.1615592956408092   T   T   T
 14.1954040651884874  4.6024144843638419  8.1686021777134403   T   T   T
 18.3239046078360808  7.7047013230720367 12.1012353211722203   T   T   T
 -5.8937891291908384 -6.2148617904625638 14.8649890150854045   T   T   T
 15.2547327218176410  4.9151687080911053 12.5244368145625895   T   T   T
 17.2153463042759185 -3.8021014384385405 14.3833938588649843   T   T   T
 10.5178548144445934  7.8726339444899702  7.3938824614979364   T   T   T
  8.6264259591772543  0.0715828082722519  5.6076794875271663   T   T   T
 26.4049950092068357 14.6308780170718258 11.0209859066575433   T   T   T
  7.0891396920095326 23.6319972912676803 21.6025898456478167   T   T   T
 14.8070312073752426  1.9701651472723769 18.5660961709410230   T   T   T
 20.0654088296320765  4.0538809031921996  0.5230573548333363   T   T   T
  3.9445267023320403  5.3929854009769018 -2.8771875405963225   T   T   T
 18.2854600238646121 11.0757389331296157 11.4666272171533095   T   T   T
 22.6854611462951965 11.5247364494830933  2.6240219774648330   T   T   T
 30.6518470380905974  4.7566520160653178 13.1096386394193729   T   T   T
 10.6650064982997517  4.0216680240360247 18.7085129706469075   T   T   T
 18.5211769636838213  0.4413101413489607 -4.9017703297657560   T   T   T
  0.7135659222594869 10.2216117481750199 -0.1682636473700684   T   T   T
 10.8553411464037506  1.8625250594916811 -1.4734763846832408   T   T   T
 26.8914665362557699  4.7554280634808865 15.1062664888346259   T   T   T
  1.1234354087302019  9.7268054566895916  5.9049571603503228   T   T   T
 17.1748448683401733  2.3733610153707114  6.5771242240931524   T   T   T
 20.9630185026207840 10.7731098448858624 14.4405778492975152   T   T   T
  7.5109526792966559  2.9837452092190189 20.5846587470963982   T   T   T
  9.5212860099806829  5.2638376701006884  9.3856586237104267   T   T   T
 19.9439469673955116 -1.6496507074549946  5.3813443334791495   T   T   T
 -1.1604329873585408 11.7254342433957959 13.6440778622443482   T   T   T
 14.8984524934042923  7.3915338624796574 14.5501317634068101   T   T   T
 18.4961937257736437 18.8265211686373632 21.0506916834574689   T   T   T
  7.2042170442307922  7.7065917010429565 14.1705811086065481   T   T   T
 10.7294282691658704  5.9205487015462710 -2.6316005780402421   T   T   T
 21.0373330481754302  4.9939589920070091  5.3976528176239178   T   T   T
 15.0147061738204943 13.1983741729100679 13.2230575427382604   T   T   T
 11.6760211289491878  7.0936574073364662 14.7108790998405699   T   T   T
 11.3042158198477480 13.7554737618249003 19.6167379848215369   T   T   T
  6.3914899576476270  4.0970354918595540 16.1638707524255700   T   T   T
  9.9709462455822706  7.5992710315973779  2.8960968572586903   T   T   T
 19.2466000010599494  8.0511645984603621  8.2829608362316769   T   T   T
 -0.6260313291881598  4.8521907683703542 11.0704865834484600   T   T   T
 12.0556410476822524  8.4438614673374506 12.4888059027203457   T   T   T
 20.0049003164994446 16.8245887100715237 14.8973504705067938   T   T   T
  8.6151731037599149  4.6380097494826691 14.2509833242108019   T   T   T
 20.7720672904205976 16.2402251337248131  2.9811463100349567   T   T   T
 28.7181741993820729  4.3708345190634299  8.2175676480649980   T   T   T
  7.9317578974025409 12.0549253955559355  9.2956513191404557   T   T   T
 16.0937944014995580  1.4411206408950497  8.7105755192546912   T   T   T
 21.4510376572010557  9.0076907661422911 12.7687761947646621   T   T   T
  3.0353504467538852  4.0430644726882674 22.0307428844143622   T   T   T
  7.1256656123730648 17.3759754787114957 -1.6214456031820159   T   T   T
 33.5826365905967208  1.2903757180661031  1.2889776222145239   T   T   T
 -2.3448154396419221 12.7192938334444570  6.0154251095966984   T   T   T
 13.7296787141920884  0.4155805551719255  7.4327946382375369   T   T   T
 18.1259482013685549 15.5419727754406907 10.9596352110086475   T   T   T
  9.5153703502694924  2.1783896786223069 16.1839323192119942   T   T   T
  4.0160480976212529 20.1435402618500561 -0.5359297756538089   T   T   T
 21.4181842717945123 -0.3555369538455899  0.8401606010041671   T   T   T
 22.5595786733048165  7.4351360121123999  8.9169542383925222   T   T   T
  8.5659059900338388  4.5900408044070629  4.9269034078367691   T   T   T
 14.1995997506931850 13.6963541508878883 10.6317762048809819   T   T   T
 18.5853879060257263  4.8202422785459937 11.8052444121321614   T   T   T
 13.3775080300019518 11.4194915418949083  6.2714662833296941   T   T   T
 14.7211140312383275  7.1857443920172317  2.6947846759816794   T   T   T
 13.9239574188917121  3.8273017096031023  4.9094429474138233   T   T   T
 11.9073846017965668 11.6682705742564270 12.1338385998676124   T   T   T
 12.0738010892137186  4.8336065216514035 12.0845589451622288   T   T   T
 23.8831731321037530 -0.0045999022662940 13.0164226484069037   T   T   T
  7.8181395410758814  0.8858888447344204  8.4938829428196687   T   T   T
 12.5781783059793693  8.3870372706768936 -3.0590479329857398   T   T   T
 17.3490294483080270  5.2723296514110531 16.5244957810299056   T   T   T
  7.4648969490912016  6.9297105720904240  5.1961092616363311   T   T   T
 12.4155839100760765  1.3579709885073310 12.1700977950228175   T   T   T
  3.2244262136910922 11.9084631133340633 13.5597253882578954   T   T   T
 16.6944210142330398  9.1691765550881730 -8.5798613554231213   T   T   T
 29.4253086789116978 11.1460444866619834  8.9350167680618480   T   T   T
 23.1794314305593048 -2.2639064887623586  8.9995616002445260   T   T   T
 10.8022402620135072  4.9177301738363255  6.6073580933425005   T   T   T
 11.7131270039649404 -1.0614819420273300 14.3896133865218534   T   T   T
 -0.7335873654336980  1.7722364506865480 18.5566595242782846   T   T   T
  2.5453344967710607  0.1748140609404012  3.1552910354562882   T   T   T
 16.5739481238674813  1.5518023632825286  3.1562457617664474   T   T   T
 20.8920871144266762 10.7953822796708145  7.7779440988533475   T   T   T
  5.1514663420457838 -1.2628451602485153 18.4198354292527924   T   T   T
 19.6405630013998511 14.2815381836603272 13.5297301220005721   T   T   T
  2.4764692743325951 14.5949951569463430 13.2505470705440320   T   T   T
  1.6802446852091055 14.0019041154126462 -2.2048242497467956   T   T   T
 13.9601537509190372  1.5573161652539198 -2.4146800516359104   T   T   T
 20.7185355635223445  3.9390884467651905  9.1008605349304066   T   T   T
 -2.0315339999683055 17.2633642195557613 16.1154310961360565   T   T   T
  8.8183205195727030 11.5511120155997080 14.4523288339644953   T   T   T
 25.1566601657739639  7.7531789481943605 12.4760364415370493   T   T   T
 -0.3546202916271422 -4.9893684199501429  2.8532207483239183   T   T   T
 18.6493441755651368 12.0678249401232005  1.7055437650082068   T   T   T
 10.4188211338941166  4.5330829131336614 32.1203719343352390   T   T   T
 23.6387570621935659  7.1850723153839517 34.3616621789756351   T   T   T
 -2.6518032063545469  4.8026248359108914 19.1471950480398974   T   T   T
 11.6292492265038643  6.9074008556475377 19.8372620391332610   T   T   T
 14.5656212368975417 -1.1784547955425708 34.5827599793747140   T   T   T
 -1.9395719955465627 19.6932137824858771 44.5371849188731233   T   T   T
  2.9263132763928170  7.2450819818138346 19.8314114335697411   T   T   T
 22.0669780275122278 12.5287488958763742 28.0097943384439851   T   T   T
 -1.0672278028533400  0.9512934203827522 21.7324997632983354   T   T   T
 14.9906125605645375  8.3150562529165679 22.6895057282102215   T   T   T
 21.0370928532770307  9.5348224808641895 33.7592332833619508   T   T   T
  3.2605768644445043 14.0641218202520069 29.0290529692207890   T   T   T
 12.0321918851383227  5.4444286681784568 28.2626957463449990   T   T   T
 21.8894791001284688  8.0811429385563436 22.0044717811407118   T   T   T
  2.0322652507883077  5.8910644307689273 23.5313297894440758   T   T   T
  9.0489479373402126  5.8829213853155586 27.8914975582811699   T   T   T
 21.7020184986457494  5.7722287839386341 31.1825584896063646   T   T   T
  7.5141423147580486  7.2850770531157645 34.4054190534102986   T   T   T
 12.5388909072369916  3.5198149053458017 30.2960401197125790   T   T   T
 23.7221309450653131 15.3425035257442275 24.4353441760210401   T   T   T
  3.1361637129407134 12.9308186677327068 22.5766744852711163   T   T   T
 17.7198700343765410  0.4448952623971075 16.9764674237629265   T   T   T
 17.2474616435424117  5.3907084551050826 40.6438711966465434   T   T   T
  9.9125583014519023  1.2334379446599459 29.9174181906295473   T   T   T
 25.3830335673728520  7.8892389115998922 15.2464737111430697   T   T   T
 22.3281570923368520 12.0695302987585809 31.7251591926576637   T   T   T
 -1.2963134091684454  4.8909026383437491 15.0993738466677989   T   T   T
  8.6384129392395934  7.5272282352356754 18.3326014484470576   T   T   T
 22.4977892589838184  4.7029476410201783 40.2250980328366836   T   T   T
 12.6847953555468003  9.8296496149306822 28.8810556913949945   T   T   T
  8.7911401095267401  5.8728674230564089 30.8030469331483197   T   T   T
 25.4694532575511481 10.0583023471822859 29.5652381339354804   T   T   T
 -8.5913391214470991 -1.7267393277783616 27.9163961350788838   T   T   T
 14.8921628705450431 13.1503777225003553 22.3075024563570139   T   T   T
 21.0494478605769970  5.2510812449171533 34.8289402585143364   T   T   T
  2.1741733321931278  8.2344591669962455 37.2925941367304858   T   T   T
  6.5435375849651827  1.5626805047006915 22.6318758105912323   T   T   T
 25.3093192852936681  4.5614813658032629 24.2539926721077457   T   T   T
 25.0350697855966580 10.2585050734647556 34.6688703228412578   T   T   T
 16.5499000903501390 -5.9439843740468250 39.1742866809534576   T   T   T
 17.2839555426356988  5.0094388283784124 29.8055558602316708   T   T   T
  6.5432326628013779 -0.3924402669068422 29.9435102680371834   T   T   T
 10.2857662728905197  7.4228205026765348 24.8815697783672931   T   T   T
 16.1365226996048285 10.7140859400010857 26.0505987030177799   T   T   T
 25.1088588882956429  3.0323041557734518 35.3429437524166019   T   T   T
  5.4211023692634273  0.6313155589224796 36.4213188793978446   T   T   T
 12.8078620863091039 11.8178027297997321 23.7244455957085094   T   T   T
 -3.9349525395610212 19.8526684843198993 25.6042969235784064   T   T   T
  1.6801266333247131  2.6172603408066135 25.9858179752046610   T   T   T
 19.1514255857209861 17.3989441558718028 18.1252886293392734   T   T   T
 -1.6326961845967991  9.8195866902962692 31.7207448388224265   T   T   T
  6.6996325253066011 13.9094675027212613 33.8281645037846914   T   T   T
 17.2228236065524030 10.0019245603938209 34.2060855816008456   T   T   T
  4.3959284577920830 17.0101984602705159 32.9307826674255750   T   T   T
  7.3024499698420344 10.2359319410030558 24.1559349993458774   T   T   T
 23.0183260147424065 22.6897030367488028 24.2163467763312248   T   T   T
  2.3141435522400484  9.0387118180734429 30.3384563782792185   T   T   T
 13.8283453058481491  4.6484112668071065 34.3061357839150105   T   T   T
 21.7971938758260819 11.9501799056997182 22.2517249323489921   T   T   T
  4.5418063456818061 17.1281065271296882 28.7398375096414860   T   T   T
  6.6706677824433465  6.7156023354833083 24.2425474598614379   T   T   T
 15.2007960100162069  5.8035079157339160 19.8677954697819885   T   T   T
 -1.2956582111950736 -1.3092243245319475 33.9873617487598096   T   T   T
 20.7818333035433298  2.5226018579176945 35.2487632965249418   T   T   T
 18.8812170159025854  7.8135257772303417 30.3513861287507396   T   T   T
 10.4229546574206058  0.3292027438281398 25.3502858978793100   T   T   T
  9.3892293501208162 11.1130532368027737 18.7056874238620985   T   T   T
 13.6687744905415318  7.6818699577764731 18.0042000042528407   T   T   T
 19.4497153332880615  6.9971573402375515 36.4391603996536873   T   T   T
  1.6301930745440056  3.8096185326508980 38.3076886202875784   T   T   T
 16.0644761064509645  7.7036277826490380 32.1395410415530876   T   T   T
 -3.8032663134566844 17.0280198725226271 22.5245392741027217   T   T   T
 12.7361162848136313 10.8856542998154833 31.6828335419862661   T   T   T
 22.0687043330369370  2.2440367633419553 31.9372658075706752   T   T   T
  0.7478379518232285 12.5194732557829571 25.5934092027191333   T   T   T
 17.0935105810097276  2.9574253181999550 24.0120830956050817   T   T   T
 28.4381534665358906  7.6045300135229095 45.5787199128595262   T   T   T
  3.2466708890999425  2.5679871043752911 35.8816501602135816   T   T   T
  9.1171050928179653 17.4825163891045463 27.7452366489328313   T   T   T
 19.9731367495936105 12.6332410230634000 25.2999654627257833   T   T   T
  0.6723405633619676 11.7959446209809293 11.4754983507259354   T   T   T
 16.0761039545634894 -5.7441582600255021 20.0746598830147072   T   T   T
 22.6636796409094714  9.5411049243704635 28.3530059441430922   T   T   T
 15.0422316740773763 12.6414608823505858 39.1795136782845219   T   T   T
  7.2255860654761657  6.5841364362246457 21.1852634967773810   T   T   T
 29.4168339224071893  3.8106860268106058 26.0382780680792152   T   T   T
  4.4891232530086134 10.4124442245998932 23.5853947023252175   T   T   T
 11.1471152513298843 -0.6732433341424421 10.4762649228824412   T   T   T
 15.8748098896909315  7.4061633895269843 36.3169850698545673   T   T   T
 12.3275390259083171 -3.2251414031465853 36.2149893388620399   T   T   T
  3.9728857434178821 11.1592912745186421 40.0092783167134485   T   T   T
 21.1609461986939351  4.2408703715353129 28.9231136280359706   T   T   T
  2.8184831242349815  1.1657283475574505 23.7734380873531883   T   T   T
 19.1999768093232994 -0.6666893673297384 22.5363373005017564   T   T   T
 25.0603569029224111  5.8701700458319799 36.4427036512034590   T   T   T
  7.3817838658034542 -2.4432396200118633 37.2829921870974204   T   T   T
 12.6223368123062674 12.6596025457586325 28.3359707487782018   T   T   T
 30.3262371525704744 -0.4325953853630166 39.2947224350273245   T   T   T
  4.6077629065799481 12.0401146017782068 25.9082528740473812   T   T   T
 15.0599269451719469  5.6488708850331655 24.9947835334443695   T   T   T
 17.2268439639967532 11.6596861094835695 22.9834511180896399   T   T   T
 -2.8264054360052491  1.6025517400025548 28.4514455756505704   T   T   T
  8.7793691613925517  9.9791901458096515 28.5538753488323103   T   T   T
 24.4743812039293545 -1.4850346620842203 29.9912032632311245   T   T   T
 -5.9370159295076670  6.2525488076101494 22.8123248071267071   T   T   T
 15.8427976776264767 -2.5721384617232368 19.9816691620512117   T   T   T
 18.2522084386123105 19.5441237167157311 33.9492305428874346   T   T   T
 -2.0681779853875781  8.1431818970343226 37.1233487996560854   T   T   T
 -3.0996872838744833  8.8303889550986447 17.9141216435113257   T   T   T
 15.8291675079867815  1.5868653548403284 31.3664590138721238   T   T   T
 19.6128136872009122  7.7715933875965986 26.5160478399703017   T   T   T
  6.1143490649031236  0.9627814937559469 13.3336576448750321   T   T   T
  9.2121462129569878 12.4204606694533553 29.9537504945669966   T   T   T
 24.2524903929547158  4.2121692831865039 32.0110441577171372   T   T   T
  9.6372002585711254  9.1243029983149277 31.1912471006528911   T   T   T
 19.3060599017460035 15.7984145851211473 24.2442967526443667   T   T   T
 19.9899188146855913 11.4433742193091081 19.4969317728662190   T   T   T
  3.0841294254276166 24.5721899435967686 18.8087659100474838   T   T   T
 14.5622402023826272  5.0970289435083691 37.9426971514667599   T   T   T
 24.7021324974193668 -1.5665335121911952 36.6810801164670295   T   T   T
  6.1168830437356396  7.8130562873673775 27.9520193110841539   T   T   T
 19.2106795168117301 13.0033463528796371 30.0303275430958010   T   T   T
 14.0261138435983881  1.0540893181233038 24.0602434046284408   T   T   T
 13.0248344553411552  4.2218261063032827 14.8423831337286956   T   T   T
  9.9389663636316605 -0.4423597980157337 36.1523628675754765   T   T   T
  3.1869914640794117  5.8923041494998332 30.3936582408779188   T   T   T
 -0.4529805703517912  4.7555571039212063 28.8990170152040413   T   T   T
 14.2270094781922865  2.7977704040860831 25.9236098156260795   T   T   T
 31.1651020293569303  7.5536955312875378 31.0211061522967633   T   T   T
 13.2766482753686663 19.0644986972006691 22.6979395385553495   T   T   T
 11.3231956468438568  0.2348224733355646 39.6443490321375833   T   T   T
 10.7929909596325118  3.8380186012725246 39.3440801906299527   T   T   T
  4.5417166476195243 10.1340432883467511 28.6687264573733493   T   T   T
 16.9870836695244414  2.5170812434361816 35.2781125412851111   T   T   T
 21.0760825489913657 16.0323628893252064 20.0831608967586739   T   T   T
  8.7906591480818488  5.4846682365935608 23.0299015834817915   T   T   T
 15.0532187857924544  6.2945756037226985 28.5844206121648057   T   T   T
 -8.3298066056288000  4.5832410239549874 36.9364321532663666   T   T   T
  3.5182581885773145  6.1657433987915997 27.8156109802154639   T   T   T
 15.8486803409530896 16.8656366024210627 21.9144434426340631   T   T   T
 19.7523128206100154  9.3268414662080232 24.0300792203447955   T   T   T
 10.2745367026495131 16.4233805840580303 21.7841479190702643   T   T   T
 10.3258733998028873 -2.8651629802387868 32.3964899269984699   T   T   T
 28.7055753942114507 13.7070665462195649 32.3132096648236455   T   T   T
  0.4494877932412437  0.9157587900217833  0.6233395213308811   T   T   T
 12.1818993253443999  7.6230727437596899  0.0745224402567803   T   T   T
 16.4527447500688417 -1.0271288605698357  5.5548526767530371   T   T   T
  4.8611414053650854  6.4093490924903485  5.5025945735732922   T   T   T
  9.0140610062667061 -0.5627931821557920 11.7767804411761947   T   T   T
 21.5828592370127339  6.2253740009181433 11.7289920719145613   T   T   T
 23.5366458124614901  9.9967069204551375  5.6652867053037799   T   T   T
 10.5397333943327300  2.3343378155631398  5.2142253717990039   T   T   T
 14.9704050100709196  9.7068751548454468 11.8175585072844704   T   T   T
  2.6579388156689365  2.5933015534469201 11.5634933663122776   T   T   T
 10.0262378254614077  8.3819377344061312 -0.4279100917094227   T   T   T
 18.3002955618369114  1.6448072779042859  0.3057170208863047   T   T   T
  3.9929958849523248 -1.3244974246294645  5.4101074646728211   T   T   T
 16.8790102127405852  6.3355568438675860  5.9717826870236950   T   T   T
 21.8502057565023442 -1.6462662329372384 11.6468690795866845   T   T   T
  8.7493704260401461  6.2339174662048240 11.9556616865225145   T   T   T
 12.8621580754436060 -0.2599489297795586  0.0861286691057903   T   T   T
 -2.1278291629329256  3.5583450894206989  0.6787086602205148   T   T   T
 23.1296582188744075  2.0873906044812540  5.9833469940061557   T   T   T
 10.4568658290922709 10.1442237990820399  5.6751429153004889   T   T   T
 15.1338779411555695  2.6657077681525676 11.3289873071417784   T   T   T
  2.8840812969688656  9.4752528931700262 11.9467767197255768   T   T   T
  5.4387150251078875  3.3859407903985712  0.9464357597661176   T   T   T
 19.0117246778563675  9.6129804066484255 -0.0551669880349615   T   T   T
  6.1098330185299750  9.5565396959284499 18.2928199582973221   T   T   T
 17.4516033428475339  0.0414840978905079 19.4727768946273727   T   T   T
 24.9631484867734947  7.4401733708754296 31.2792207103639797   T   T   T
 12.7829762354695511 14.6708526310895859 31.4412245612545114   T   T   T
 16.9541992684292175  7.8311774978702218 25.4337947253456207   T   T   T
  5.0788302494085471 14.8840922090256083 26.0658663556963930   T   T   T
  6.7293356334010026 11.2526257479458849 31.5943139635959866   T   T   T
 18.9901026473010859  3.6563971883504522 31.5724668258415448   T   T   T
 23.1952128372684498 10.7267639164603370 25.6627438338592668   T   T   T
 10.9812921308596323  4.3855738336769452 25.1791655825574487   T   T   T
 11.9730176181770780 11.5081805363410119 17.0328284993803223   T   T   T
  0.1156981491660088  7.0882586449540765 18.1044586826961584   T   T   T
 12.8167329333239000  6.9980002087461521 31.1837381822443334   T   T   T
 25.0132568427353164 15.1812035222024679 32.0824072959801470   T   T   T
  4.5105129448859120  7.7704511983155085 25.4568092793348271   T   T   T
 16.7219902259391979  0.3640528587477680 25.4806136392804312   T   T   T
 17.1213613554560808  9.0234196043622941 17.8354190930315646   T   T   T
  8.4952686686643997  0.5159460061467667 20.3085039133906058   T   T   T
  6.5474042566651178  4.0231080236754746 31.8310075919632389   T   T   T
 18.4121710401713088 11.2497390239808421 31.7412655770802985   T   T   T
 23.3151539663921596  3.5273556800049159 25.9607007072999885   T   T   T
 10.1364871993770507 11.2611536003958275 25.1434098859960820   T   T   T
 19.4012562827772577  7.0058137090553627 19.4131365041113568   T   T   T
  2.2944912681782670 15.0061536389074934 19.7837316047372020   T   T   T
  3.6315642131743120 -1.0012119378511644  7.3352689723607982   T   T   T
 17.2972134549751750  6.9667272089849526  7.9026862545376142   T   T   T
 21.8009783264550698 -1.4128427147211586 13.7121533129115640   T   T   T
  9.3323457382638981  6.8374161116285102 13.7822751654166549   T   T   T
 14.5188568968810614 -1.6253675009883037 -0.2075409185695126   T   T   T
 -0.8032237665899534  5.3029490934827725  1.6274590320722726   T   T   T
 22.9073574339095138 -0.1628379288554577 10.9308653011724743   T   T   T
  8.9954371126607064  7.7259194004182055 10.4882131927634745   T   T   T
 12.0016044048616752  0.4183573964012089 17.6674978320455160   T   T   T
 -5.3569573904480379  9.1868279705815823 20.3329774600127600   T   T   T
  4.6555058249581807  0.3153330478586678  4.4009144104489852   T   T   T
 17.8949272314835000  7.6248416034797488  4.6910095426222860   T   T   T
 22.2197983187118453  4.3513883534147899 10.8221500505600332   T   T   T
  9.6184276528053640 15.7883638234006476 10.7031524787253076   T   T   T
 13.5250846507054501  4.0660565380615710 18.6822186471019940   T   T   T
  0.0342733561400031 17.8316008135018009 16.5622841923953636   T   T   T
  5.6444548617677910  4.4020088322164828  5.2349601922530864   T   T   T
 17.8352932016027346 11.7879450688361427  5.1342784486509538   T   T   T
  9.7950070295921492 -2.5038836922992767 11.0337450040278888   T   T   T
 19.6957171355209653  6.5491141048311423 10.5471027294317548   T   T   T
 21.6913410809793525 -0.3054898299178307 21.9879344966467762   T   T   T
 11.3542075453325513  7.3218821824837823 17.3499501206499112   T   T   T
 14.8045283018603673 -1.4091876441356899  4.5286544743925177   T   T   T
  2.7441825125557622  6.4087285553706650  5.7141725958329896   T   T   T
  2.1765561525994306  2.5723301186250440  7.2501706644936190   T   T   T
 14.4680230350835437  9.6098447791120236  7.1716489941111083   T   T   T
 19.2456191086953581  2.0019416857584784 12.7307688440517133   T   T   T
  6.8096280042740167 10.0041836905459878 13.1607296111434113   T   T   T
 10.4949266968329962  1.9900848532176776  0.7732485057608810   T   T   T
 23.7548538035125496 11.0053536752069618  0.5277992557431701   T   T   T
 22.8251015219965510  2.6691548551338498  8.1865926983656649   T   T   T
 10.4082510235113368 10.2849929281387915  7.8200112418710974   T   T   T
 14.7826984371345524  2.5554065205273062 13.3170692371720527   T   T   T
  2.9684544383478935  9.4937160042654547 13.9591082457841917   T   T   T
  5.4738005703143520  4.1025597944531809 -1.2092598839211932   T   T   T
 19.2169585564134735  9.8880525106472579  2.0976198706089071   T   T   T
  3.8210455972771511 10.9732543818663082 11.1488135732984368   T   T   T
 16.6493599494672111  3.8822265298667764 10.6430079422811747   T   T   T
 22.7505710635210256 17.2639334859685079 20.4911100076081603   T   T   T
  6.5290404799745883  7.9306464028755705 16.9538221595187615   T   T   T
 11.2671212822428970 11.6676387912095603  4.9455079852621981   T   T   T
 23.7502454212102130  3.9093916174543590  5.2212304005363510   T   T   T
  3.8539062043610155  0.6328489099492918 11.1976689474920157   T   T   T
 16.2119207364755198  8.3881132628801165 10.9433721766413736   T   T   T
 15.3532366513250889 -0.0942426350158471 19.7677600131910047   T   T   T
  6.5347703113976818 19.1443366292829253 18.7722053659428916   T   T   T
 11.5539221160197751  0.3982500069222652  5.2163557976528105   T   T   T
 24.5260792443656470  8.3363724844439329  5.1565805761513657   T   T   T
  0.7352375761119346  2.6956822690061606 10.8429660933860905   T   T   T
 12.9422221294641435  9.7815565056406104 10.8252995064974904   T   T   T
 15.9204725428085396  1.6377510721382651 16.4047754678632813   T   T   T
  3.4472244012782238 13.1627232821335394 20.0084083475571042   T   T   T
  8.6851873376501150  2.0156237027569430  4.3915601006111409   T   T   T
 21.7430790481319463 10.1239549719957314  4.7083068397078032   T   T   T
  0.8164626393091360 -1.4181306935759503 13.5328704121827172   T   T   T
 13.2718872845908518  6.1621824793162672 13.4533506227770392   T   T   T
 18.1683243112498083 -0.2396754374196892  1.1807168867124476   T   T   T
  4.1765289437943611  4.8292278105200310  1.7308211617567428   T   T   T
  8.2141731487026934 -1.3094602715378252  7.5042127386451112   T   T   T
 21.3532519271197785  6.2684436915188932  7.3106914403460532   T   T   T
 26.0472505765952889 -0.8428624706679204  1.6876741435600826   T   T   T
 13.1785382551389105  9.2843969220010223  0.4487362174892353   T   T   T
 16.1099329717704300 -0.9676936051988111  7.5477441683251127   T   T   T
  5.1815376279629133  6.4564937990063331  7.6724475839423443   T   T   T
  9.2255128136887539 -0.3542723085970455 13.8327196332434514   T   T   T
 20.9560638146222225  5.8604006333372665 13.6247577599612946   T   T   T
 22.9180516407928003  7.6069068213392796 11.1815560661930657   T   T   T
  6.9948720031166545 -0.6662111349724856 11.1601053368142580   T   T   T
 20.5464892783858950 10.1117664838247485 16.6092835824815985   T   T   T
  1.6839217182275930  6.8705601085314925 16.7665984444305600   T   T   T