Li P  S  Cl
 1.0000000000000000
    20.5609999999999999    0.0000000000000000    0.0000000000000013
     0.0000000000000033   20.5609999999999999    0.0000000000000013
     0.0000000000000000    0.0000000000000000   20.5609999999999999
 Li  P   S   Cl 
 191  32 160  32
Selective dynamics
Cartesian
  4.1595164292325144  1.7271170192058674  4.8027008747597923   T   T   T
  4.8639829622074293  7.9517081804681755  7.2942339045077356   T   T   T
 10.2594235261561124  7.1050533230194182  2.6368211597269564   T   T   T
  6.5874635672691904  2.9254465898490900 10.0955698220617531   T   T   T
  1.6544270346644470  5.7942791099887705  7.2112863114509773   T   T   T
  4.6163535178217074  2.1883318713641016  2.0350114242257535   T   T   T
  7.6401204909959581  3.3931957879629016  5.5384919810173505   T   T   T
  8.1304972834992668  7.2971624799043031  4.8876321745892710   T   T   T
  7.0330851260296319  5.0837491266310861  8.8960774979976236   T   T   T
  9.1951609211095029 10.0805443589486732  1.8035983092689754   T   T   T
  0.1147303130004044  1.8114830986412922  2.6329235287346844   T   T   T
  2.7815947689558316 10.6787278126232845  6.6195839283255307   T   T   T
  7.8264883801866558  7.5771820751974781  0.4171789387212888   T   T   T
  9.5119902925455122  2.3495241244043208  8.0129311096115803   T   T   T
  1.8852405214509611  2.0710841816039096  0.4585400102116492   T   T   T
  2.8580235714462914  8.0479941318268331  5.0442329922496976   T   T   T
  4.9615403346057949  3.0138727013585482  7.8542698891722402   T   T   T
  6.1604227009198711  6.4035651116547561  2.9946435893834980   T   T   T
  2.8263376585064339  7.4658072108186140  9.8157800877327599   T   T   T
  3.0192906820046650 -0.1597300558734221  3.1492922931664999   T   T   T
  1.7589232338767515  4.9159245776523015  3.2863584899229239   T   T   T
  0.4752265658938004  9.0930481155700704  7.9249009921750986   T   T   T
  6.7708834231787920  0.3458457410736169  6.8648378080700114   T   T   T
  5.4157748333698814  9.1631043380214106  3.2476224586114983   T   T   T
  3.3552742495665657  0.3508067307915159 13.6635726392218189   T   T   T
  1.5315044022565063  9.4150128104561315 18.5714413103262537   T   T   T
  8.1636052279258333  5.6366693626687914 12.9343012930104919   T   T   T
  8.4128934829982374  1.0919948009595255 19.0517558584717577   T   T   T
  2.1980456003868718  7.2788992503761509 15.8452076882283883   T   T   T
  4.7486968704699830  2.4931900693967810 13.7234183622380943   T   T   T
 10.0616486958312237  3.4227710889427199 17.4827524805476635   T   T   T
 10.0193894142163966  7.3092717290236537 13.7411831792920083   T   T   T
  7.4845784875563215  4.6003300447625923 19.0796758888619920   T   T   T
  9.2108412537023110  8.0131390466547767 10.6934394187378885   T   T   T
  2.8799111259302927  2.9835528896715817 10.8618421809455352   T   T   T
  0.5846609743533362  6.0107059159200942 18.0906485410460576   T   T   T
  7.0919750666187076 10.2550510489375171 13.4582992557138503   T   T   T
  8.3857733977356137  3.6498768869299170 15.3775850892281092   T   T   T
  2.2057630260449250  4.7225860434728952 13.2406732156063711   T   T   T
  4.9604883686859331  6.9773023824974532 18.1518596097066194   T   T   T
  5.4143834268684525  2.4334858937165089 17.9602061594825209   T   T   T
  5.7178064553118100  7.3588287016552831 12.7101969441129103   T   T   T
  2.9131653118279512  6.8205494541192735 20.4995603609789576   T   T   T
  0.5711461551672917  1.6747674483920008 12.2052540225580586   T   T   T
  1.4625459580625242  2.7678078489686655 15.1312151402120438   T   T   T
  3.1650700433139152  4.6996126291861282 18.0592892603286082   T   T   T
  7.6545022828285436  0.9142985262066413 16.0724956962310372   T   T   T
  7.4038236214525366  8.2167080650520035 15.3701295544152110   T   T   T
 -0.0101962603305046 12.2109633956274841  2.2365879020827828   T   T   T
  2.8766740838404554 20.1981379012034381  7.5399431953273188   T   T   T
  7.8855444963060348 18.5126322232367286  0.0371092691370748   T   T   T
 10.5136488293968124 12.2668915717989897  8.3132935886188886   T   T   T
  0.5435575908302567 18.6133329261941434  8.4522214518282830   T   T   T
  2.6399809032767720 15.0067658725634470  2.2539399096578339   T   T   T
  5.6127813114732401 13.5041047177887261  8.1500502221617275   T   T   T
  8.0770407385395195 17.9226906177999830  4.7993536041854954   T   T   T
  7.3525440889936782 10.4622787759642364  7.2910458521529025   T   T   T
  7.7161854301696575 20.1809308841240842  2.3727244356930028   T   T   T
  4.5557669687358135 13.0924185312928305  1.9307917439302487   T   T   T
  5.2476285761148258 17.2056612838052807  8.3380529643415358   T   T   T
  5.4258722961831429 18.1736371967389836  2.8664994265683568   T   T   T
  8.2414504598543115 13.1697716603287169  5.1589376832138862   T   T   T
  2.1974497397619870 13.3549475659571151  4.9442626918786781   T   T   T
  3.0454362037476543 17.4044048959205817 10.5584874762660679   T   T   T
  8.0888098129087176 11.9994771417742108  9.8772398624236981   T   T   T
  7.0565443443188158 15.5989654631638253  2.0102486592419897   T   T   T
  1.7425096894635808 17.6078931882923051  5.0637011471011331   T   T   T
  2.2442473951572675 12.2346744036556458  0.2403867460419341   T   T   T
  2.5524102936849293 10.4385324388369991  2.8995478986794661   T   T   T
  2.6606831971476916 15.7256733565385769  8.0155122823105369   T   T   T
  8.5026385035355290 15.0195792493145355  7.4365341106010865   T   T   T
  9.9844065529643622 17.3931926908704995  2.9472588343461603   T   T   T
  4.8941716984152901 12.1473930205492699 14.2677989894776918   T   T   T
  4.7075104871516862 17.9699653292415924 18.0910560697325664   T   T   T
  8.0881182467938793 20.3494402102985461 12.1826944140625564   T   T   T
  7.0783387563151292 12.9060892943410241 20.7583088715009190   T   T   T
  0.8341190235928414 17.9998550833573745 15.8286306577230427   T   T   T
  7.1552429553050327 10.3377194078465937 17.7459183422355906   T   T   T
 10.1161450043465795 12.1896913898718111 18.6681761357423817   T   T   T
  8.2439391844856758 15.9575508640691464 13.4388773696509425   T   T   T
  5.2540244195080961 12.9276293130103301 18.3333721681124651   T   T   T
  5.6992546424015078 18.6335130014112096 12.8999217616027479   T   T   T
  2.4648548637206553 10.3613653779738382 12.7643716324779870   T   T   T
  3.0737691109175480 19.8752607576277178 16.9777537913570420   T   T   T
  8.0922508123350205 18.6725680460765133 10.3450937796190559   T   T   T
  7.8663510160227927 14.9694810820294411 18.2153670346633696   T   T   T
  4.2428956017069162 12.6550216206475810 10.9094397163670074   T   T   T
  0.7073789974325122 18.3552774799322158 20.1234232646391540   T   T   T
  2.5700759934643234 15.1364097565024238 13.9729924500935496   T   T   T
  3.2538678399145318 16.9232112805403823 20.5587590227437893   T   T   T
  1.3032317869823566 12.5812858785304194 11.4806959401439865   T   T   T
  1.2555401751313515 12.5524468156302529 14.9661783126003147   T   T   T
  2.2375992642941123 15.5805901413387478 17.3179652546263121   T   T   T
  8.1271187634581192 12.8643113752649363 15.9459871224538645   T   T   T
  7.3740209531264576 17.8880673391082574 15.0716526033754032   T   T   T
 14.8655608136461304  1.8300993390501337  3.0844256908094398   T   T   T
 12.8719943083250126  9.4713394405418292  9.2109382040957559   T   T   T
 19.2336477329534006  7.4652697443501275  0.6252636490687370   T   T   T
 17.6754502110556331  3.7690899298821634  9.5195441917353936   T   T   T
 10.7240529305267103  7.4659678143999013  7.2039746433894161   T   T   T
 10.3261540329740065  3.2756875385068818  2.9381507540815859   T   T   T
 15.6147244166966370  2.8405792114577446  8.1969280768070831   T   T   T
 16.3373308018774566  7.3976959334524564  1.0306737977347220   T   T   T
 18.3010635406556688  0.7307087015869708  9.6193703793202161   T   T   T
 19.6229534506976364  7.6444067099940805  4.4085058070912915   T   T   T
 11.8203802423697315  0.7337062240834674  1.3272086509133638   T   T   T
 13.3082003422797541  6.1396590048094071  9.2840676750203031   T   T   T
 18.4395776934755418  5.0294515130649424  3.1232014617991211   T   T   T
 17.1522476513955411  1.4112576271766009  5.8350326113192397   T   T   T
 12.6037897810554398  4.8974236485771652  2.7095249683336950   T   T   T
 15.3475585885324524  7.7951577896732402  7.6345178770208690   T   T   T
 20.2611470658424864  2.5689927145729090  7.0723459512347864   T   T   T
 16.2970952251318053  7.7918075859098685  4.2690161406831990   T   T   T
 13.3765092386975297  9.0869321643075427  5.4469230029622047   T   T   T
 12.2970251826849868  2.4074990451350957  4.6538379341028699   T   T   T
 13.2115313281921765  3.7285186687413723  0.2541305467215363   T   T   T
 12.6573844769496837  5.4310161119500240  6.2090946764728514   T   T   T
 18.3319767736953878  4.6116486821241214  6.9451171137681822   T   T   T
 17.8306491053334852  9.7343983754598860  2.5115230898883874   T   T   T
 14.7848544122446679  4.0273940445016096 12.2722453328752454   T   T   T
 10.6798865710996225  9.0174348041588974 18.5972161005070511   T   T   T
 17.8005266069615473  8.3252874094098690 14.9036807761188150   T   T   T
 16.8261714834979799  4.6379144903526850 17.8962846849624064   T   T   T
 13.3623285053913090  5.9112882223174505 18.6342860090748523   T   T   T
 11.6372649403455402  4.7056389568792341 12.7664020778662728   T   T   T
 17.2864874642016773  2.1261510734191797 15.6167294302524322   T   T   T
 19.0188992461899602 10.0828108517272259 12.2943589656854630   T   T   T
 19.5287663819096764  2.6271990183300757 18.3079523855182131   T   T   T
 20.8398762336707435  7.0920213827475482 12.9517992110539364   T   T   T
 12.2336743294429944  3.0404562011678959 15.1752418102830742   T   T   T
 15.4616995891832509 13.4022690320809073 22.7761066377453503   T   T   T
 17.8384395880589182  7.6203690072352996 10.2730016898340804   T   T   T
 17.6353476957696955 -0.1357127959470531 18.3241695515478824   T   T   T
 13.9886201679519129  0.6773293734895861 13.2658225039639426   T   T   T
 13.0426151759108642  9.4677188135656056 16.3795981059738018   T   T   T
 17.1185477939946509  2.8990705880227234 20.3871539089163427   T   T   T
 18.5265933899866297  5.5979188976839893 13.4739609748476781   T   T   T
 13.1404112302361966  8.3458473953301429 20.5603088109302377   T   T   T
 12.6593750192134031  2.4805425583311602 10.4180115840691858   T   T   T
 10.9233462522526654  1.3475050727508422 12.6330023206692506   T   T   T
 15.3615957308409214  8.3309214289955360 17.7977353831771232   T   T   T
 14.9077620123318813  1.8359577997658538 17.4919204528742007   T   T   T
 15.8950531668249742  7.8014090834978562 12.7225527784144870   T   T   T
 19.5958195661578500 12.7153322975447391  9.4092784419686755   T   T   T
 13.6861985393239358 16.1404486740016750  8.2571622112488416   T   T   T
 19.8934842409279966 16.4756727029240366  2.9377281896960965   T   T   T
 18.2313906374756129 13.2434353031644267  5.2840688434209984   T   T   T
 14.9416676247019495 18.4661034716349306  7.1978340603260484   T   T   T
 10.8987261128774602 12.7501344983303699  2.7364103657601357   T   T   T
 16.9126074219805247 11.0045368685947800  7.1840297049974380   T   T   T
 19.0631665697781258 19.6541083335076685  2.4626465466784482   T   T   T
 20.4081608694846111 13.8179912307556165  6.9180205743547987   T   T   T
 17.2570587537264402 15.9902747002725985  1.9046642064472419   T   T   T
 13.0106899465460693 13.0173747986522486  4.7694382715398618   T   T   T
 12.2386461463167890 19.6962463652258997  9.4329366170729241   T   T   T
 15.5321146840018312 19.0726069969391325  2.8579289192918980   T   T   T
 16.4897648327037629 13.1421328992068691  9.8495919438591972   T   T   T
 12.9153174713602450 12.6648759832891891  0.1574401323553604   T   T   T
 10.2840025019513881 18.0598943764263140  7.2837034555942335   T   T   T
 17.6296298303475751 15.3586725799542609  8.2317381379018872   T   T   T
 17.8054460749117567 18.5957022999782033  5.0824902367952314   T   T   T
 12.4515150198424802 16.0632704539347628  6.1650303137036193   T   T   T
 13.8185874795293540 10.8039631891927481  3.2107967997374183   T   T   T
 13.5384862977646172 15.4361912922285356  1.7394218236480745   T   T   T
 12.9261764018695704 18.7526237603715344  5.4366001364483152   T   T   T
 14.4772243428435026 11.2638606594198318 12.4547575004849556   T   T   T
 17.9772897773657547 19.3709022032461533  0.6842073820442366   T   T   T
 13.2988599300134762 13.8789188394014982 10.5339830163093957   T   T   T
  9.9981881723533217 17.3704830889566644 17.3185938818512781   T   T   T
 19.3121988490774967 16.0464275811588024 13.5463767930904719   T   T   T
 19.5097658263791942 13.5457137786858297 15.9135321622200756   T   T   T
 12.8207695894084672 18.2251007836506780 20.0961386772048272   T   T   T
 11.3870136099617731 11.2512378203591865 12.4652360466706078   T   T   T
 16.9056000424819217 13.2811336856344528 20.2157945899029805   T   T   T
 20.4252597299095839 18.7543232346627455 12.4657634559822323   T   T   T
 19.9205731200798084 12.0759281676037862 18.5277075641599609   T   T   T
 17.4899514638184357 20.5240340737007685 12.9985573033814035   T   T   T
 15.2580171690517705 14.7640008413388415 12.6266233171416520   T   T   T
 14.5760180208719969 18.5819850189250673 16.9094296505589909   T   T   T
 17.2571277479908360 18.3730556563077592 14.7450280130719484   T   T   T
 16.6437056636660969 12.3905625592961766 15.6673190710924235   T   T   T
 12.4797560738225890 13.3103016839000254 15.2513246649003964   T   T   T
 13.2580923060374385 15.6460077210370816 18.7409872299316085   T   T   T
 16.9060808460582521 10.9992367526394688 17.8099826579507905   T   T   T
 18.6384544531019287 18.8255317473868722 10.2762088530197211   T   T   T
 11.6373301883498677 20.4631409462433673 18.6845326194355152   T   T   T
 10.2241207732824222 18.4174197958978532 12.7401920448888415   T   T   T
 11.4833413341491308 14.7588399897386449 12.7086518423188348   T   T   T
 12.2084103000161779 17.5867446379314600 15.5015297567508323   T   T   T
 18.1120854877525304 15.2211278187327572 18.5780657881052882   T   T   T
 15.7774336240249760 17.7135478857417361 12.0972307566028405   T   T   T
 -0.0626878475271177 -0.1691394642825205  5.2265643238465129   T   T   T
  5.0452748282680222 -0.0322088778034901 -0.0688268885968597   T   T   T
 -0.1882220593476548  4.5689839560418983  0.0481269725947843   T   T   T
  4.6231338575146967  5.1343087356196131  5.0687367678556603   T   T   T
 -0.1191548442395728  0.0217062239126149 15.2543969752649531   T   T   T
  5.1680397089802890  0.0774660911470536 10.3306876678136490   T   T   T
  0.1505706185888575  5.0340435612497139 10.3324661463045988   T   T   T
  5.2795215037857153  5.2806521054421252 15.3029245784892698   T   T   T
 -0.3648072891941133 10.4329715983684110  5.2920216226038219   T   T   T
  4.9565801099779732  9.8569469269865770  0.2098432560250968   T   T   T
 -0.1355539336133244 15.4079843902594060 -0.0835373389381507   T   T   T
  5.0901746710242222 15.2561374965761551  5.1057899328928125   T   T   T
  0.0619720853029861  9.9509605397323337 15.7031497343787638   T   T   T
  5.2886883130618969 10.0389128252083477 10.2150461799265440   T   T   T
 -0.0674280467737527 15.4740579241446685 10.5148256490158598   T   T   T
  5.3980559787309090 15.2908533561794151 15.2819658232723263   T   T   T
 10.0022646947054277  0.1238107145577385  5.2778677585383020   T   T   T
 14.9196942530074601  0.0064671510174623  0.0514266523851234   T   T   T
 10.5267880278797019  5.1512583504771534 -0.3480911349360061   T   T   T
 15.3732539830612414  4.6320376995165260  5.0934043573793311   T   T   T
 10.1570485626796270 -0.0118638154213922 15.2835632304359219   T   T   T
 15.2355468622294019  0.0757549733978688 10.1509741932907964   T   T   T
 10.1958467054661703  5.3232005665294349  9.7806168643069871   T   T   T
 15.2173219880532535  5.1818192032120249 14.9475750626062904   T   T   T
 10.5894979100563091 10.1756577488952953  4.9593926103676598   T   T   T
 15.7322294087278003 10.5373681379804491  0.0602834312797718   T   T   T
 10.3418716853616637 15.3814417508528649  0.0081563996860370   T   T   T
 15.3812302149664912 15.6518307058264625  5.3338019914738881   T   T   T
 10.1859454666263769 10.3986986208383101 15.3773128139839006   T   T   T
 15.6161338179952320 10.4307507932021171 10.1089084753059133   T   T   T
 10.4317904275749083 15.5313546549654689 10.2592176590509503   T   T   T
 15.6057056005448320 15.6870608716989697 15.6299793632714863   T   T   T
  1.1506607089952445  1.0003983994018495  6.4354668088273961   T   T   T
  0.7162915795664194  9.2622857251049986  3.9895635280404163   T   T   T
  9.3541937181468686  9.1201711654491362  6.1317479766569027   T   T   T
  8.8659567417898977  1.4722464584266408  4.0906378412492179   T   T   T
  6.4019975204555370  1.0564680141376532  1.1455249493110153   T   T   T
  3.8308111688698756  1.2058696344807622  9.3410941738414319   T   T   T
  6.3595945249827093  8.9291099810387777  9.0459706047204573   T   T   T
  3.7770707131045040  8.5402995688667538  1.4685266436070994   T   T   T
  0.7289643565636995  6.0667762731352148  1.1670338111707241   T   T   T
  9.4151589657465600  3.6560667244662413  0.7552524122657727   T   T   T
  8.9483678992075273  6.5058624726991452  8.5603690280776341   T   T   T
  1.2892369698887449  3.8224208812381937  9.1819727304942536   T   T   T
  6.1101198072737235  6.1460632337753429  6.1816056488775217   T   T   T
  5.8572358374379272  3.6163134443807139  4.1623948056602194   T   T   T
  3.3888020385011064  4.1768037427431288  6.3299846529789257   T   T   T
  3.8276385096656300  6.1760666506531692  3.6239817543456319   T   T   T
  2.3221134409927928  2.2741528990967623  2.7717009457773791   T   T   T
  2.7046664357914381  8.1558426553569774  7.5710145133202982   T   T   T
  7.7855310465121859  7.8436345134216285  2.7250462123654833   T   T   T
  7.2601768518193461  2.6423477531198212  7.8070382045940949   T   T   T
  0.9702628971032592  1.1133419265517230 16.6120891918796971   T   T   T
  1.3040330463205074  8.8267784721969971 14.4533635309826938   T   T   T
  9.0346833130875783  9.4091725476390611 16.7884927719691710   T   T   T
  8.8743923704425072  1.2537017860138882 14.1282222620174984   T   T   T
  6.0991005212981859  1.2920238247542069 11.8865488707556999   T   T   T
  3.7619236555145439  1.2589548317438661 19.6153438738239956   T   T   T
  6.3005865301277657  8.8349760072176498 19.5764551661948438   T   T   T
  4.1692752974514917  8.9051156281587822 11.3773737490636417   T   T   T
  1.6501470168282790  6.0037208915589710 11.4538501796780743   T   T   T
  9.1397932893977156  4.3240698484194002 11.1047042658728738   T   T   T
  9.2918714867829753  6.4864628535912257 19.1657004357193905   T   T   T
  0.9760434484706827  3.4806940529674040 19.2421507200202235   T   T   T
  6.5107650231560861  6.4203361485181771 16.5048049714969522   T   T   T
  6.4582327407416535  4.2337880915076758 13.9338576786954658   T   T   T
  4.0125625339183459  3.9386242108919305 16.2717177658376784   T   T   T
  4.0900135694745616  6.3480729198479739 13.9954271217091772   T   T   T
  2.6321077065565937  2.4430353422423634 13.2767092328227463   T   T   T
  2.5765196857395889  7.1497858418903393 18.3291974095101828   T   T   T
  8.0916399177545646  8.1238496427328304 12.9824040803925165   T   T   T
  7.7159857922182375  2.8015039895171929 17.4835634437255969   T   T   T
  0.6882941864968642 11.7702478909880810  6.3611995086819251   T   T   T
  0.7785448802813465 19.4220138813462917  3.6605476147697775   T   T   T
  8.5867234456339876 19.6420684518158168  6.5056471204431006   T   T   T
  9.4977959977892592 11.4526467265420209  3.7401337914979509   T   T   T
  5.7033282211136500 11.1496069215471998  1.5727023812886909   T   T   T
  4.2605403892501608 11.3194496226493637  8.8935455233104168   T   T   T
  6.4746609528621937 19.7574994418966838  9.1070837996381844   T   T   T
  4.1047646208455193 19.0828313373446967  1.1024741295628622   T   T   T
  1.1848582178065155 16.4758887694136646  1.2827657363709071   T   T   T
  9.1545627894069455 14.1268912961368933  1.1895786027783435   T   T   T
  9.1744270743695306 16.7369452138238088  8.9867835553101205   T   T   T
  1.1388033611187476 14.2348516306969053  9.2959959514288286   T   T   T
  6.4033059611129897 16.3708580608548822  6.2475320133463494   T   T   T
  6.0975180756261080 14.1177095810858901  3.8219806788521917   T   T   T
  4.0484325692968213 14.2403282542366831  6.4853332925425713   T   T   T
  3.6127924609833024 16.2736415742630527  4.1492193523721665   T   T   T
  2.2964236721456959 12.8305425580775321  2.5240266973525798   T   T   T
  2.7935564315359849 17.9188937999534659  7.4461078387322077   T   T   T
  7.6515678180985534 17.9027460053782903  2.3157773278201161   T   T   T
  7.9775595442431513 12.8549624351481615  7.6662115469676690   T   T   T
  1.3640014003327965 11.1194722003214466 16.8612507348061236   T   T   T
  1.1703678193055982 19.6231273670963695 14.0178950664008646   T   T   T
  9.0165705784071584 19.3787110224715846 16.5632762765582875   T   T   T
  9.0673598582586639 11.4706541249588696 13.9697470892570532   T   T   T
  6.3928369497243001 11.1481862390756614 11.4843026862132565   T   T   T
  3.8280687292507722 10.8820646549935240 19.4863612370295094   T   T   T
  6.4623315582293408 19.6292920821552279 19.1989065776408587   T   T   T
  4.0139950814123235 19.3358596205434630 11.4006398587158539   T   T   T
  0.7233858260447674 16.6234783187863009 12.0341700863223924   T   T   T
  9.2543255426666633 14.2462485612074570 11.2622457330007144   T   T   T
  9.1150885772554151 16.5952572640399616 19.4381331654770264   T   T   T
  1.0622614157283456 14.1491685805233676 19.3457713899136259   T   T   T
  6.2501597276375760 16.3651503089704349 16.6876080039048453   T   T   T
  6.7947187489648364 14.0480010390121013 14.3820897112548689   T   T   T
  4.0064592601962197 14.1058516512299352 16.1649979557949557   T   T   T
  4.3925360008951300 16.5552722030751021 14.0711510726369884   T   T   T
  2.8737841423310022 12.6574592556604166 13.0595983286275796   T   T   T
  2.3707232394463631 17.8144883352048105 18.1385622228054864   T   T   T
  7.8106233992465350 18.1061637540885698 12.7690263620310560   T   T   T
  7.6254080873622181 12.7470156789055853 18.4962620460615206   T   T   T
 11.3617960291657116  0.9571297783883378  6.4881088677614107   T   T   T
 11.7113385151331766  8.9268814145889994  3.7898642481275093   T   T   T
 19.0007894451289943  9.3071392091962899  6.5580786355162735   T   T   T
 19.0502082907688006  1.0222922100056044  4.3433809893024087   T   T   T
 16.4271026706377370  0.9883752447724891  1.0932942828754522   T   T   T
 14.1751856378052903  1.0624957657404781  8.6330441486049985   T   T   T
 16.6355261918880828  9.3559045376507441  8.7582986847736102   T   T   T
 14.5340498275661094  9.4386672480340543  1.4680509706125979   T   T   T
 11.9242010312594626  6.0629394585315586  0.7875604851000217   T   T   T
 19.4538527962091763  3.2854947142761168  1.2521191549333623   T   T   T
 19.7978676401049682  6.4186784773382568  9.0659571482885433   T   T   T
 11.3792818077503366  3.9790540002203718  8.9264631495231601   T   T   T
 16.6156883835164138  5.9514795958250097  6.2384183113952263   T   T   T
 16.4292913808923657  3.3274783124943879  4.1141912451590636   T   T   T
 14.1123766076446806  3.5307446357511143  6.3099232632522186   T   T   T
 14.4273203213203640  6.0619220437419594  3.8550023012157415   T   T   T
 12.8075906885352762  2.4190811683463114  2.4978625601387985   T   T   T
 13.0725939501349586  7.6629005716818144  7.4844834204877904   T   T   T
 17.9492746671822800  7.3503851267318669  2.5605258501314183   T   T   T
 17.8882586907018961  2.4898317812520059  7.7178946177443040   T   T   T
 11.4128588670953270  1.2762235494183256 16.7390841571609279   T   T   T
 11.5078364358789340  9.2811665309445353 14.2808422961811612   T   T   T
 19.3325779586429363  8.7023412228212482 16.7471772537457717   T   T   T
 19.3503510203597955  1.4883236011263830 14.2306505428352406   T   T   T
 16.2485375571110993  1.4605588259043145 11.1916329615830072   T   T   T
 13.7366866523557434  1.3749790409112697 19.6283739333369560   T   T   T
 16.8249506875543275  9.0783290588052825 19.8634074949334050   T   T   T
 14.2272247816087596  9.2650370949735539 11.0387633565567196   T   T   T
 11.3052747477041962  6.7020912415586400 10.8371595009803023   T   T   T
 19.4625933055329199  4.1880356415903917 11.7481388777256957   T   T   T
 18.9847624601164071  5.5482838662036045 19.4343636695953137   T   T   T
 11.7451217564560029  4.1102720259769692 18.7627073515982943   T   T   T
 16.5138827627907432  6.2585428613605814 16.0724310716146981   T   T   T
 16.4534756206709147  3.9523224533021439 13.7192582048866676   T   T   T
 14.1713851780321285  4.0435518522847937 16.3146712278187138   T   T   T
 13.9509078743651358  6.3757943957805407 13.9232967005443680   T   T   T
 12.6806269046141971  2.6886325656805576 12.8061675726260980   T   T   T
 12.9810508067213703  8.2547715781172748 18.3097918630248202   T   T   T
 18.3497428916648602  7.8727064496537853 12.8845456228889663   T   T   T
 17.2466080835315410  2.2445805169682376 17.9574990847606983   T   T   T
 11.8253885973563300 11.3112176407858076  6.1071247892446845   T   T   T
 10.9118282618261677 19.3582779424452767  4.0432178197051796   T   T   T
 19.6546511852843651 18.9258024266640170  6.4862250164740720   T   T   T
 19.1153269985429617 11.5986568036383755  3.9655136911583595   T   T   T
 17.1182671145549890 11.7076531807629287  1.2867270076836659   T   T   T
 14.4115635847861849 11.7528602029198233  9.0431868762875158   T   T   T
 16.6296152881094272 19.5391966258933110  8.9852194470391069   T   T   T
 13.6149761899886244 19.5850672327752697  1.3564266156662628   T   T   T
 11.6039109447075592 16.8424104566637354  1.0729941029728420   T   T   T
 19.0929738201358745 14.4304887618404436  1.0081220981593630   T   T   T
 19.7243549516750889 16.7546208196622075  9.1430694192332034   T   T   T
 11.6599656571545296 14.6231637838994981  8.8967987824464068   T   T   T
 16.4144394947296774 16.8132312462501758  6.6046230901574301   T   T   T
 16.5408859203482379 14.5242047769707927  4.0137828344692537   T   T   T
 14.2879292761476790 14.3408080207290354  6.4048212947304668   T   T   T
 14.2434046761964090 16.7405279601973831  3.9860978735590455   T   T   T
 12.9926981933198764 13.1230851036150593  2.4435695571581499   T   T   T
 12.5781852904270828 18.0090933551302115  7.5511361679615376   T   T   T
 17.6564550988587001 18.0033388753391961  2.7528110146107179   T   T   T
 18.0314261326946621 13.1723902738203833  7.7055193039151852   T   T   T
 11.1716578767892294 11.8954593381336675 16.5237616471088593   T   T   T
 11.7318289522968051 19.7071739582911825 14.1363354692394978   T   T   T
 19.3843092355141380 19.0233993789796685 16.2897581888691114   T   T   T
 19.6716184445034514 11.5184858632172062 14.5005800085022383   T   T   T
 16.6869200996577121 11.5041342875561430 11.4768063618580722   T   T   T
 14.6762797395396287 11.7111783436163606 19.4361287090816788   T   T   T
 15.9055147373966470 19.1814282804922698 19.4426504801843691   T   T   T
 13.9561412406374927 19.5367346128779786 11.4015493869928761   T   T   T
 11.5711329525857636 16.6929054729629058 11.3608446332376118   T   T   T
 19.2198415671955871 14.1467764651023131 11.3727636910131373   T   T   T
 19.6537474066338689 16.8764122113827284 19.2959385379867534   T   T   T
 11.6013612170520926 14.1952062686115248 19.4514106464140681   T   T   T
 16.5301094369836221 16.9020445096346741 16.8955252314994091   T   T   T
 17.1618592037060864 14.6630016387521849 14.5202013814267588   T   T   T
 14.3637105723419740 14.3948840483376319 16.5759920091669386   T   T   T
 14.6804337635165680 16.9636017210876879 14.3977106385371716   T   T   T
 13.2196781870436944 13.0961971989068378 13.0033287279546403   T   T   T
 12.3200344947362943 18.0428692468734369 17.8240562688477588   T   T   T
 18.1551468845159576 18.1817889870603757 12.6297050449068813   T   T   T
 17.8672991729042749 13.0041299736078031 17.8228501853824959   T   T   T
 -0.6255858601821602 -0.1506045757138175  0.4526861947146036   T   T   T
  5.4857465741288776  4.9658179182297442 -0.9441961418179950   T   T   T
  5.1412757951417216 -0.5326931096053801  4.9811261082489837   T   T   T
 -0.0989917374631780  5.0051530846679082  4.6566959175952078   T   T   T
 -0.2328756426648216 -0.0785582403115198 10.2474112173567065   T   T   T
  5.2591491941197805  4.8983821940551353 10.1592191038357083   T   T   T
  5.0919705870974914  0.3913075683887368 15.5970103489002394   T   T   T
  0.4323773604236165  5.0355095804092525 15.2725368021849217   T   T   T
  0.3446691023652667 10.7119858664821557 -0.1675114058732586   T   T   T
  4.7890815211642925 14.8998898053092006  0.1293913431315634   T   T   T
  4.3320733750432403 10.0239981084964249  4.9047795899279745   T   T   T
 -0.0150566079057082 15.2827226419925619  5.2886811165711638   T   T   T
 -0.1181582580474601 10.5247092104032287 10.3131931745009489   T   T   T
  4.7024725114880441 15.5085802936578467  9.5385607530926375   T   T   T
  5.7177759485018012 10.0900446643942683 15.5099233486790933   T   T   T
  0.4016414540556995 15.1610993572715920 15.2931921859037541   T   T   T
  9.8032796089680723 -0.1211431604177187 -0.1842744980261622   T   T   T
 15.5359082648741111  4.9348457984774878 -0.6415565433593150   T   T   T
 15.5157005564193948 -0.1701655591873531  5.1267739878811618   T   T   T
 10.6914473252015512  5.1805989642613177  4.5216106153797471   T   T   T
 10.1469514736526474  0.0521601486849901 10.6749240793463827   T   T   T
 15.1667191607229199  4.5011304806709891  9.9019290436828893   T   T   T
 15.6138921953559553 -0.0187783691736993 15.0372383925541993   T   T   T