Li P  S  Cl
 1.0000000000000000
    25.1819793006824639    0.0000000000000000    0.0000000000000015
    -0.0000000000000009   14.5388225279766061    0.0000000000000009
     0.0000000000000000    0.0000000000000000   37.2126966544236950
 Li  P   S   Cl 
 287  48 240  48
Selective dynamics
Cartesian
  3.5787723149278303 -1.1600240259285473  2.9673790405569234   T   T   T
 14.0322109011537712 12.1833913683916428  5.5631123396874482   T   T   T
 21.1129995997704043 -0.6287878006860855 23.1168319857536879   T   T   T
  8.6740759011755433 11.9712294386130704 13.6191602888780992   T   T   T
  7.6659322221351029  1.3831284888209505  6.2372612436796890   T   T   T
 20.4116997490308485 11.9492378372787140  2.9628531372415536   T   T   T
 -6.2025337121843771  5.9303721520428185  8.5010684701164632   T   T   T
 14.3708320899092978  2.7404462969305952  5.1771620425507994   T   T   T
 18.1584484100551649  5.0631861572482446 11.3682946457011766   T   T   T
  7.6529009781168291  4.2507462119991484 15.2778527060386011   T   T   T
 10.2063453528870483  9.4494343902034110  1.6779696214222830   T   T   T
 26.3509923142654081 12.6331918808660078  4.9361973689557903   T   T   T
  8.5936188094528134  3.4747374777488340 12.6290762924202440   T   T   T
 10.6283110797146030 13.3668647778676046 13.6477957886807513   T   T   T
 24.6379794301127291  9.7734910179875207 12.7470821866789290   T   T   T
  4.5618710295497662  8.9729188578814671 12.4784220168814919   T   T   T
 12.1505094463862928 11.1266484081202321  3.5628830150770288   T   T   T
 23.7765249827683220 15.6939151570136222 -2.9365316522222846   T   T   T
  1.0963361898138138  2.3500159091495831  7.8401513556687359   T   T   T
 15.0252573343063247  9.6945789048708946  5.4900001995678434   T   T   T
 16.2883394845769907  2.8919533225066347 14.3466274490502759   T   T   T
 13.6936974039179695 12.1509603310314951 25.1716827944146679   T   T   T
 22.8080524885692455 -2.3021208454345938 -0.6085437535835968   T   T   T
 18.8376435778784845 13.7654439302442828 -2.2252091719884448   T   T   T
 -1.9153434982105710  1.9211621082460710 12.3776754648940219   T   T   T
 22.3088072375619966  5.3048367671767096  2.8441881137675962   T   T   T
 23.8887145402600787  5.2319474535181127 11.9808912705115773   T   T   T
  7.6771033810675933  1.5176879069863070  9.4421554051023922   T   T   T
 15.5241635028158242  7.7095365938383678 -4.8409985763502146   T   T   T
 27.7549794102140872  9.6339440050337082  8.0982759397729325   T   T   T
  0.9918386210921413  2.8270643372186450  4.4073099908771489   T   T   T
  0.7153567199795952  9.9326862872228894 23.5565512722472121   T   T   T
 14.9186489651844578  7.7160212238842476 12.8933395217571753   T   T   T
  0.5389532088336233 15.4474611223641354 10.9552907497815060   T   T   T
  3.1749757807754948  6.1106665051220146  2.5327394890209520   T   T   T
 35.7567758911830964 16.4283572387937653 -0.6277202144306671   T   T   T
 35.6256394148209452 13.4205972210615894 23.7426578960944319   T   T   T
 15.9872411814310986 10.2372776689509806 15.2396494645605216   T   T   T
 10.0680130776561310 12.6170877008665965  3.1891094885843412   T   T   T
 -3.9267851205442756  9.6999369236926611  8.2534187778552592   T   T   T
 10.6599383101853853 14.5583605831209386  6.4002153096256302   T   T   T
 12.8275134452308102  9.7279337274247268  7.6662589069112350   T   T   T
 23.0112902069407532  0.8808215308817261 20.4590089627554761   T   T   T
 14.0333207255584576  7.3248041959417103 15.5721389016551122   T   T   T
 17.4733051153986914  3.8761904750566267  6.7769886534615011   T   T   T
  6.4528297456237969  6.6468507080069852  2.2257474903717656   T   T   T
 10.4980889414493141 -8.2998679801151223  7.6370037082487174   T   T   T
 22.4356336529030926  7.4365402853646509  6.0282010404875246   T   T   T
  1.3398284903838356  2.7655529930355134 18.2058155204785272   T   T   T
  2.8046131274877952  1.4323257836957446 12.5717180534408097   T   T   T
 20.2071118133634400 -0.8436393762054298  5.4789041603647695   T   T   T
  0.1386646962535536  3.6005175349431435 -0.2968377958630639   T   T   T
  7.3168965657958758 -1.2120999580581053  9.1708511445312517   T   T   T
 18.4431248438047497  8.5252355690321604 16.4956238863338420   T   T   T
 -7.8135450938203430  0.5970851104603021 16.2565050290595181   T   T   T
 11.3958326844505482  5.1407481761740339 15.3801548643792216   T   T   T
 12.7366189537151122  3.7726875070633188  8.6964495945865234   T   T   T
  3.0435714551416844  8.7981838071940093  2.7008761271968980   T   T   T
 11.1854072565763349 -1.6957153570747847 10.3904471203279130   T   T   T
 21.0834832853106811  4.0390787124212997 12.6993392272636072   T   T   T
  6.1236563222449991 15.6064159907062816 14.8084124346206210   T   T   T
  1.6327173603389373 -6.4833666362624269 13.6071263176397608   T   T   T
 14.3916752800632306  5.7173198182566773  6.9655161130347842   T   T   T
  4.7557073176852240 -10.5399050167431394 11.9623544601470169   T   T   T
 17.8755188647351773  9.0274275095401251 12.3706103457761607   T   T   T
 18.8164735488082222 13.3119075305729719 14.5891257814441158   T   T   T
 22.0921600878134790 -1.7116308490026386 13.2536045837151431   T   T   T
 11.3001431719013468  8.1253740355307933 11.0060278957894635   T   T   T
 25.1711411265620271  9.6739228448477874  7.8192129847196830   T   T   T
  3.7282186399088735 19.0251848974867634 -2.6066780050146745   T   T   T
  7.1436708503778084 -2.5604455771714050  6.2332196968796456   T   T   T
 15.5805890274165950  9.0266350968259133  8.6719439760867072   T   T   T
  0.6688263667630034 12.1509301995733789 20.6390226192203947   T   T   T
 20.6272623710194800  2.3794582849899584  2.4371384110911003   T   T   T
 25.1269449016633786 11.7838827623180542 16.9541089540157870   T   T   T
  3.9602955937905713 -10.3682422009858755  4.8192518763829044   T   T   T
  4.9177420874989872 -1.3352138971083998 -0.2252504264715452   T   T   T
 20.1536884353669024  5.9266538862080056  5.8019662704871715   T   T   T
  3.6615968755058366 12.1525485236147244  8.3079803906110072   T   T   T
 18.6230113758984110  6.1098847522214852  2.2596062713586749   T   T   T
 16.8956354958378334 12.2791966707642590 13.3663891696365926   T   T   T
 -2.0030823293837643  0.5874935630775545 14.7979122105923100   T   T   T
 12.6274230153175271 13.0352234873324626  0.1440721709746245   T   T   T
 30.2814026944166130 -4.4062274828343622  0.1204554285458589   T   T   T
  5.3055106410088904 12.8099598729500155 12.8712798160109045   T   T   T
 11.8972114617125921  1.1167948794660101 11.5328677431778885   T   T   T
 19.4543911508258347 11.5442851397676236 19.0326257685866835   T   T   T
  1.3543846794183279  8.4703385522584771 28.1774006196519444   T   T   T
  9.7020241363640540  4.9501120663684963 -0.6021285081888234   T   T   T
 18.0217716331125146  2.0972755459336510 11.4435473258957305   T   T   T
  4.0989935262528157 10.9335954722188564  5.3217652780580407   T   T   T
 16.1770342520257415  3.1683056296090135  8.8107284381632596   T   T   T
 18.5881573867208658 11.2585555515934495 11.0255432616928832   T   T   T
 14.6483957448371456 -2.0193115940801869  8.9778525009326966   T   T   T
 16.8142057130385396 11.7339151596648623  3.6364971374699722   T   T   T
 25.8721245713193646  5.4412425196490402 -2.6877890306310452   T   T   T
 10.2398461421282914 15.7765442785618966  8.6411754273450558   T   T   T
 12.4203160368233139  2.3729742580548692 13.4987030609797465   T   T   T
 20.8748190266633102 10.0095715685375559 13.2858112680705887   T   T   T
  4.0560330162729237 -2.9279175497255001 14.3825377889694170   T   T   T
  7.5152281355922561  5.2252256695800350  9.2745477835066250   T   T   T
 29.3486964537220452  8.9101543413776252 -9.2662049709262586   T   T   T
  0.3843051042893961 12.1626949491982046  8.3257045192690597   T   T   T
 14.3437383845159463  0.9449252354105456  8.1474890701128864   T   T   T
  7.3457914714697035 10.4774140102243312 10.9232959768238373   T   T   T
  3.3261061368003131  5.1893400186942289  7.8271086348876926   T   T   T
 10.4150368841754535 20.9283416252218650  1.9455141296627250   T   T   T
 16.9991611734077708  1.7611440314245375  3.1289800305375564   T   T   T
 18.8811507703994366  8.4102865362836408  8.2893068591957029   T   T   T
  3.8818909460424882  2.2932313944103657  7.5739843204336177   T   T   T
 13.5922996865917280 18.9325711853184764 18.4681783970778355   T   T   T
 25.7839296142799981  1.8116055231561352 13.8608824799641503   T   T   T
 -4.2274314646702971 24.2494805392943888 -2.9917187634391915   T   T   T
 15.9607004159786854  5.6651757668325562  3.1702690638303026   T   T   T
 23.6697943551802013 -2.6502912727559038  2.0736487080033696   T   T   T
  6.3967328783989101  7.9653134528632510  8.4159829967020130   T   T   T
 23.6559903827183788 -7.1701621955869639 24.2042427268631855   T   T   T
 26.9706218756523590  7.0570329366570315 11.1279128718911711   T   T   T
  1.9195376927047025 -2.1780162120415696  0.8551774597220567   T   T   T
 12.0615126568813569  3.4193582881319782  3.0866896075589483   T   T   T
 18.9358320732643897 -0.5658520977133416  8.0750420238087237   T   T   T
  7.4448939632225057  4.8873198711569081  6.3854551056323725   T   T   T
 15.1057257135218297  1.9963394452572361 18.2122332309398693   T   T   T
 -0.8646250826335545  5.1447847108264391 21.8048408084898639   T   T   T
  9.3436968815832468 -6.4857295230113952 15.1046370379016803   T   T   T
 22.1610567514676298  4.4521309898124786 -5.3534432890279486   T   T   T
 23.1172735003160206 -0.2392469393374732  6.7911780567222602   T   T   T
  0.6139306162522048  9.4936630563375086  4.7454297666914478   T   T   T
 23.3075119130103907  4.3346482653312917 17.9017658979679481   T   T   T
 15.6521139717625619  4.1896932415527663 25.9129476031241133   T   T   T
 11.5596090382610264 -5.4680676375163193 -3.5272984756015031   T   T   T
 22.8824747496753851  7.4783319988451460 14.4841027131655391   T   T   T
 21.9016457039801864 14.4538763268449859  9.1484607040226571   T   T   T
  9.9368699455380174  6.5310028906961097  5.1957955812003132   T   T   T
 14.7460566152477295 14.0260571651182371 12.2311184384461100   T   T   T
 -5.1652044811972404  1.9937124756773392 26.9880894734529875   T   T   T
  6.8482156333658910 15.2580153761689576  0.1959839149607510   T   T   T
 15.6926236551681679  6.3076421193859487 -0.9131910463856485   T   T   T
 17.2227361106286985 -3.1634667901480764  6.9738710399564434   T   T   T
 -4.2565433088701043  2.4139913780241189  8.0018569383560560   T   T   T
  3.5254210456787369  7.3498450205245867 17.1467367061582650   T   T   T
 30.1602203660641734  4.1808965931214033 15.3213632071480710   T   T   T
  2.2114182153042381  6.6440096094550238 -0.4749325157586492   T   T   T
 20.2533362985149807 10.1443167742924256  0.0719165169345275   T   T   T
 13.0018464031033574  5.7449157785893616 34.7128266525592792   T   T   T
 23.9297930793602447 11.8393445137524473 28.1283900092401957   T   T   T
 -7.0144649788267763  1.9968340253073678 24.1826206859170050   T   T   T
 10.5697859724385967 13.1613054276589061 19.7987194832545867   T   T   T
 19.9967918582380406 14.4421079198540863 38.0538976168564176   T   T   T
 10.9225874458816730 12.3472203518969241 32.9867004426294912   T   T   T
  6.1544350344162382 13.2561272233460716 24.5233111963472119   T   T   T
 16.9250755601424743 14.3983113669531129 32.5000349418738566   T   T   T
  6.1371593778041920 -3.2808284889329613 18.2386785211721794   T   T   T
 13.1995604382191463 11.5902774229120187 21.2054325478638255   T   T   T
 13.9641069284487003 -0.6062404760029233 35.0831901524352077   T   T   T
  2.2094695637437320  9.2101982260012125 37.2166900154724658   T   T   T
 12.5674369827873900 -0.1877739047862101 15.7518990309884011   T   T   T
 27.2403031700851095 13.6886874463975161 35.0939881247777379   T   T   T
 -9.2641118620821530  4.2516505151672890 22.1346886801416076   T   T   T
  6.8452040833834280 18.8854351297792249 19.2073584156360901   T   T   T
 14.1254917922037198  1.7655637920805525 37.0127611573966533   T   T   T
  9.4980696250078385  6.0880126831126784 31.2481438285551363   T   T   T
  6.6570737337294048  1.8838095456073238 24.0123818362817936   T   T   T
 28.4850082165823224 12.3869458494227640 28.8487761279136095   T   T   T
  9.3455931657986149 -0.5690717666054765 27.4296784775955373   T   T   T
 11.2243066667340798  4.8114982025094708 12.3400579982259799   T   T   T
 24.9950562254382334  4.9426894094597857 28.5425623812965803   T   T   T
  8.7122327442189835 12.3846872746219976 30.0857470354215870   T   T   T
 16.7713321802796145 17.4040513766940137 29.5592431868455137   T   T   T
 21.0010535217198466 14.2544121406644742 26.6539971313749859   T   T   T
  2.3303268075198433  5.9260393754163996 21.0121274595442493   T   T   T
 12.5852361652291425 16.0297716750919470 24.8652675582735725   T   T   T
 21.3532060301672431 16.7832872074429957 30.3272395435617312   T   T   T
  2.2121394023804277 15.9964060073208589 28.9405258536710903   T   T   T
  7.9313483901181989  1.7144677793633476 26.4442689312761807   T   T   T
 21.9979169415736884  7.5583244853616929 37.9132201840571881   T   T   T
 -0.4615213260213183  2.7389389778521336 23.5858918705100145   T   T   T
 14.6792527259759620 12.3824886633257858 18.2481679370379304   T   T   T
 18.4767138971872420  7.2258111474405773 36.7524793163499197   T   T   T
  6.2170554678928500 13.7656442006578565 39.8555771052818457   T   T   T
 12.0896850499204529  5.2218789110283002 30.1186109236354653   T   T   T
 21.2025867139445303  2.1770654741101017 23.3130664916622976   T   T   T
 31.3812533770976074 16.4535306460172173 39.9044075393159616   T   T   T
 13.5160989428903218  2.3496140783539596 34.7295991537959594   T   T   T
 18.3339857291383304  6.1373416324746977 28.8947429209875075   T   T   T
  5.4105013105004316  2.6151218881954996 29.0461402239924844   T   T   T
  4.3002592269393327  4.2960844172375134 23.4700658770176496   T   T   T
 18.5009085392089823 14.6729679089108060 18.6161467442345163   T   T   T
 27.3292771805971064  1.8853509524184351 21.8654027668664455   T   T   T
  8.6978455638617174 -5.1166328266323982 35.8358059523906505   T   T   T
 12.3802931179780238  9.9102257519564407 13.3289422872721115   T   T   T
 10.9832686458945421  7.6053707550251604 22.7100202061770418   T   T   T
 11.0965872373432877  7.3734458582443265 26.6836348243866084   T   T   T
 19.3245579836170300 20.3726447219036757 24.2316832524784651   T   T   T
  0.4806574382681626  5.0914585203595530 43.4924464430354547   T   T   T
 11.7373962071943385 12.6149288717548806 28.7357142077593721   T   T   T
 13.9704484596979004  9.1148060580116788 28.5848406364936594   T   T   T
  9.5524132521836052 11.9848556319858428 36.5498519116386618   T   T   T
 16.0707152128013107 10.8108046323792077 25.1647941909507367   T   T   T
 16.2700946739648877 10.6764817054764549 21.4793157552839347   T   T   T
 -8.1012037264893166 -0.6561730273677080 36.4891416856195292   T   T   T
  7.9394110905812747 -3.0922361271563186 34.2664854142152819   T   T   T
 13.7729531530874318 13.7131182230877613 23.8376446304531164   T   T   T
  9.5164692104786486  9.8975793025085643 31.8637778496584048   T   T   T
 -1.0585525126055344  8.4256824345560393 10.5663535981964642   T   T   T
 22.2250763327008301  8.0603334466304570 26.1615966250801506   T   T   T
 -0.0485516664696427 10.3932749988095132 30.5545424311687093   T   T   T
 16.5453563102446211  4.4598783144659402 37.6175141636228432   T   T   T
 17.8640602993541791  9.4713591776665140 29.2794516130640439   T   T   T
  6.6180975743610784  0.3218516918462703 30.9884870040123204   T   T   T
  9.0499967913603356  1.1761022502005705 18.0937068927417677   T   T   T
 18.4598284917669417 13.4548069766000769 24.8851578638846327   T   T   T
 21.9044387215957457  5.9065248282883918 45.4827499698367603   T   T   T
 11.3985074479383819  9.8542492870528342 36.2937767789994652   T   T   T
 15.4202370425100010  5.4669795171588378 30.7171082518525687   T   T   T
  6.4243086888859651 21.8487738169968679 20.8145479234684174   T   T   T
  5.1018825967412038  1.6312147390739851 18.7889728313772437   T   T   T
 28.8723450218873339  1.3870599161292914 31.8453351180914446   T   T   T
 -0.3497268453478039 12.9726746780161228 23.9757203179650524   T   T   T
 19.1579457428710818  5.7931916279283877 14.3349419403975880   T   T   T
 22.1357459668110579 16.7955294787163893 36.4291220024748839   T   T   T
  4.1605005198309319 10.1683251207610237 34.4737912815406702   T   T   T
 13.2300961564757174 11.2927404196917340 31.0176176407503661   T   T   T
  3.6701532171719236 11.2762427454473908 24.7119217661404313   T   T   T
  9.2388278948521148  9.9963759378220249 20.7701123789781228   T   T   T
 14.3380151555079216 15.4373387373696325 30.2698931995628548   T   T   T
  2.8194888292402163  6.0168813080886343 30.7193703802982405   T   T   T
 17.5743978389374860  9.5264215371159686 34.1627969995211629   T   T   T
 21.6908806784043087  5.5077316440210948 28.4769424890982172   T   T   T
 -2.3004508700154984 12.0098431390818732 32.3431211730919230   T   T   T
 16.7286141200434599  5.0402661439144385 18.8806833744591138   T   T   T
 21.3807976780541047  9.5929301887209775 40.7163890935315891   T   T   T
  5.5686673284528503 -0.0759649598081973 28.0656203289745996   T   T   T
 14.0616026732825432  9.3424999784065861 22.8526516125129788   T   T   T
 24.1975390420527745  3.0770247699140389 32.0944116410657969   T   T   T
  7.9168545319837298  9.8056839102991411 24.6196263359663945   T   T   T
 19.7454320326485018  2.0625355504382941 14.6987672759638599   T   T   T
 22.1630143710622036  6.7998747603826653 35.0027631985949412   T   T   T
  9.4734757495326409  1.7650287114529504 31.1125389251877245   T   T   T
 11.3691101821144098  3.1553313472023485 32.7916613396931993   T   T   T
 21.0798452315886315 10.7100445871707475 28.6403070606074657   T   T   T
  1.4046703655433670 13.6370406083002660 13.6083557647461273   T   T   T
 20.5740971918351931  4.2012017384696358 17.1001345983173358   T   T   T
 16.9118750549362957  8.2575772996131711 40.2953134907016022   T   T   T
 11.4038504285105020  2.7039238845778200 28.3578263579242318   T   T   T
  8.6775129315701474 19.3121602009207898 28.5307341680371813   T   T   T
 23.3792450934393479  0.6476598744560190 40.6793938262828974   T   T   T
  8.0998491350156829  5.5110303038796031 22.9469757638406229   T   T   T
 12.9521465421906594  4.8889650363910615 24.3946928098973608   T   T   T
 19.2429401618980052  1.7685584849810618 34.6671827941078661   T   T   T
 -0.4886076833553605 -5.2009486673058811 34.0892566383336728   T   T   T
  6.4160911521927906  7.5417940099082204 30.2917831768918049   T   T   T
 24.0741778802717654  1.8731225199809882 28.5105992786852092   T   T   T
 22.1072061807067755  8.3704185924350210 30.6705964440281704   T   T   T
  9.8787674107483170  1.6131792893890833 24.3657041961696414   T   T   T
 13.0799484285985237 19.4608613980736571 37.5299092579384848   T   T   T
 29.2124044803508980 -1.6142644683764644 32.5170811372739905   T   T   T
  5.6823420705795833  7.9193338503001804 33.1502940609257095   T   T   T
 18.2645002623436525 21.6668258569779901 32.2547738526744823   T   T   T
 12.9110223412817078  7.9187729883758458 20.3453752290519496   T   T   T
 11.2071414076962181  9.4090780879374840 17.8333794318679466   T   T   T
  3.4341447722143528  3.0184036107950343 37.6514535300344306   T   T   T
 21.7153563456030341 -1.3876042791157792 30.1437303626447459   T   T   T
  3.7345045254159848  5.5252956434990361 28.1723336882492461   T   T   T
 19.0500019093870669 15.1376141755925016 30.5782650310635198   T   T   T
 19.7674501815245804 10.3252696231023275 23.3754432962968686   T   T   T
 13.4606405198413022 17.3393325101165274 20.5325395028353377   T   T   T
  8.0662946895675383  3.2996027611472027 34.2229017935396200   T   T   T
  3.6213744929389886 12.6852347913769083 21.1013741616527177   T   T   T
  5.3220982354869708  9.8231052683680868 22.2762899423302763   T   T   T
 15.1468751046749546  6.9521244901992452 28.1222908981229658   T   T   T
 19.6938780814904000  8.8240397179363814 26.1676597694974511   T   T   T
  7.6617972177326719 14.9365830852887136 22.2350086932454793   T   T   T
  7.9742611589023538  8.0553331060959437 42.2479036111905799   T   T   T
  9.3678825114957771  2.6326733125217667 39.5920768166471362   T   T   T
 10.6345714303842716  9.4551678502383556 29.1349318599919904   T   T   T
 16.3243903498888798 -0.6280784048801805 27.7951825098204104   T   T   T
 26.3763671940428495  6.4636110372345650 24.8557229098023704   T   T   T
  1.5341737864464551 -11.2431764837273462 25.1703906145917280   T   T   T
  5.5016221570852819  7.0210481231827906 36.3540562404200998   T   T   T
 -8.6003185947755512  3.3615029252694737 35.0458710133206921   T   T   T
  3.0664471827351316  8.9460031907996065 30.9179017718160480   T   T   T
 16.3702849720128647 12.3988449925741566 30.1364459116633654   T   T   T
 22.5017925356314485  9.2194509336395232 22.8361515010792075   T   T   T
  6.9127532181839779 -5.3936752946119668 14.7108589250230501   T   T   T
 13.5222251204839718 -4.6265405196468397 38.8277529968578463   T   T   T
 26.6118077220092566 16.8866910412770324 34.7760445655144750   T   T   T
 -0.7130729471910985  0.3067945953655229  0.1008954660491810   T   T   T
 11.8401625661860663  7.0193569389558013 -0.3707334673419073   T   T   T
 16.7136609063404968  0.0846647942178152  6.0826452186077153   T   T   T
  4.6629995794400401  7.6019497834806184  5.3929467553275785   T   T   T
  8.5218251987167761 -0.2351587294292270 11.8005486261054742   T   T   T
 20.7397422211009363  7.6433924619738560 11.4382222302428644   T   T   T
 22.9104039396764918 11.0690358905654005  5.3203861038625089   T   T   T
 10.7702415029805909  3.1536810704563987  5.8233089158675284   T   T   T
 14.7989842510464804 10.9473688187518139 11.6773123411174424   T   T   T
  1.7859714476403068  3.5130133866816546 10.8195458312729436   T   T   T
  7.3054163134240389 11.8147623915466831  0.6614682836235514   T   T   T
 19.1483539746540394  2.6656176906848681  0.6502371378335920   T   T   T
  4.3597215521328971  0.3396240948129636  5.3809082192072797   T   T   T
 16.8293236285778569  7.2713061950633771  5.5712659824133324   T   T   T
 20.4506817095067746 -0.0735182093743838 11.5615923624604058   T   T   T
  8.0924832969291511  7.1447926702997826 11.9585850428502951   T   T   T
 15.4866929623367131 -3.6051343471358743  0.6594067393871214   T   T   T
 -0.6513945222204857  8.0239205732793319  0.7443803127158479   T   T   T
 22.8199837903427500  3.8038165710628449  5.8272956252025736   T   T   T
 10.5653959642216453 10.9309714788713777  5.9659750163765795   T   T   T
 14.4767209552491352  3.7232642926887789 11.9672745161009608   T   T   T
  1.9706906864363078 11.0255464534946803 11.0485079561441495   T   T   T
  7.2795737777111107  4.4235614212171370  0.0262003322979956   T   T   T
 17.4638684320598365 10.3723782364386299  0.2986271960760751   T   T   T
  9.5286974080685312  6.3243694943272963 18.4705813175008444   T   T   T
 24.7628441350450963  0.0233957211755287 16.9806405133982352   T   T   T
 25.0121559107166398  7.3110631782923186 31.7980025956913828   T   T   T
 12.4350521783950754 15.0825896893415567 31.9946381454221722   T   T   T
 16.2873812312171822  7.7522815328645622 25.7772315512581613   T   T   T
  4.0032481085353178 15.5518555276824362 25.9008357656063275   T   T   T
  6.0856194795504051 10.7390564725248847 31.2725002052790089   T   T   T
 19.1917467959429509  4.3337220784254411 31.6192996069804373   T   T   T
 22.5332096984476955 11.4323786823341500 25.5488408824797695   T   T   T
 10.5959567526630174  3.8564442960741947 25.7182115991487876   T   T   T
 15.2857021162508833  8.8645209216699534 18.6067499215984853   T   T   T
  3.9280078137093577  4.3889483475988893 18.0012640233001235   T   T   T
 12.5933991891467691  7.9721092282185788 31.5559173907760382   T   T   T
 24.9384736593523435 14.4195733374334250 31.3140048979740975   T   T   T
  3.9363010446694120  7.8698354409365452 25.0091726883142833   T   T   T
 15.7471664142142185  1.2103071795008582 25.1595338625819807   T   T   T
 20.7882090963351196  7.0152607244016210 17.8253326173359241   T   T   T
  6.4590162369760762 -0.9476937807917438 19.4749297967873183   T   T   T
  6.2045370368069177  3.9426309540961113 31.8978002268836782   T   T   T
 19.2042867092365697 11.6679470960408249 31.6668381233122354   T   T   T
 22.6134204165293831  4.4303188247075731 25.6134475244432736   T   T   T
 10.5655250888121994 11.3848412048219068 26.0327200603192779   T   T   T
 12.3223786630453755  1.2722400880791405 18.3745667779739712   T   T   T
  2.7821007060389098 10.4859099789766397 18.2404375308426197   T   T   T
  3.8450961090353073  0.0733393870730327  7.3754127003132046   T   T   T
 16.9092774608101024  6.8927367717849917  7.6461148510736132   T   T   T
 20.5902241212469050  0.2914726710585930 13.7270487895823852   T   T   T
  7.5649622320258771  6.9678783668149160 14.0682276507307265   T   T   T
 14.8237108024716573 -1.7158700736122112  0.1329997723574134   T   T   T
  0.3585366438867891  8.2978749176269613 -1.1473578039698347   T   T   T
 21.1931879999707142  1.5751445101563368 10.8996376317453230   T   T   T
  9.1790109816001717  9.0586172249539345 11.9321116848866922   T   T   T
 13.7447828317430076  0.2533167555035185 19.5377225849784573   T   T   T
 -2.5061490857433939  6.4971573701948291 16.8827570079908931   T   T   T
  5.4751408490372260  2.0311121298337698  5.1281088452616723   T   T   T
 17.5361802966950933  9.1227038202326618  5.0880964186554642   T   T   T
 22.0667589139017402  6.1036843938084075 10.7971202136353615   T   T   T
  9.0055546260357868 12.4970022366245033 10.9564767160581269   T   T   T
 17.2299612085743874  2.9568641333289709 16.8706562935216233   T   T   T
  3.0883153307246758 10.0198724504032661 16.2832626795759019   T   T   T
  5.4373767208250232  5.7513924217096246  4.8809665701098828   T   T   T
 17.9959919905639403 13.0201897375307549  5.3539727681402534   T   T   T
  6.4843213488411093  0.0768375595452153 11.3434594371696580   T   T   T
 18.6707650432156775  7.3970285724093632 11.0703028356485600   T   T   T
 26.4168709177032817  1.1604398664835527 19.9699817605571326   T   T   T
 11.8988682837866815  7.7955149279427749 15.1679489400200964   T   T   T
 14.8396427240572049 -0.2161961438796141  5.5643556526613782   T   T   T
  2.8008199070868121  7.6222907249173959  4.7037613507678424   T   T   T
  2.2030436690856781  3.5150867680672895  6.2898916806638274   T   T   T
 14.9326076050729526 10.9060216073992322  7.2962397647532402   T   T   T
 18.8323760519299199  3.7185916439487947 13.3300723768901186   T   T   T
  5.9778624927934993 10.7315508371084611 13.2790105256663065   T   T   T
 11.2388785864365595  3.8928870886764684  1.0685415731676930   T   T   T
 21.9381763464399206 10.9303201253931714  1.3869840181195427   T   T   T
 22.8168371504411276  3.9292873349969430  7.9050094331714762   T   T   T
  9.8299888932759547 10.9049279973681816  7.8799311503717790   T   T   T
 14.1334131042589970  3.7890702046300171 13.9803957867192583   T   T   T
  1.6884233079763915 11.0913962547746294 12.9799460468363534   T   T   T
  7.3101659121287330  4.1625664463248713  2.0521538261418852   T   T   T
 18.3769783320244002 10.3167613920098802  2.2182733175985581   T   T   T
  2.5645561711852563 12.7701418323985898 10.3355721026653544   T   T   T
 15.6454060019083965  5.4024573039503903 11.6827011128808707   T   T   T
 26.5152039024320700 13.7845035581828324 16.3611858656924198   T   T   T
  9.5537865232134358  4.7902274704392793 17.0158199223723834   T   T   T
 11.5353104461942184 12.6995420628106590  5.3420901220129906   T   T   T
 23.6206886254207120  5.6683010043142223  4.9141032249757215   T   T   T
  2.8099385293203603  1.9131725536877104 10.0102995298195125   T   T   T
 15.9398878295896136 12.5218910275748936 10.8647590725407479   T   T   T
 24.6967152037945930  1.9080388388079950 16.3844528559100304   T   T   T
  8.4083751323632168  9.5496309733712099 17.0190970642527262   T   T   T
 12.0072409298350280  1.8219236685074125  5.0080243931336605   T   T   T
 23.6412797370225682  9.3401630305268579  4.5450072835436490   T   T   T
 -0.0785519399842825  3.2425928108724151 10.0379392013033701   T   T   T
 15.7949705250949144  9.1550712331797346 11.1364059932113797   T   T   T
 17.9257513571471776 -1.6062925117489497 17.0222178371418558   T   T   T
  3.2615304767200706  8.9688674517842326 19.7683242220023452   T   T   T
  8.8908240043663085  3.0962958602646440  5.2545382916861216   T   T   T
 20.9149884122925016 11.1538754417277381  5.0000741380896656   T   T   T
 -0.4402163459442062  0.3175237109518135 13.0260129216460712   T   T   T
 12.5722654746597815  7.2394019196093717 12.9913579046345919   T   T   T
 17.6504572824440444  0.9287603901893488  1.0288993095547383   T   T   T
  4.6465431749376513  7.9777606866597912  1.3746376337637358   T   T   T
  8.6199293542086721 -0.0084464776824246  7.5486249803016401   T   T   T
 20.6277234222432995  7.4148737346796123  7.1998086667577317   T   T   T
 25.6541730919570874 -0.8199495960457458  1.4982157114916386   T   T   T
 12.5340764277935186  7.4206287069566006  1.5122741859912021   T   T   T
 16.6396470418191882  0.2534798464080278  8.2045057416253506   T   T   T
  4.3566794089716820  7.5367258634943655  7.4265920291412364   T   T   T
  8.5346794204992236 -0.2977994150023504 13.8428537434595764   T   T   T
 20.7300435800868996  7.5439410855998235 13.4615133140019534   T   T   T
 21.3081916909712845  9.4890745330741133 10.9351000475603328   T   T   T
  9.3201058299962103  1.6522943642861687 11.0300365048450466   T   T   T
 14.9499343382184833  6.8499211127705442 18.4269609712067783   T   T   T
  5.4468335286560787  5.5830522543027774 17.3710573169829523   T   T   T
  5.7701566806196940  9.3318562465715971  4.9242424488067966   T   T   T