Li P  S  Cl
 1.0000000000000000
    25.1819793006824639    0.0000000000000000    0.0000000000000015
    -0.0000000000000009   14.5388225279766061    0.0000000000000009
     0.0000000000000000    0.0000000000000000   37.2126966544236950
 Li  P   S   Cl 
 288  48 240  48
Cartesian
  1.0162847805991269  2.1540377570949398  6.3018092351233204
 12.3317157639950867 11.4732211602835648  9.1255775453019314
 17.8940838849395973  1.5999377378503361 12.9561280713241320
  4.6398199206093729  9.5208869160708058 13.0352305386793130
  8.8315140273727284  1.9195651559221216  1.3082310924924414
 23.0922536432822980  7.9493666588623073  1.4062745069834235
  0.0677263894793673  3.9379572884340242  8.9996120094824992
 14.8111573964997554 13.3280742812132722  9.3017513439525175
 18.9779344985197795  3.8422110686431914 17.0142813025722823
  5.7219732396946821 11.3987202040251816 16.8549736817577731
  7.5754872608072459  3.8805410355546219  3.1952068710585033
 20.8648383401143143 10.9286762665288251  2.5085214403568683
  4.0708805407820723  3.6442602833931836  9.3045555684530150
 16.2098772739342216 10.9632785480329940  9.6085337659925631
 20.8119704670279582  2.7610894762347145 13.9334102079357365
  7.7893164059364874 12.0984577172515237 14.9804240945535767
 10.7258857848586757  5.7817589773194262  2.9880357990308029
 22.6450783436493630 13.8256103197492308  4.2524414634366305
  3.8941947162593644  3.4713351271461192  6.3176467698271415
 15.1092523874001312 10.0449288346096495  6.3441985215076278
 19.1190399064222198  4.9480267250771783 12.5504998819517439
  8.2589375629058015 10.3114326972707229 12.8444236757164987
 10.9665980972113584  2.5219529288876439  2.9506752197012691
 23.9568586623771012 12.0584912136039151  1.6073264130894667
  1.9488418168124613  1.4611859573545471  9.3540855454387462
 14.4747352286353284  9.0076738667399425  8.7427130048498789
 18.3206410301303286  0.8070447364945079 15.7319739191302954
  6.4731176964826629  8.7343653118234688 14.6930867217003893
  8.2235197270840228  0.7982546065234897  5.5903597287528148
 24.6544961313013751  9.4741523833506633  3.0911721300047899
  1.4758824276048348  5.6916127798141112  7.3244253974422469
 13.6283386831759863 13.1760706510180263  6.8688408862795747
 16.5545616817902719  4.8502795085414068 14.7129893992486060
  4.5521485426218700 12.4281408301647343 13.4254062143222619
  7.7310587074453938  4.4124884256693839  0.0123959358981477
 23.3025473371955130 13.3418596859685810 -1.1972652590708706
 24.1900634350661043 12.7057701455236192 12.4146418119593527
 11.2759366768318330  5.8178953777752573 12.4921162354544943
 17.0414178329588424 13.6711779255318273  0.4168057337835367
  2.3932472863277217  5.4832978821622236 -1.0617403687182629
  8.0227537318426201 12.3456892309180173  7.0874587457339677
 20.0950061491366903  5.4117652539859566  6.5938145776481001
 23.3620463232077746  0.3294598759335420 15.1217688513895752
 11.2539522193776715  5.7101296815977500 15.8675597691975323
 15.5498052381799976 -0.8287074236656369  3.5147940552159178
  1.6169277269669424  6.0226448162124235  1.8628758933655352
  6.8930893581870203 -2.2045120660246886  9.7838488722858763
 18.8436838672304532  6.6915607135592756  9.0310364220752568
  0.3360618225339799  2.4091809531748201 14.0228925229551695
 12.9522398083793817  9.2284579989896134 16.9647589229024831
 16.9947608371539687  2.4003435042610164  3.6490495632483713
  2.8903004807596688  8.2599798544841203  3.3725037221653027
  8.7506491445925381  2.0253145420912517  8.9289992323752791
 20.4096313359423327  9.2042580792087900  9.2207943078983714
  1.6396531690354741  0.3593047303663940 15.0143341275243696
 14.3565291359525755  7.4927205871011315 13.1880050390985346
 19.4487120851347228  1.2773548288621184  2.1309169175000862
  7.2990941721810199  9.8249550623342827  3.9956594621711501
 10.7963007076509658  0.1892579457571244  7.0205512610588228
 22.8360080744171334  8.6130596207755410  8.4985449151625847
  0.6296161419406717 12.1154817950191127 14.7663866857900636
 14.0293813395592277  6.1768276577634822 15.3316288468367610
 18.4584729493110977 13.1755830144217558  3.0168184602106187
  4.3839335221669016  5.4058144425607040  2.7784811491239392
 10.0185173920396764 13.7251691547711943  9.1817093717099922
 21.4933970975562865  5.5892928256282559  9.1118336147991350
 26.5872005827957025  0.5123050846438527 11.4928204298554260
 12.0555766348206728 10.0944130511492745 13.7732775573528556
 17.6238863334347720  2.1223116594201090 -0.3451494172505192
  4.3517601017201599 10.9885102743681440  0.1153259243148385
  6.5692463440903826  0.7124106949023615  8.8005921316383482
 20.3763369903076068  9.1813543276097711  6.1616107967788869
  0.9624736472135792  9.0821107148502573  6.5642024463501727
 13.5072686768193382  2.7603601944459784  5.9916811225563276
 16.1804142456635311  9.4169169067921246 13.6292131963763126
  5.5415828814255663  1.6375274703446019 11.9575778844502665
  8.7392426297494037  7.3146970155405464  0.8547871881702221
 21.1083164931261429  4.2764453261736834  2.4934375674225406
  0.4442477268974880 11.2184892602565949  8.7671337774058582
 12.7710648100184390  4.9968431279989671  9.0951126344902367
 18.0662603770826991 11.0490779588034140 16.1669132252253789
  4.1018613569060225  2.3609565320150105 13.8030822597855387
  8.8078428394772139 12.6614285508319675  2.4586667051687829
 22.6527166149703731  2.1809621106930965  3.8965991041979966
  4.0841003351425247 11.6650626319932140  9.0199776066821169
 15.7602616831294533  5.0531812721604616  9.3444300190412584
 21.1262179140876505  9.8976130313291844 13.6689168767319362
  7.9967738743805548  4.1496768006938254 14.7485549425465496
 11.6995565019480683 13.6351792666429841  3.1481203992203213
 23.9387204927831299  7.0581797484898150  5.1021288973874377
  3.7666843960292953 10.7121967459348770  5.7941283101448722
 17.1624607540329919  3.9003003679384327  7.2807951570865477
 18.8711352218792534  9.4033037636092480 11.4822928971009475
  7.7433494867668005  3.6552453278401749 11.4033567552346469
 13.6078627140418007  8.5430503093341965 -0.6014311473461006
 24.5707417064579765  4.6347976364167884  3.4997833232652455
  3.0168703272613961  8.7965777330969956  8.7625889405209492
 14.0075917528841831  2.0469020575236052  9.0419044944265661
 18.6203332401389794  8.3165866351588047 14.9265028105472624
  6.4785186451639571  0.6791092942993279 15.1956207273261228
 10.5364477997435788 10.1084479678373533  2.8947253651491702
 23.2165751246879992  0.8696213440220018  1.3166973885696189
  1.3120565021145827 13.1258802821230844  7.0945525008226493
 13.8051565337998561  5.5498687968140556  6.1023261415746903
 16.5588975280396298 12.2797413998542861 13.4233391493922785
  5.9202440044038607  5.7253218394641596 13.0066216212131849
 10.9972323056884189 13.5117921371887970 -0.2484900787614226
 24.3541582511993404  5.1571303195613689  1.1756744926403877
 19.3918531569859240 13.1202376003062664  6.8723934012030483
  7.2916273063976487  6.2837291687392831  5.7382719386240169
 10.9749639716622092 13.2656790936065754 12.8286141141225212
 22.7264707932100158  5.6247747078706629 14.6721455875256641
  2.0185907262563458 13.2448042295108159  1.4936768081318468
 17.4756036281421814  5.0449225540055203  1.9610308621935240
 19.2474013758522702  1.5230903880297184  9.7237067655972549
  6.5392669835854500  7.1630479283969040  8.8117771354795682
 11.2782885966758961  2.4290308981406450 12.7794896313707884
 23.8830968106231332  8.6846146236242667 14.8433866035315631
  2.8473790210835692 -1.7554526859169746  3.9155543116549847
 15.2179179729484595  6.6836265334879998  3.0268102371226018
 22.1103081265863928  1.3094353017731912  9.6273485626905018
 10.3515225297242566  7.7119649181678422  9.3926479665811442
 13.4952109245552521 -1.3243186759895746 15.1905248739827137
  1.5389646220019526  8.8861264027935327 15.0307783367279661
  4.3547995489407416  1.7672900616179223  3.2065563461672779
 17.1683733912754022  9.3325298900889937  2.7708766348315246
 22.7544982554130968 -0.8003339281813650  7.9884473603065196
 10.7126116460065308  7.5755580192703933  6.5337149970040915
 14.5717364326020800  1.4618135333575504 13.6760343774733446
  1.2028187420247776  7.4115724482611220 11.0520601252457720
  5.4626283590244515 -0.2768625514244485 -0.1033016672406644
 19.7620622680713787  6.1294174004296913  0.4337361212153739
 19.9356073026652005 13.2899376368555373  9.7599344706445219
  9.0353930661919648  5.3718056845844115  8.2815141807134580
 10.3116166530412361 15.6836104480596745 15.5399392134739909
  2.2901136851845743  6.4893718245518315 13.7741479218746274
  5.3197819346325304 13.4580339907951618  2.8658616997293374
 18.6243373225289623  6.0004361242851560  3.6143245747781605
 19.9660372437320177  1.9958082851421997  6.3209996071105055
  8.0868569330140936  9.3932565345056460  8.6353759024786942
 12.6533332934316824  2.0758240846572704 16.4762822120755743
 24.3877652200601105  9.4092951789965813 12.1307413591834976
  1.1247763573297005  1.1566905364664255  2.6660415714543215
 16.2599945008631188 11.0067547820271390  0.1973589426826081
 10.4773540259782330 12.5686593008800305 28.9642700514666700
 21.8241258125427855  5.3904750434088653 30.2628314929935982
  1.2425408466593890 12.0505216303005689 23.6747293701289259
 12.6455456340454795  4.2753728248994936 22.3868809372985034
 19.7600234834870534 13.0482646227489365 35.9900573687069141
  4.8365466844298073  5.4443364998124579 37.0789842642693159
  8.6191514966545135 10.3367263541253411 28.6521446447596553
 20.5276225992885877  2.6753056869596397 28.1774101752512713
  2.5121561809790784  9.0955598182955733 22.0493332140905771
 15.9448710283245152  3.3679908433922243 21.4215520816813267
 18.0155301768323000 10.4334741422736119 34.2758200923323884
  3.6483415077656307  3.4817972805439554 34.4859888334672746
 11.2452605671684598  8.2755356790272288 28.7237496035018616
 24.5617564113610989  3.0693532149822831 27.4347111240448811
  4.7949040369225937  9.6216049596608393 24.0695357155402938
 16.7806744466935740  3.1274884917152281 24.7405091107193336
 20.9965597426117263  8.9011453894810764 33.8632673290355939
  5.1999675921129107  1.1569039182723775 33.4354276285647103
 12.2542417848665917 10.3178560551651746 32.0095559295151872
 23.9583192076220648  2.3993952029821823 30.8369604762009502
  4.7160672001781476 11.7756076583503955 22.4570328025319839
 13.4089221316841378  5.1568618112986089 24.9957739307524491
 21.3866440025338456 11.1533559829264473 36.9916831103454058
  9.4001333131955427  1.9771126695181525 35.3034306286882256
 12.5312264107524971 10.8957697528685173 28.3844984304077954
 22.6636726224555751  5.3767392190871588 27.8628063276306825
  0.8125550652232859 11.2542437692339394 18.1608269326732810
 16.2624608629647440  5.2081982655300303 23.3641024511454631
 20.7251634503935840 12.2627734191234374 33.5505998467084154
  7.0635482605671607  4.8322451909634045 34.3982030460323571
  9.6656097759829649  8.8361882672120249 31.2291926634711920
 22.8729342414558658  1.1696959233044157 27.8199087478630780
  1.0342876865318662  9.0537338396535585 24.9552067720438870
 12.9582658810128084  1.6783737412830944 24.2801868849324478
 19.3688547515742577  8.9139038842836129 36.6495612096969055
  3.4938198220030610  2.4858250152226877 37.6712907809710558
  7.5413067759823722  2.1373096408836174 24.4807600908299108
 18.8639552016334520  5.8118020474546910 23.6581917392966794
 25.1318112754558527  2.2406000949889746 36.9923178210610644
 11.3926959999141992  7.8498997843762108 34.8368589655658241
 16.1435005134089629  0.7926079367222454 30.7534631146680013
  3.4669008697330650  8.9214961996341433 30.6307472418956692
  7.3596300655137625  0.2331709762358753 22.2210150191856890
 21.3173844496681397  9.0087689136256959 22.1978387189521058
 24.7947973739310896 -2.5098433870777686 32.9729104373994488
 11.2390014896914696  4.9527392991370212 33.8626103671567833
 15.3113326815045312 -1.6352046612596354 27.5002203824181279
  3.0969883605377566  8.2077155764397833 28.0111587822703285
  7.9654560970718205 11.8801544759108673 23.7950716954826049
 24.2836097825529791  8.2989087069101313 21.0022318233171923
  2.3478232941499999 13.3565766257342027 33.9193644025360115
 14.5427490812560904  4.1908805636960285 34.6298288849415670
 18.1454455208302221 13.6266561932554957 27.3560653419197664
  5.0817228220921162  5.2779636835394763 28.2500560264459324
 10.4718682921947863 -0.5501380922371787 24.8343502307437554
 22.4040424041805259  6.5267178040337175 25.3450405592611503
  0.4414610122859792  1.3997946308822040 34.4079803755547147
 16.2990155692361398  7.5313810910301875 36.8045455495805029
 18.9245565950731951 -0.1123869849685672 30.3432803039814836
  5.9071661480685957  6.7362978105811244 31.3111025374281731
 10.5704639392918942 -2.4771617091342564 19.2054517853280764
 19.8397789070312456  8.2986998252635367 24.7858115618341479
 -2.0452710471359401  0.3634264981721248 33.6261575614363295
 15.1356796270067750  7.5850294939637353 34.0119302599164257
 15.8646221055404979  1.4384171528222867 27.6842749068777429
  6.5942605153087657  7.8168541778045304 28.9591634465281196
  7.4754926531937045 14.2628428529623985 26.1925260493115744
 23.1192078578908848  6.2807451689491032 22.7598729283354935
 26.3701601521534208 12.1425066335039524 36.0205236749015398
 11.7977955603023421  3.6915092806279386 37.4446964746669977
 15.4140919917056962 12.7417200040476519 30.3732281118234937
  2.2403564455542981  5.7920446754893549 29.5430773209348523
  9.7282029529648160  5.4243228751270971 30.2794983669253845
 21.6770692140938799 12.5258216477403348 29.4933312710305167
  1.4216060547325056  5.2134434052359548 24.1444755688852482
 12.5714188972469980 11.7054770958230758 24.2490515551018930
 17.2485916513684856  4.2362761970119225 36.0931932092109804
  6.9454431507454180 12.8374411528385686 34.7911102155261602
  8.6048859678169460  2.7969125516503466 28.6644726476023592
 21.3257869951690431  9.7133023831444731 28.2854208333590833
  0.4704663984398652  1.3591109503586170 23.2987362448320035
 13.2881301786894532 10.1032659701899519 21.3938287722126184
 17.3624962982065973  2.2925197421509211 33.9542532561649963
  4.4471490707894272  9.8756746825404207 34.6284869008202989
 10.5660343300194963  0.6496467048596081 28.5324472766862307
 24.1626368000682916  8.9391991673661018 28.3545729963461355
  3.1545064172311243  1.6477402491237254 22.6108208533234496
 16.7461841096156228 11.3892168012986073 22.8640310319604296
 19.8003005359402451  1.1714146941067785 34.2681410785762992
  7.9796412897055351  8.7049954421579336 34.7768642127678689
 11.9642872807479552  2.4784872703815215 31.6045964056426634
 25.7148898134840422 10.0509425579819922 30.3045694124614222
  4.7997408675328685  4.6807541851921055 22.7920657172956034
 15.8717892599201083 10.3352295871476016 25.5105144685461305
 21.5165693018755135  4.3034051769825243 35.5808075120102316
  9.2690109145057420 11.2833865641427025 36.5004715004741982
 12.0644268718163090  3.7289607422891269 28.3915994632897295
 24.4445419760625064 11.9735920699725078 27.9012107650208279
  1.0897695159134235  4.3446791484059073 21.4165897341353357
 14.2848149235259871 13.1228331051413711 22.2849510716698873
 19.6112816776785337  5.6006012648680299 33.8305930968592108
  9.4908597843805236 12.1346696534946279 33.4684696739057941
  9.3524380945130563  2.5514730246831134 31.6531077182790810
 22.5788853466454817  8.5787891614406320 30.4924582498277523
  2.5212729087561407  2.4580853324005032 25.7619384628775769
 13.4812668478328543  8.8246378567346646 24.3730609933660922
 20.8947351141618469  1.8808999164873461 36.2552884697478746
  5.7492253988524737  8.0684328697130780 37.2923448127847124
  5.2936118074467968  1.4608490479951490 28.3398706971803094
 15.8993576384463697  8.8106906490014669 31.2458176064844402
 21.1486702479464448  0.7901467313402860 25.4268801575272789
  7.7040126138836129  8.8691177474853280 24.6535283587835394
 13.5803495552991738  1.2264178767499669 36.4809119816656064
 24.4561620282975376  9.2833381233363461 36.4679056383505227
  2.2031670494468405  0.7726420872374090 28.5873203975939632
 14.6874259442263781  7.9089722483204659 28.5528142425671163
 18.6827451361747165  0.9936065283242365 22.8842891651878162
  7.0045695686549481  7.9383389434525107 21.9377158803205425
 11.7905377062559751 -0.2312482059987451 34.0396578804037802
 23.4940300617351845  7.4847584220631749 34.6273168419231894
  3.0361676096031167 11.2763138598288641 26.0190568131847826
 16.3320818449711318  5.5002811595071703 28.0561822691617841
 19.5858768869023123 12.8685112882944939 21.5729276691277150
  8.6649590438793869  4.6019263717042627 22.4955270411665289
 14.7867671234658999 11.7309608360652344 34.7262930520160040
  2.6057932464473437  6.4737354328771195 32.8672358007905743
  6.1744867462779061 -0.2090789392874799 30.7644252272741632
 18.5118174090415266  6.5337874058619496 30.5593630413327908
 22.6878479913188897 -1.2173313266769330 23.3093271758996785
 10.6662242888754246  7.2893465092594063 25.1301953590267786
 14.8294846056011433  2.8906192531274528 38.3813729062143025
  2.1452190716175585  8.2508944008603660 36.5758471196060739
  5.0739195733140097 -1.7923848739712394 28.0686269308264258
 18.1915070342040579  8.4452019729266663 28.4172141248614274
 21.6865265670210370  1.3116123499124714 21.9120161589627358
 10.1771671747734445  8.1283689781692896 22.1600658219242312
 15.5656779313349745  0.2978014308953413 35.0505600000723234
  0.9961300792990245  9.1262776644210835 34.1687335022378633
  3.2241334646564970 12.1413919807302211 30.0528263730954279
 15.1491947204007520  4.4869735373909529 30.4927124220708663
 19.9921009012295521 11.5420343012312792 24.4166418714392215
  7.6846028475551895  6.2100576438518047 25.6302622383282994
 13.0751552418245218 12.0584574076151156 37.8565298207118488
 25.3269271280111212  4.6584001651585121 35.2388931163664694
 -0.0425431234376684 -0.6073012402629255  0.4691297641955656
 11.5207914343568181  7.1798091953611332  0.1484234654223254
 16.3538404698291622  0.3071984640190028  6.5526224206710157
  4.1670998529527461  6.9541053200199245  5.7544985507399140
  8.4141232818814693 -0.1874664175744480 11.7933898417660714
 20.7535016725801746  7.3615028551369353 12.0555102661215674
 23.0840625077068964 11.1953645318358141  6.0975115657812688
 10.5791153603669201  3.8508657357224187  6.1110021443489630
 14.5097848144454762 11.2005301846010425 11.8505033603647796
  2.0205735834184342  3.8196878218193135 11.8747914515506352
  7.4074369979851289 10.0407049120570182  0.8568777911004500
 19.1479395882848245  3.6468412698460533  0.6674280981396871
  4.3679650587312207  0.0557936387095477  6.2551704541895026
 16.5855349412738420  7.5562911858109327  6.0550784311945325
 20.8253055065854475  0.3513645431396675 12.1949508112706155
  7.8939543835899295  7.3268434588909876 11.6780051629858583
 11.2940396609264937  1.4289230768091912 -0.2342816041284168
  0.1880303766670964  7.0418522091211182  0.2261249544835724
 23.1820343104728117  3.4172841066022648  6.4533946265322415
 10.3985674241320645 11.3232876671574036  5.8164180420172853
 14.3248642548398060  4.0843510793884237 12.1218236474158765
  2.2091727107052699 10.9985136264304160 11.6624093913962383
  6.6305813541611371  2.2150743688306052 -0.0796547572908558
 18.7803369352905065 11.4187520347816349  0.5765668177845995
  7.9995412659312324 -0.8733836851674848 18.3806966850344367
 19.4518109342856746  7.9189504621733819 17.2716507517363027
 25.1969730814789088 -0.5531460563539279 30.8500313123621375
 12.7386124293940597  6.7539518752491228 31.7773861569280314
 16.6701002387166675 -0.5024137963387068 24.7859537746546366
  4.4893502470319024  6.9073123137569796 25.2251795070212310
  6.3435932319231130  3.1363064919108958 31.3919461261259300
 19.1616113618856616 10.6082576394283681 31.1069253434806825
 23.0554273583862290  3.4585606253540662 25.0960371088520802
 10.4887280641451746 10.8746580259447967 25.7809619505023058
 14.1434383727496709  4.5179330775108735 18.4954162528560673
  2.4061649290760094  8.5370434841094216 19.3975043515541792
 12.5115656856146948 -0.7120122623841972 31.3194129672252188
 25.3970603233768202  6.6789889394765893 31.1485696361519722
  4.4383340009235832 -0.3361683697609753 25.1356913029904305
 16.6576374173381900  7.2295336122051497 25.5265775903970287
 19.4422488310586701  1.1018315143780220 19.0069792550949046
  8.1165994403288160  6.9733513213708891 18.9014040569408834
  6.2598040441122276 10.5573289098089926 31.3893099667992495
 18.7701519300851238  3.4017224486337048 30.8778600848792202
 23.2427604839716260 10.0997628480759953 25.0845395768787647
 10.5389032404146921  3.6015438698438840 25.7485551844561193
 14.2608879734484635 11.3192581785259403 18.3244525065382788
  3.2771035653545528  4.1667883746595251 18.7909954687316976
  4.3773504688570206 -0.2043744899499919  8.2909238736590627
 16.4071992746842739  7.5848094456758686  8.2162833880127017
 20.8831405611682754  0.1677619207128687 14.2106736518096461
  7.8629694095481097  6.8560492922034761 13.6054719043078514
 12.5834949707392827  1.6593539992621837  1.3885377305307625
 -0.1770270882866471  6.8817696331016238  3.1004734245803243
 21.0185503574161210  2.2300205530798731 11.4673250596812117
  9.0364898426527738  8.9100733020296374 11.1383713071817301
 13.7407736153582380  2.5936603930826228 18.3954796432736671
  1.1669766469632372  7.8851042033601475 17.6660919868048865
  5.3851283515753376  1.7287455530582365  5.4855709712575695
 17.6102648881049433  9.1397723544733598  5.3548445014915504
 21.6366917783612642  5.4303928842251334 11.5584839557717398
  9.2097583840934814 12.5818180620461337 11.0430706479526091
 13.2747770062708206  6.0472030725789727 17.5053431380442142
 -0.1022248611939113  9.3627127855053676 17.0152526005170763
  5.0889480588991525  5.1237757739201664  5.1539543082821764
 17.1254127923680457 12.9232607445807606  5.8583869089701928
  6.5192192144523586 -0.1840203492256086 10.9364209666489707
 18.8310838022567317  7.1043974617814483 11.3980252650690197
 24.2714944514097120  0.6157258637591488 17.6078214320638402
 10.9627758101721149  9.8951169464050501 20.7964758079101451
 14.5954396339331414  0.5507891168675884  5.6226732197675231
  2.2059636354067074  6.7763751520435953  5.0857778837440737
  2.2891286289654298  3.4520717625266246  7.9316675706709194
 14.4005160693547793 11.3409403132063034  8.1073728371624085
 18.5617438131973529  3.4779807368100699 14.0825780070179540
  6.0446670604978889 10.9448898181037162 14.0366302664707252
  9.5681533422269318  4.1677734324829183  1.6182564605470833
 22.7801039661975082 10.1251897873000463  1.2346721920989694
 22.9915943177196915  3.6038377038633200  8.6298978675619757
 10.0960029168383887 11.1995906346422309  7.9450406902716386
 14.1880793082467349  3.7565812615021130 14.2054205863826457
  2.4571155176289921 11.1667977279560500 13.7583719006740157
  5.7332838920319631  3.4129389121595022  1.5421370038746505
 18.6492965383198204 10.9862310399338305  2.6686674305708422
  3.4140367252492267 12.7251375924039642 11.0338694772138339
 15.1518748112562207  5.9189090839779057 11.6274307703216806
 20.1996373796943125 13.6706085747298527 19.4160075080913650
  6.9088586016920832  3.6945683299807803 19.0941490950709429
 11.6099282917540556 13.0749710683872138  5.3121173594710074
 24.4878875897512636  4.9441410838791953  5.9121686247251199
  3.1320785587736890  2.1142935344259546 11.3981688515807509
 14.8684501831830751  9.2095895420538962 11.2783113990561503
 19.9062681119316913  1.6270535968009550 17.2188807178132173
  7.6907481306821648  6.7272309458611605 17.1026294263655458
 11.1466632325689190  2.0516944730661870  5.2973459236456009
 23.9050764892935987  9.3287857377771051  5.7156016418731159
  0.2307665965396121  3.1968845114210311 11.2709540736100227
 12.6364902402366646 11.9069610561664749 11.3549868336977831
 16.2232178241888931  4.5103017983005573 17.6451679394976253
  3.7526113810126294 11.4801217557405266 18.6176259818949035
  8.6056935705913151  4.0670705488266403  5.6455980339323748
 21.2656821221949279 11.2900254210019551  5.2837742565554322
 -0.0079838970622710 -0.0133793318863756 13.6572996896390926
 12.3252141634898180  7.4214426232983257 14.2493182596679624
 17.1690808027757882  0.7107964800963720  2.0192099582721847
  3.7623251432930016  7.0708206458564495  0.9864025185702868
  8.4772904325289726  0.1066787397796748  7.6811551864105265
 20.8417385648716582  7.4216384326794715  7.7685504239786676
 24.7029956598828342 -0.6711294455798978  2.7321456407500846
 12.3030324493551841  7.6885730417795761  1.9161937347062179
 16.1971082780327578  0.5589888591936246  8.6088340880984244
  4.2631117389975772  6.8737682674953211  7.9311818266825176
  8.3411754731299848 -0.3825518345912836 13.7701558586124690
 20.8726522766017979  7.3432967417432851 14.1873671740676297
 21.5496552241314454  9.0560041427471454 11.2913696355020985
  9.4274996661013102  1.3995269797242549 11.1806604435824752
 15.1072277580903549  9.5110397457804048 18.3325961698815654
  0.9662657105634973  2.0091470323323750 16.9336032826544951
  4.9188481257650363  8.5920175893636106  4.7038512278974967
 17.7111628771945782  1.8099572479125901  5.9402815125879318
 21.9398406304752740 13.4642941732806758 11.2760418202171842
  9.0040762098590026  5.8360014175971431 10.5913478272957580
 12.8779733546472066 11.5719327537559113 16.8890063606618632
 -1.1809449837432753  5.3490093119392617 18.4544384367113175
  5.0766221536905434 12.9775645267838708  5.2124693956441499
 17.7517935319077118  5.8359005110241409  5.5978519820884829
  2.4075895706086601  0.1711827946917912  5.6075684139381305
 14.7432002498406263  7.6219924580497880  5.1129284564005211
 18.9262909671938715 -0.1218268951857620 11.6309609133340039
  5.9118351311103998  7.2372473799258161 11.0844387153837172
 10.5461343392507594  1.3871111875237176 18.7967101867368385
 22.3975904536849306  8.1922986936468458 18.8397501211549070
  2.2967879553961552 10.7598543148372450  7.4992707049326679
 14.4971330575145654  4.0067429012257154  7.7264556538440150
 18.2817898730773827 10.5154710072273083 13.6902577561800651
  6.4419504121612707  3.1955287115034912 13.6548436548383680
 10.9078559567350037 11.9786747117123991  1.5575759239714511
 23.7513030803427512  3.0628034649726787  1.7536443875556178
 22.9116837736484911 10.9993654637876102  8.2348319620313788
 10.8010358288503152  3.8275534600046273  8.1992765500643046
 14.2361135786721729 11.2745466641622691 13.8840197580566720
  2.0780789229063519  4.0434200329032697 13.9391491694739020
  6.5204196252055526 11.5117573927053147  2.1455190487983136
 19.0316850433300750  3.4952631705655439  2.9661650857558435
 24.2125061442391036 12.8410415907501783  6.0269273320296524
 11.6287657348874660  5.4054292649486158  5.2119835704031088
 15.8633836010070262 12.5523948055610877 11.2217189963718589
  2.8279005607765271  5.5606942786162250 11.0839258487607317
  8.0222020151905777 11.8566856172566091 17.4174112737436921
 20.2633258867939468  6.0666522483958429 17.0715537029370061
 23.9183615016733206  1.6182406777947427  5.8296729193498926
 11.3491800658270794  9.7101123951752424  5.0629687638900993
 15.2737307480138202  2.3131171468008431 11.3106340973805573
  3.4087782332853234  9.4173050184443863 11.0652418583096317
  6.8863127804240172  0.4739761069352069 17.6121474145731263
 19.9874811889794728 11.0143292226393843 18.3752128934475465
  0.2114095494286946 11.0687815812561610 11.0475777393358214
 12.3677404176690189  4.0278209443093624 11.2894893979172419
 20.3318079102832314  9.3276303988342946 19.1585265379311451
  5.3199757767926821  4.1484941279739926 17.8435006612285605
  8.6574599535796573 11.7176358171104926  4.8194974872805112
 21.3856800275864920  3.6091081335217372  5.2623497855886407
 20.4346648980554058  0.2450492803019877  8.0803954720638949
  8.4097705973142336  7.5460907478798562  7.3470998613564920
 12.4560338477744992  0.5150863348238565 14.1244451492935568
 25.1571200911354111  7.4496815433074328 13.4095738844589913
  3.6132406435738518 -0.0083740883812780  1.6523685624835813
 17.5560244326043282  7.1977017452537071  1.6781094546542461
 12.6964920720905798 -0.6903024892024318 29.2910923614401746
 25.2682330717548034  6.8872791992711679 28.9760297166972656
  4.6564310503754687 -0.3223993168230941 23.1118255827924273
 16.9355424339375809  7.4206723754768777 23.4276930166913147
 21.4249423149248202 -0.2507669584042290 35.1083471677002592
  7.5472072038513964  6.5284619554886110 36.0182617657322623
  5.3107315788806932 12.3951897037640322 25.5162762232746303
 17.6725517111797465  5.5359522558458778 26.0936547003483774
 24.6179955709403764 13.1618416071659841 16.7688189476466540
 10.7307191530482875  6.9251534048977463 19.3471627711158298
 13.7137871671498743 12.2817904509565921 31.9423799916685027
  1.0548741513479123  4.8623140575251744 31.7810923202827240
  5.5228023063473870  8.2535144479519378 26.5564162136395154
 17.7320561744706779  1.1987708343682633 25.3695581247076092
 22.1329077922645006  7.5593534146277621 20.7484252750102165
 10.4010699966457736  2.6603828154515146 17.2516168282278137
 13.7437342843600732  8.4204180512137086 32.5029109645878265
  0.7620061294890415  1.1844334463595347 31.6550164916032166
 14.7745307673057535 -0.4500784070535734 25.5582581037637375
  2.5504244656656621  6.9435420075223799 25.9600098469939660
  7.6236509083479431 -1.0294055971385490 20.3623698848155215
 17.3886495749782597  7.4315828689588859 17.9695960085759694
 23.3627442050045886 -1.0179312614961511 31.6439992829315457
 10.8372189664977139  6.8050578563344786 32.5091059041765646
 10.6469084905239448 10.2363217561691684 29.9432941441824099
 22.8054953817983979  3.4348862276154080 29.1203259175090210
  2.6366689146621152 10.1857239165415479 24.0497540459497685
 14.5498475340211417  3.5012320733925546 23.6742621080031377
 20.1345539663610182 10.7784809164198716 35.0469760715486984
  6.3958294586081168  2.8643354130604268 35.1404563818088747
  5.9495098615706725 10.3274510391637051 29.3716695141027877