Li P  S  Cl
 1.0000000000000000
    25.1819793006824639    0.0000000000000000    0.0000000000000015
    -0.0000000000000009   14.5388225279766061    0.0000000000000009
     0.0000000000000000    0.0000000000000000   37.2126966544236950
 Li  P   S   Cl 
 287  48 240  48
Selective dynamics
Cartesian
  3.4602239799827812 -8.5229638295407089  3.2065375727609911   T   T   T
 20.0472283814283188  9.4865148712886498  5.7842067705848104   T   T   T
 20.9864113694404359  4.6296818165061637 12.9115528521172518   T   T   T
  5.8951787699798768  8.6892114518793484 13.2278277406230256   T   T   T
 14.6706461286936669  2.0701333166415021  0.9193787531639427   T   T   T
 16.6715845758754213  9.8893249000568861  0.7003742731849759   T   T   T
  0.2601649127005952  2.6632441406062815 22.2299768162391764   T   T   T
 14.3318187988431838 12.7134020746138017  5.4553826508590868   T   T   T
 16.9312053206435849  5.1565422419930256 13.4427823640884032   T   T   T
  7.7166861691983142 11.3989987066916125 14.5579467169400782   T   T   T
  8.3848127926744169  6.3677396979511665  8.8505500738248450   T   T   T
 15.8319584649028133 10.9504054821760501 16.2647077656925525   T   T   T
  9.1117294775896749  8.9888267414514971 17.7014498377005296   T   T   T
 18.0438070910801187 11.3446966198342736 11.2529568851241404   T   T   T
 12.7485670454685440  2.6945921779604487 14.2036698694540551   T   T   T
  8.7402037743513823 17.3126010864932596 -0.5568492065946482   T   T   T
 12.4478509789133600  4.5814094247873207  8.5343276347324988   T   T   T
 28.1630416402434633 11.9586539754404750  0.0838294562693865   T   T   T
  3.7685897835708606  3.1662127023537661 13.1009195316468077   T   T   T
 16.0980510965578674 12.8063655174890325  9.1141192642864937   T   T   T
 27.0348793998955337  0.7761623521742747 23.7846845580641642   T   T   T
  5.0411225982728105 10.6530597827547862 15.3369853581067535   T   T   T
  9.2081785122979110 -3.5724546555688215  2.6801401351492271   T   T   T
 34.4468206919465487 -0.8000522164312930  8.2440621018085967   T   T   T
  8.1424715884804009  4.9938383475825781 13.3794957534416579   T   T   T
 16.4473320696960421 11.6688695068564456  6.5717301949433731   T   T   T
 19.1442967234453647  6.1538308624844653 26.5148624521098384   T   T   T
  3.8441595283679972 13.5556542032748819 18.4371900200240049   T   T   T
  4.0529196888151438  3.5146818075729818  6.0659839140533682   T   T   T
 27.6579832154381329 12.2884169609854048  4.5628059267831347   T   T   T
  2.5694486823294671  2.8077275445831806  8.8321756481674996   T   T   T
 12.5237340711208667 13.1544381383405824  8.3108856322605913   T   T   T
 16.3444590116415434 -4.5369799258670245 13.4132565788859388   T   T   T
  1.0936242503356677  9.8130415734960472 14.1610820381282618   T   T   T
 22.3064484032680603  1.9284931257295275  2.6922851309744571   T   T   T
 22.3641470775393181 13.8880414424693051  0.5461074425439234   T   T   T
 32.2745580190574941 17.5906882527861228 19.4320579146532637   T   T   T
 19.5360329006449511  6.8700151133173346 22.9647127602660852   T   T   T
  7.3742828794400976 15.0483436719160384 -2.1935393491570587   T   T   T
  6.2839453277889810  7.5169712064975158 -5.1479291678780807   T   T   T
  9.8418749583370690 15.9942948082997987  5.2255684027568563   T   T   T
 23.0573828331679955  6.4678720380195314  7.8162652068147835   T   T   T
 27.8382075919729779  1.8707724236120171 18.3447446852220040   T   T   T
 13.2064904038539694 16.6216203033587213 10.4792936812543562   T   T   T
 15.9267984584208495 -1.0880737117406551 -0.8668251609888479   T   T   T
  3.7487218993658233 -3.0614571812484033 -2.4491989860697503   T   T   T
  4.1446108219790956 -4.6509027924648132 12.0133403025198842   T   T   T
 19.2205752381603929  3.4430447204010233 15.9388382074595256   T   T   T
 -0.3318742536783281  1.1203237228446565 15.7319964153383989   T   T   T
 13.1459190517766942  9.3141077653108812 23.4815147923656227   T   T   T
 15.1777517376066999 -0.3053858480157169  3.0945492108704267   T   T   T
 -4.8106453734301287  6.4079642645658010  8.9158304972836486   T   T   T
  1.4324269072887430  7.1924779977073854 12.5910651340874988   T   T   T
 22.1540599491855268  9.0690695270958877  8.9012546815564448   T   T   T
 -10.0903069553808287  0.9137185095408634 23.6216426342965313   T   T   T
 11.3291028367041147  5.6883311031963846 12.7620504666522869   T   T   T
 18.9503342462854611 -5.8888054484567656  0.0212988644581948   T   T   T
  3.8232899165212757 10.9893195219309554  8.2788940978711985   T   T   T
  5.2215886086522207 13.3841320750066615 13.0212022261966087   T   T   T
 19.1864591606048513  6.0648576040735751  5.7418592979231411   T   T   T
 -2.5438346751892542  9.9408596127021553 16.7714872577173253   T   T   T
 11.4295395106125603  5.5850785827465979  2.9120052122791247   T   T   T
 22.8489605459897973 15.7426118137458797  9.2183763340617446   T   T   T
  6.2037596326063866 10.0141123278569690  7.0283514758326406   T   T   T
 14.3519510908883454 18.9709677035794790  5.6133386654748536   T   T   T
 19.0947842605085754 10.3801371112251619 21.2638502867807020   T   T   T
 22.7143246500732623  2.0224651320620954 13.4232219848552035   T   T   T
 12.8037918928150187 10.1850623103347822 14.2452239594138224   T   T   T
  6.4846702682908015 -1.1113773314055855  6.6970757338610216   T   T   T
  6.1931792989541457  8.5585668685300433  3.2163770947577297   T   T   T
 10.3675679934700948  8.8205338598769458  6.8972645929761969   T   T   T
 19.9229034218283090  2.1908102407001198  9.9536558989540449   T   T   T
  1.6817256000760366  8.6660618884879241  7.7116266599214711   T   T   T
 15.6279028237813247  6.2682802490409237  1.9761882173567491   T   T   T
 20.4645758912633156 12.0008365504866941 13.6941405349800434   T   T   T
 -0.7133415242247005  2.1525645024835081 11.8117947981283500   T   T   T
 12.2323114195154705  2.7683015462888454  0.2842368380737652   T   T   T
 19.2662100356467292 -8.4185158888694414  0.9602322134910997   T   T   T
 -0.1367274308281066 10.9127747185088069  8.4485767631913244   T   T   T
 11.6193427636344673  9.6228219233390782 11.4637936981020747   T   T   T
 13.8502931384830159 -4.5280385982666225 26.3673916715555841   T   T   T
 11.5739651607422740 -0.1713161305252436 10.8249486011459464   T   T   T
  7.9210381257911804  4.9286882157818344 -2.4804274806220272   T   T   T
 28.9158038529054053  2.9133236441081087  2.1086357442228358   T   T   T
  1.0231965948967034 20.3966023099626490  5.3075320663048808   T   T   T
  9.9978514626112958 16.7413646806088607 13.0301096226364965   T   T   T
  6.9260462293983478  6.9411548111838082 22.0112894216578141   T   T   T
 14.2737021335772045 14.8900746229514063 -3.0320269059188032   T   T   T
 23.5478543296164951  9.4993216258828603 -0.6591957690027642   T   T   T
  0.7409074907014952  9.8085666293212288  4.4484556807989213   T   T   T
 16.9656044413377067  3.4515635969276421  7.5026650411650584   T   T   T
 17.6663961905245266 13.3194341002043348 13.4507043997323539   T   T   T
 14.9951477377422471  0.8412627102257066 12.7002175849253067   T   T   T
  9.7637960265481940  1.9700626236665040  8.7019128427573218   T   T   T
 22.2158171135105071  3.7702207922396358 -4.9382625514114364   T   T   T
  5.4669326315885201 13.8934164227996533  1.9660433465996168   T   T   T
 18.4889328087915032 -0.2170374828176726  8.5612091741797602   T   T   T
 15.9527394532743791  2.3302198840344515 15.1135424998342955   T   T   T
  1.5272833398729324 -0.0776849881296460 13.8553228047923014   T   T   T
  2.1643818737347442  5.3874766216541916 -0.4388920893552812   T   T   T
 23.8386376570655507  5.3149540408236993  2.2936976003737950   T   T   T
  1.7230045378900678 13.3704557545181650  8.1528333234775729   T   T   T
 11.4668359875618773 -0.9254513460960396 13.8795282977444767   T   T   T
 18.4554427080520362 17.5886148827119762 18.8233546180716260   T   T   T
  1.5510620036001159  7.0154365718596932 18.6329846372320560   T   T   T
 13.4311427217507564 15.0381805787043898 -0.4658185366083704   T   T   T
 17.1414431673399434  2.3065027499385877  2.7838913037265112   T   T   T
 14.6030044639040817 10.1359745416429199  9.0161499772152194   T   T   T
  7.4897367379697082  5.8430489685906135  6.3513173592293990   T   T   T
  6.1568159752770120 16.4529127352693862 14.0808565534647538   T   T   T
 25.1154502235408366  9.2548581011916191 10.9666144788039652   T   T   T
  3.3654600935613770  8.7652435902355723 -0.2890936905777035   T   T   T
 13.2717603122894339 10.0062854468681799  6.5657976273826941   T   T   T
 18.5503925535809735  1.5508842086768693 13.1649907977354008   T   T   T
 15.1214989903476376  6.1419240487327125  8.9947941815115868   T   T   T
  9.1933142738763642  0.8627800632057012 22.4322827689421409   T   T   T
 13.2321759414171929  6.8568932639784013 14.4939797617314809   T   T   T
  3.0473560810995530  1.0469328541681826 -0.5599214962521174   T   T   T
  9.9323061665882015  6.8848741921230445  0.1300692404449535   T   T   T
 23.4941840453325312  0.8881768095908891  6.4400655217047271   T   T   T
 -5.2099693569367904  8.7308076147798026 14.3544116180050771   T   T   T
 10.1564701239263240  5.0453814517624345 16.9604895856484426   T   T   T
 -1.4950692169548583  5.9803930007262291 12.6219788283068794   T   T   T
  7.0153064924386621  0.8735735704645007  4.4512649886256979   T   T   T
  9.1876377591601717  7.9400744140248003  4.4880885153804888   T   T   T
 23.9290239771524185 -1.8247080740670785 12.8721088058437143   T   T   T
 10.1226589073197903  7.9772511638834169 14.5148279884687952   T   T   T
 15.1482976649325352 -7.0532675148493436 16.9922779315648924   T   T   T
  7.5129622625264396 14.6098058023116444 18.3420099357092461   T   T   T
  4.3774543277542222  1.8750760846309120 -7.1178325565989056   T   T   T
 15.0398763808746967  7.5308867016323990 -0.3766863461461032   T   T   T
 24.8362091464099635 12.7093080954499271  6.6935815703980612   T   T   T
 12.3946487493915480  6.6136025608347104 19.2685851982834357   T   T   T
  6.7482940832108920 18.9058717133156939 15.9066212595600689   T   T   T
  6.0166513922455911 10.3760391533716057 20.1883374815836198   T   T   T
  6.3387068151311361 15.6694760555964052  8.5146818667035689   T   T   T
 21.2712905629736326 -1.6895821164111506  8.7440193707477505   T   T   T
 20.3639584567062180  2.7786863949306415  7.0321249148522762   T   T   T
 -2.4368359003423117  9.0555201170802526 13.4522578487739928   T   T   T
  8.8350361009168648 -5.2680826222988193  8.7448507980098604   T   T   T
 17.6762670801247559  4.5687325541822990 10.6946010712928850   T   T   T
  0.0856904206661529  3.8295090698833829  8.3352748784408330   T   T   T
 11.9307333861257145  4.8575813679035358 -0.4181058211568824   T   T   T
  8.3958127647053473 10.0265667962576863 29.7081925533112319   T   T   T
 21.1337364040982187  1.2375726521315433 30.8202519006145543   T   T   T
  0.1121188152948495 10.9013169472353919 21.6124475608780813   T   T   T
 13.9215415164689400  1.9258815273216061 20.7000735568982073   T   T   T
  9.7915416867278928 15.2731645510355651 33.7287425427399086   T   T   T
  1.3971934353728923  8.3774879899074826 34.6115930565091219   T   T   T
  7.3609959183718310 12.9343312156813930 26.5494242153040467   T   T   T
 22.3944453480503860  0.2819077479990156 25.8337074615377311   T   T   T
  4.1492886088290115 10.6412151772469841 24.5732601312973848   T   T   T
 18.5232021202359576  8.6711277232182287 18.6554441696189528   T   T   T
 17.6982158881670770  7.3157996285557116 40.2622933407221382   T   T   T
  8.0863820738651100  2.7196449209218172 29.5639552126153760   T   T   T
  8.9208018338679977 12.6618993783687532 31.7419235886886533   T   T   T
 21.5162793420474827  2.6227372817956165 28.7184374670325120   T   T   T
  5.0965976195787599 20.1576200451623500 12.1273679769760996   T   T   T
  7.0023537758283654 11.6434925640539682 11.1234244617598925   T   T   T
 26.1107122834914200 10.1141740515966507 38.0300069209098410   T   T   T
 12.2705244843082681  9.0427743283083384 34.4521117291708663   T   T   T
 14.4926565037671633  7.5967540334944053 33.7398165148182443   T   T   T
 24.2047070972160405  1.9965940467791197 32.7792240514486792   T   T   T
  9.1651015395741489  9.1030533708260162 22.5688849709141053   T   T   T
 16.6985416097913522  5.4239885003368613 32.4667324371385746   T   T   T
 33.5458402422007893 12.0687781100134224 36.1849725684440813   T   T   T
  4.4130881385687966  8.8928596522416417 28.0100287883386798   T   T   T
 10.1731513493993226 12.8625609349926204 29.0042376540352080   T   T   T
 25.1369083942907423  1.9705397449925059 29.6579346807553392   T   T   T
  0.0782713644069466 20.1434482601440266 14.8954747192385479   T   T   T
 16.9741024595024115  3.9963755649416450 22.6292231961342445   T   T   T
 18.8253962426026291 12.2220827248899671 34.3755172439245200   T   T   T
  4.0141816764696800 13.4404645534551328 32.2497702783906419   T   T   T
 12.9169348324059730 11.5159458542847624 29.6662414112674320   T   T   T
 22.6104175850629829  5.1079523002473755 29.9675825864682572   T   T   T
 -1.4192058898244657  6.5197339139039938 20.6299710475129530   T   T   T
  6.2117987014410598  0.0832498802222787 22.6873982527268403   T   T   T
 22.5335865831335482  5.8831261178536893 37.1149504016915870   T   T   T
  8.0398531615133138 -5.5897146514005707 34.8881282617653596   T   T   T
  2.9625079844580968 -2.4434820393745125 22.4297359359784387   T   T   T
 22.6422634490141128  5.6476334258167675 23.4347840221282553   T   T   T
 19.9624118732598888 -0.3187052384632056 42.3599243924281126   T   T   T
 14.4354377655321677  4.4349428706822076 34.8643720525253400   T   T   T
 15.3632458127723375  0.0475244754299146 28.7342552193121321   T   T   T
 12.3861919150963864  4.5848447760355375 30.5135111864902946   T   T   T
 -0.3787974064658535  0.3570147678154797 19.3018399041194364   T   T   T
 24.5232935183503926 11.1717145578636039 28.2607702142764019   T   T   T
 17.4477532781296674  2.2734214710592835 35.8424966660759168   T   T   T
  8.5448950731842679 -0.7499336756898016 38.2964416022887235   T   T   T
 16.0083755207547256 -2.5687279303629089 31.4690969226600963   T   T   T
  6.3248985490504808  6.0498219314076174 29.7000706652853523   T   T   T
 13.8754964496319744 11.9882584413540112 24.6605881261321898   T   T   T
 22.7218958768322459  7.1878875229699286 27.0296723808028219   T   T   T
  0.7130412501843607  4.7865444067708802 34.2565093037406569   T   T   T
 16.3982172140574995 11.6953885515321421 28.3201136320183480   T   T   T
 19.0682704377954018 13.1800882878072372 30.6260055661163442   T   T   T
  2.2574459955023465  7.3924810733714956 28.3788787655328569   T   T   T
  4.0936319700285839  5.7589897206784997 15.0582414543994929   T   T   T
 22.4587306198313037  8.7953855599954309 23.6537319198193394   T   T   T
  6.2650156837880600  7.6234054600259293 36.2232402810153218   T   T   T
 17.0873920669834298 -5.9065773158049302 34.3915006331155553   T   T   T
 12.6349863217584684  2.4135171306482435 28.0366238273686967   T   T   T
  8.5675533134164059  4.4159776267250912 22.8395473762756502   T   T   T
  7.5291576671011615 -2.6073231812354090 24.3145975683234994   T   T   T
 16.5067930907900511  9.9706636565904105 26.4716614579632328   T   T   T
 -4.6383116625574887  9.3665168227402749 34.4495851297319433   T   T   T
 12.9309320965875063 10.4571207304007689 39.8691012832909024   T   T   T
 18.1236986237739899  0.9648434408213434 29.2235737447935726   T   T   T
 10.2771018718567060  6.3883286341525274 21.4876139103872603   T   T   T
  7.0332127632105932 16.7773644454883133 24.7178005218344019   T   T   T
 19.0852998546175954  0.4381293933240211 24.5176143677471856   T   T   T
 22.3318153299266591  7.8744185303885885 41.2886360175557172   T   T   T
 13.8292187380672953  2.2086027638586518 40.4593265323467506   T   T   T
 16.3993607461944322 15.3376793571865822 31.8290252033809971   T   T   T
  2.9978854888302067  8.6868541847246110 30.6837871135066358   T   T   T
  9.6804552109142392  4.4173969748577795 31.4932398729458392   T   T   T
 26.5960313144188945 13.1392309903940365 34.3250210058739498   T   T   T
  4.5933394965858918  3.9988219650387693 23.4134229985017939   T   T   T
 16.6249379886867246 11.7914849838605047 24.0068739968217955   T   T   T
 14.4738858367906538  2.0326025405894850 44.6763397117016865   T   T   T
 11.1985908901162610 14.2012724624832583 40.2953900736286670   T   T   T
 12.5301484718242850  1.5320614459303323 23.9568785883737760   T   T   T
 25.5991066469375461  9.6059940099988221 30.3148854804352581   T   T   T
  0.5098004693259115 -5.7655261025600337 23.7028336618326421   T   T   T
 17.8698362895428886 14.9664050572876661 18.6182838464186133   T   T   T
 20.1464677042317781  4.7142934806236649 35.6659810656734635   T   T   T
  3.7806708917904008 20.3104358447707369 31.4004479459493737   T   T   T
  9.8961877826980604  1.3888497321442641 30.4989018861637682   T   T   T
 22.3251111062876326 12.8743994403199551 30.0649035641759745   T   T   T
  3.2380609101802476  5.9712253492823866  7.8031491147058896   T   T   T
 11.0113253662939936  8.6291899575198876 28.4717387586279180   T   T   T
 20.5130289514613970 -4.1459614904999667 39.8134374815270746   T   T   T
 13.2928401641791023 13.1695304712222292 38.3573640863674399   T   T   T
 15.7187437204695630 -6.1260818016716945 22.9512608756682148   T   T   T
 23.0852252851571471 11.2594811062960893 32.4754101471638421   T   T   T
  2.9807429887844465  2.4792100918055571 25.9317952095078184   T   T   T
 19.7664509026699697  9.2585740319075960 25.3455697449355704   T   T   T
 25.9202759534642730  2.3822048648550695 36.7315623532866624   T   T   T
  1.3044400973103767  2.5991989656406487 41.8404699173392629   T   T   T
 20.3645150024715917  0.1055992142503152 21.1641539989402112   T   T   T
 20.4429870875184285 11.9146397441044787 24.1021561084416867   T   T   T
  1.3488960629476692  5.2853178900423456 24.6112762051749137   T   T   T
 11.1868950680247536 13.0208477673831791 23.8618280359122785   T   T   T
 18.1461420259867197 -0.8004559341291133 38.7476533714356037   T   T   T
 12.1639992606312681 10.9982330229754712 36.5104118488069389   T   T   T
 10.2867354056235989  6.1854144776433344 34.3301356961774502   T   T   T
 22.4882810553858370  8.4379741077495272 31.7247164712593843   T   T   T
  2.2689808827360389  4.3016015341832867 21.3941480766266103   T   T   T
 14.7367934083138667  4.4293298655781328 26.8007220440753464   T   T   T
 24.7701052086751581 -2.4158148484017348 39.7791946351450605   T   T   T
 14.2885135950628630 11.9611011246381818 34.3179892580033794   T   T   T
  5.8968082867079197  0.4170973279644212 28.2364983212541247   T   T   T
 19.5370953311481124  6.0230981119664913 30.7935704657282159   T   T   T
 20.2823255684966455  4.6765288986732969 24.9787422305526157   T   T   T
 10.5292889149561280 -0.7523869297885011 19.4314194256755783   T   T   T
 11.0337546692396682 -0.7596564992802886 37.3011036873485295   T   T   T
 18.6527838664530741  8.1593717384035607 45.5610155864765005   T   T   T
  4.6560536967264374  4.5751039603892414 35.3854596820269478   T   T   T
 23.2722310009322975  4.1629946439998813 18.0300102968424412   T   T   T
 11.8280228047924414 10.9091485761386942 17.1223930183675570   T   T   T
 14.5181055289616481  0.5641722395768813 18.3370372574946785   T   T   T
 10.1757600028244983  5.2822022457437754 27.6780840750222801   T   T   T
 25.4701991367119724  4.1326625146736031 28.2643525544841090   T   T   T
  4.1267722121541661 11.9526119928991399 29.9863229227627421   T   T   T
 16.0555196310666481  8.3162247321375400 31.0533179355493871   T   T   T
 21.1184475848615421 16.6184426862802965 22.7291281331489010   T   T   T
 13.8881542037117907  7.7974079133589180 11.4454324294528202   T   T   T
  7.6894869425724606 17.4782057891499818 43.5649811406684222   T   T   T
  4.0364577507732635  4.8870388595963830 28.6046638312353885   T   T   T
  1.1332817751626634 -2.7636577409834553 25.2585745334578391   T   T   T
 18.5458154437817058  8.0296215279863912 29.3559973511153416   T   T   T
 26.3386748761288914 -2.2126394189554461 17.3108454887370691   T   T   T
 10.6109368065366034  6.5425078262359531 24.1240868267755815   T   T   T
 10.1338146597641590  2.9182013502511017 40.1624051853736717   T   T   T
  2.7656117859448099  2.3359510818775679 33.6695628610023761   T   T   T
  4.0215880877509846 -5.9543360256940758 21.6567346532306182   T   T   T
 17.5069059980297226  4.6178307384930068 28.8700995843237394   T   T   T
 28.8566611107662823  1.0153031532760555 16.3159184542187568   T   T   T
 12.5501535730942955  4.5786470130257761 23.6348063368840045   T   T   T
  9.5708937076071461  0.3956527937690659 26.0452457580362768   T   T   T
 -3.8163473898553626 24.3646406278702514 28.7967881785537827   T   T   T
  2.3427671211045524 13.6606372302529007 28.3756165766775261   T   T   T
 15.4039024793613741  7.1819329972376726 28.5809416742648885   T   T   T
 23.3576413815208532 14.0355949237626625 22.7493387000944551   T   T   T
  7.4301678232239317  7.5578902212879315 25.6080980630111235   T   T   T
 10.8397503767823480 10.0758101796484727 32.1496711934294410   T   T   T
 22.0718124442021555  6.8428334390460028 34.5478586147157358   T   T   T
 -0.1928647013315147 -1.1364480723851134 -0.9575715652771031   T   T   T
 12.2286563642620827  7.6830144044076043  0.0725672067590904   T   T   T
 16.7207509820841409  1.0286718719041230  5.7575028214772903   T   T   T
  4.2645391100458276  8.2688815786898129  5.4944473466751145   T   T   T
  7.9760747694082417  0.5374631561255836 11.4016631713684564   T   T   T
 20.9407726191630914  7.7082205470861451 11.3712170263651302   T   T   T
 22.6878106155113066 11.5509167539197026  5.2164183798038204   T   T   T
 10.5778297562912051  4.4437808636066531  5.7786637082453645   T   T   T
 14.3745627873264450 12.0004231048927448 11.8700416606699974   T   T   T
  1.8840072017495608  4.2470408536968831 11.0466229424011519   T   T   T
  5.7175274414751600 11.1191498186770978  0.4039385811150942   T   T   T
 20.1711591105749193  4.0778417800329247  1.8244980131974018   T   T   T
  4.3562096627817919  1.0245437993888939  5.0268169596161627   T   T   T
 16.4065996261215226  8.2048653170925689  6.0317541150200906   T   T   T
 21.0918604706350052  0.1430264820597614 11.7805335933829340   T   T   T
  8.0068917809842262  7.8120823651591333 11.7383082512258401   T   T   T
 13.9281846868427692 -5.3186138128824441  0.0959228060237110   T   T   T
  0.1411758632996756  6.7761725726228823  0.8624549908899038   T   T   T
 22.8956292222380391  4.4848611679118395  5.5002728191621424   T   T   T
 10.4414929463248765 11.9295124360788591  5.6786474609116526   T   T   T
 14.6110384364714978  4.5164900160460055 12.0945912273072462   T   T   T
  1.9088867402179910 11.7096644829582157 11.3089627864186486   T   T   T
  6.1707171920019821  3.3112598369420896  0.3522371491571057   T   T   T
 20.0276381181426366 11.5197862916390044 -0.1414368420848210   T   T   T
  7.8862521116129605 -2.5098621941694912 17.5290360203192641   T   T   T
 21.4683351894170293  6.9383307988851177 18.3862603265298148   T   T   T
 25.0963998538440904 -0.8231234454270404 31.2416296359890602   T   T   T
 12.7476200857265205  7.1904932812952937 31.3674472702883023   T   T   T
 16.9863304136910926 -0.7621507886452519 25.9376965517666171   T   T   T
  4.1210609676155308  6.6496065067463768 25.0863230277793932   T   T   T
  6.1779575127674446  3.4419296490697944 31.5444445627446903   T   T   T
 18.9421088073631765  9.8471907963106524 31.4125994314919730   T   T   T
 23.6186115995427208  3.2521560798045694 25.3965080229160982   T   T   T
 10.3675354077824391 10.7457108795064222 25.4298873990960921   T   T   T
 15.6454358377559952  4.1430905086338132 18.0986679036097406   T   T   T
  3.0676490432094856 10.6364536722114487 18.5081378101444542   T   T   T
 12.9496250004355282 -0.4895317295269231 31.1983302698639271   T   T   T
 24.9288762392317764  6.1691351525201013 31.3184837230969144   T   T   T
  4.2113808111350801 -0.5151652217026346 25.0796920513034394   T   T   T
 16.7817768314735005  6.4425787671207351 25.4690046876049472   T   T   T
 21.1044206344109320  1.1450143400490547 18.4504493981500701   T   T   T
  8.1705864805084598  6.3536631643977062 18.9424228899378804   T   T   T
  6.1735514920852204 10.9146151774110045 31.9272011970703460   T   T   T
 18.9374113254271030  2.9613950633261359 31.9385024764203820   T   T   T
 23.0600886437869335 11.0585270994079750 25.4068562491970198   T   T   T
 10.4268943156811069  3.2335309671832078 25.2637192563679491   T   T   T
 15.7249538116809777 11.1427740947001404 19.3286294967912262   T   T   T
  0.4222723743088755  4.1482272799244511 19.1336691895117319   T   T   T
  4.0743396846504414  1.0502297221186536  7.1071665055185047   T   T   T
 16.3153042371521622  8.0233246824773374  8.1521106601223572   T   T   T
 20.7352055725006785 -0.1067081035203751 13.7239313256775439   T   T   T
  7.8184807619923093  7.6806800937446589 13.8064191812677777   T   T   T
 12.5169764796683900  0.7703377271870993  1.7864488073575653   T   T   T
 -0.7847517025868362  8.3942891417754133  1.7797833485647347   T   T   T
 21.8730864314093161  2.0874615577040325 11.1599261043102924   T   T   T
  8.7760822378957535  9.5066191664930297 10.9018771758323769   T   T   T
 12.0954997934721415  1.1605126252056905 18.9936948342384788   T   T   T
  4.1572633951725191  8.9620364546163707 18.9405399266168253   T   T   T
  5.2119464628149013  2.6871115705742765  4.2841097813252036   T   T   T
 17.7974650681934889  9.4601297183077619  5.4254958129980402   T   T   T
 22.2155246657582559  6.3228911714311895 10.4387304573579005   T   T   T
  9.2375978872055846 13.6601492673608327 10.6869763697404565   T   T   T
 17.0626393294435843  4.3564091269041754 16.6888755529968229   T   T   T
  3.0914653014179692 12.2040389873924298 19.9327095118881097   T   T   T
  5.4917091538727645  6.7693528218366286  4.7510381981253680   T   T   T
 17.3049435676435372 13.6835032974400796  5.0603819083627828   T   T   T
  6.0184579476087796  0.0916631269612328 10.9295507408355714   T   T   T
 18.9231047384299629  7.2641157176876998 11.2355111013949127   T   T   T
 20.6855814460581513  2.0975958373733428 20.2460486975605747   T   T   T
 12.7305593651216444  7.0939106702734733 17.1360588495677462   T   T   T
 14.5849181354840294  0.9098508460980737  5.2787139562095682   T   T   T
  2.4601194340289947  8.1046670651938779  4.6072756610363896   T   T   T
  1.9779786045579966  4.1946390510918503  6.7905010023148114   T   T   T
 14.5938724589169073 12.2888633663510305  7.6424436028931773   T   T   T
 18.8862033657795365  3.6566383259185100 13.7695619734285444   T   T   T
  5.9695472112832926 11.1539501485740242 13.2477053003478051   T   T   T
 10.5058520989838104  4.1691338253066590  1.0404024027809944   T   T   T
 27.3356479015695406 10.3124350816424997 -1.5248891827975293   T   T   T
 23.0430226733232146  4.0699493526484298  7.5992982321706348   T   T   T
 10.1323842876121422 11.5566504361357403  7.7062658181198289   T   T   T
 14.3708730253511341  4.5516317101498425 14.1049223633164456   T   T   T
 -0.1864786137704822 11.7955186125681024 10.6402530463622060   T   T   T
  4.8005974523024406  5.1739950578201235  0.4699275592731155   T   T   T
 18.7631958235538754 11.3976580052650363  1.5180057627093533   T   T   T
  3.0490666924017980 13.2909607856681635 10.6109662552945174   T   T   T
 15.7458670006426633  6.1398417346780434 11.7474891913510167   T   T   T
 21.2850922719033733 13.5429329981236091 18.7628331258918983   T   T   T
 10.0766996737995047  5.5382799858442349 19.1828403926985125   T   T   T
 11.5303275033651929 13.5475168281523892  5.6139385904640564   T   T   T
 23.8790004712365089  6.1886840692471115  4.9567833183987791   T   T   T
  3.8112135680642769  3.8390002037942481 10.5410222338194774   T   T   T
 15.3231003596213622 10.2961395390215280 11.3342506833434928   T   T   T
 16.1303890682604596  2.4364462636002560 19.3725038552959568   T   T   T
  7.7605941523470836  6.3608043013513234 16.8261042709989219   T   T   T
 11.6143653925645296  2.8644378270216642  5.2738330091157106   T   T   T
 23.5935425965194199 10.1911708584643250  4.0966781568702961   T   T   T
  0.8234426672556339  2.5087641966812142 10.1719164256806724   T   T   T
 12.4074319851329236 11.9874251733142341 11.2518058389199389   T   T   T
 13.6729132128323307  3.6527923538496312 17.2079768372510991   T   T   T
 -0.0924424733053247 10.4171255270486132 16.8765287372539881   T   T   T
  8.6688113680663914  4.6861355687400561  4.6793768946142356   T   T   T
 20.6820482343691623 11.4980947367947017  4.7599677250099424   T   T   T
 -0.8645537456226573  0.2874680910690863 13.6354020912088725   T   T   T
 12.2837364955628754  8.1841493975698487 13.0291028727558871   T   T   T
 16.5284074906264564  0.5413640146651243  0.9202219206646248   T   T   T
  5.4163008312249756  9.0200518863287833  0.9492728581845763   T   T   T
  7.9835723319063749  0.9658135441046136  6.7989575527088535   T   T   T
 20.7083698346600968  7.6390259844386952  7.1456423309078358   T   T   T
 23.9196944203729167 -2.5921106837133876  0.2461825381503912   T   T   T
 13.1079470012168997  6.5010826214348310  1.4850077510436317   T   T   T
 16.8051426923684275  1.1853907997501101  7.7333330300361656   T   T   T
  4.3383014337120862  8.2572587090306175  7.5910880439894539   T   T   T
  8.1161478609129176  0.5735460104012549 13.5257229053279016   T   T   T
 21.3175367180248330  6.9497826911766527 13.2640715124826993   T   T   T
 21.6253699133806911  9.7241551398907280 11.0211903173366341   T   T   T
  8.5388207782838457  2.3465103671925291 10.5623071764009353   T   T   T
 16.1339390846694783  9.4554504825072492 18.4061493075518499   T   T   T
  2.2544749850271977  5.8920971495126269 16.6289343670066607   T   T   T
  5.3136608968561765 10.1784848269733921  5.0165206896949082   T   T   T