Li P  S  Cl
 1.0000000000000000
    25.1819793006824639    0.0000000000000000    0.0000000000000015
    -0.0000000000000009   14.5388225279766061    0.0000000000000009
     0.0000000000000000    0.0000000000000000   37.2126966544236950
 Li  P   S   Cl 
 287  48 240  48
Selective dynamics
Cartesian
  4.4201212473162546  2.4705791524979381  8.7307838432977878   T   T   T
 14.6326222923139131  9.7543555325959339  5.6325322664655868   T   T   T
 18.2189473183015949  1.7529757449649501 12.4079167451493149   T   T   T
  4.7393556295744874 10.1346341629127963 13.5476202316463787   T   T   T
 15.5926582523614616  0.8670369974982066  2.4026039269423034   T   T   T
 26.3567416026986336  5.1276168960622357  3.6685522944981357   T   T   T
  2.6897144860340676  1.1073239121288230  6.7962955314693447   T   T   T
 15.4621819199962669  9.0290984260967058  8.8481290683802278   T   T   T
 21.6092513369255279 -4.6525284552757595 19.4361575872891663   T   T   T
  5.6232560293815714 13.4263493163414438 12.8096792851118959   T   T   T
  8.3389544844131631  1.2265494016698018  5.6359289810142252   T   T   T
 23.1586109632414257 13.1732464436444232  2.1369933381073452   T   T   T
  1.3407095301424581  2.6723212920672546  9.1404303648692373   T   T   T
 13.2938748976496885 10.2728221529493737  8.7612725637692428   T   T   T
 19.9286331948586621  6.3852423469566597 14.0811879589941302   T   T   T
 11.3383606735997677 16.0777990115306793 13.6588451222691329   T   T   T
 10.1755596851333987  6.0275777722189474  2.8709358664314180   T   T   T
 25.0830390472939442 10.7051937145055192  2.6889131739901813   T   T   T
  3.5164673595449703  5.5078133733721275  8.6257815402080880   T   T   T
 15.2909381134729863 13.1773980844412044  9.1106725174056198   T   T   T
 21.4621851994201656  2.8383992893171595 13.2534741596073147   T   T   T
  5.4334825772392206 11.1148206662003695 10.5808759493487070   T   T   T
 14.2388859469511981  4.8579041542346122 -2.3004263314083802   T   T   T
 28.5271555151988885 10.9547779279689834 -2.6357771247868618   T   T   T
  5.6454098947781599  3.6476315776319694 11.4318382137514405   T   T   T
 17.7131480205219667 11.0423309589791288  6.6158807472296202   T   T   T
 17.5985959697724894  2.4043193154241993 15.0592627931075036   T   T   T
  8.3171704787557115  9.5773910587065352 12.8334903575455019   T   T   T
 14.1560382269994367  1.5811049457092661  6.4719172594136669   T   T   T
 21.3798599192819125 10.0468554345505972  1.8347602774502632   T   T   T
  0.7277288057779154  4.3698370131179072  7.0333455011244581   T   T   T
 14.6869169240440485 12.8385148888140392  6.1853411635059468   T   T   T
 17.1674758128167468  5.2200441096904786 13.3433177607866469   T   T   T
  8.8215140604922464 12.2891548916808055 13.8065536217152296   T   T   T
  9.6355254719915884  2.6869455258283907  2.8943654427175503   T   T   T
 25.4297475669627389 12.7232345739264012  0.2418578691146042   T   T   T
 26.8208733089274496 13.1875009218071391 14.7955363874524135   T   T   T
 11.1707710061184446  7.1539799469769729 15.0330180240007909   T   T   T
 16.9909507353986839 13.4057935524997696  0.2788199996781822   T   T   T
  3.7319117743892827  7.9138505270429373  0.4101249373124711   T   T   T
  7.0780085986893404 15.3290726214278443  8.5806328783605661   T   T   T
 19.9986603418237401  5.9490632795050402  6.4448552870397124   T   T   T
 23.8079405772207977 -0.1266540326446136 19.8806060928235233   T   T   T
 12.9873496480063313  4.9848754617539193 13.2537610929894978   T   T   T
 16.6906410887208629 -1.5147461207886606  3.2929769666412745   T   T   T
  6.4332636585150524  9.7820327196463737  2.5572147301183645   T   T   T
 10.9909899555087840  5.9997553664861689  8.7427945546880519   T   T   T
 23.4203563954068557  8.6205257690215724  8.5410998785059054   T   T   T
 -0.6502238537493888  2.2526521536489508 13.2143426691750747   T   T   T
 16.1839054072989654  3.7447785478790339 19.4529245172565730   T   T   T
 19.4654788566609227  1.5413647053433623  3.0869303168903532   T   T   T
  6.6156809259219340  7.0574140453506011  3.6962105765180824   T   T   T
 11.2336278656248076 -0.7314284342568634  8.6567703949334636   T   T   T
 19.5354213316048728 13.7889419659002392  8.7014146353233226   T   T   T
 -0.5161660947813097 -1.5051643152682512 12.3752965491789144   T   T   T
 11.9908273814630633  9.5785972819911045 12.2884698001247514   T   T   T
 19.0402143906118724 -1.7287683261646156 -2.4945806456191901   T   T   T
  6.4655295707872140  5.7923014922646496  0.3206340286585764   T   T   T
 11.3194627371234802  0.1692587717024594  5.6808287448835477   T   T   T
 21.8892790079487796  5.6867440961817692  8.1919497370173886   T   T   T
  4.5793548824641395 14.8449027133060021 16.4244447707874421   T   T   T
 14.4882023626741265  7.5527470724204369 15.5098187653479531   T   T   T
 21.5116761562296652 12.0256474408756340 -0.4653553317455795   T   T   T
  1.3285373614729965  9.2024638624342181  6.2639402353082829   T   T   T
  8.1293985243302611 11.9803299933030303 10.4733252748586683   T   T   T
 19.3710777783000943  8.1922774065996400  8.7487271055140337   T   T   T
 27.8631859975397802  1.8108092368676048 13.7845285173814602   T   T   T
 12.9938993221967891 10.4804428538987935 14.9018359728215213   T   T   T
 19.6459083041499092 -1.1772349274408673  2.2404885749258043   T   T   T
  2.3819223248431500 10.5721217168727399  0.6727501282829139   T   T   T
  9.8551084196576095  1.9090158233423609  8.5977669262318575   T   T   T
 20.2377812335043501  9.8966276709732135  6.4944934585105507   T   T   T
  2.7357030594272529  9.6858970646116447  8.9361621128054942   T   T   T
 13.7997818230991456  2.4949768452876753  8.9414076763008126   T   T   T
 18.1520853920616325  9.3755145916468976 13.0074683130412279   T   T   T
  9.0722254064463428  3.5980257360840384 14.6086493849949886   T   T   T
  6.5901659276084796  8.3662628396793899 -0.5519903911571689   T   T   T
 22.2803465788347133  0.9402105554386395 -0.0683488575558844   T   T   T
  0.6337872681064907 11.7353817291438460  8.2930560920371743   T   T   T
 15.3435726155913876  8.3205326583612234 12.6481737144306656   T   T   T
 21.1374448877105614 10.7834282358369364 12.1798145555516246   T   T   T
  6.8251938287344345  1.4536781135045633 12.9173530355929493   T   T   T
  8.6140082909275009 12.5144888206599951  7.0615042668822587   T   T   T
 23.0607444825430896  7.6161668858212597  5.2722036833394190   T   T   T
  2.6814111221873245 13.2320386032172337  8.5825211434736790   T   T   T
 16.9296334489947853  5.0145540920748566  8.6508710322149565   T   T   T
 21.0982640703263691 12.4207688295149090 14.9332954402284503   T   T   T
 -1.3194141696587354 11.6180292436750499 16.8259599375011248   T   T   T
 11.2456184580136593 14.2292704657407860  1.2304769009714791   T   T   T
 29.4714665109801075  4.2523594750849592  5.7344501666498919   T   T   T
  5.1056446832047344 11.3549978467568344  6.9612410577897474   T   T   T
 16.4901334869506861  3.7604620501220016  5.2321154972143171   T   T   T
 19.4932773129991546  9.2619234907581252 16.2355920862256156   T   T   T
  4.7927747782615651  4.8535946675092143 14.4641007102348294   T   T   T
 11.6720961301793267  9.5386324889117162  0.2215865132981738   T   T   T
 25.6513733068659668  2.6639605664039903 -0.0107717853490263   T   T   T
  1.6661928122690506 14.8305961285622381 11.0412558583152531   T   T   T
 17.0610939266057748  2.2247317708290577  8.6716385801576799   T   T   T
 17.4545499842033287  8.0182394057817774 19.3377282095509031   T   T   T
  6.6808125293277634  6.3079934593843845 13.1101775867614929   T   T   T
 13.2106691244988799 11.8999536783471740  2.4802222990689904   T   T   T
 20.3566166776464250  1.9779172275711414  7.0599902960121224   T   T   T
  1.7579193451115043 12.3874252696396709  4.9993147584880502   T   T   T
 14.2206739024636466  5.7341510885455547  6.1103905699553565   T   T   T
 18.2953843259652444 13.0621251689811331 12.7193492544128262   T   T   T
  8.6452973517699139  4.3403841705199024 11.6324603666906192   T   T   T
  9.5368256815506296 12.8205793542731001  2.4903608935874137   T   T   T
 22.3907634875560184  4.8549441172674905  3.5771008074759449   T   T   T
 20.5717866028530665 12.7435957687080581  5.7034919606655841   T   T   T
 13.0768550773575374  6.6084286570700623 11.1034582336077534   T   T   T
 15.2729128055490229 14.1928184787343952 13.2041664935913001   T   T   T
 24.5874117447078859  5.8381410502585345 12.1204097304832032   T   T   T
  4.8903336253962317 14.1918054035837677 -0.8658400491473285   T   T   T
 15.8352337227785434  8.5678845670510206 -0.2193628705228842   T   T   T
 19.5053912676535397  4.7621946571123628 11.1167568623346593   T   T   T
 10.6566495264214964  8.8809748690168426  8.7014241409961670   T   T   T
  7.4770598430951241 -0.8882474917526626 19.1311721550882616   T   T   T
 27.4089493325248519  8.6599333129354754 14.4187419886746913   T   T   T
  3.6609649224875196  8.2856220248915626  3.2970764399946453   T   T   T
 17.3430279459977505  9.3527447288315493  2.7054983853801509   T   T   T
 21.9914433688366948 -1.9427343334806286  8.6281451722469349   T   T   T
 10.7407300649317925  7.1919950773017645  5.8949153076067899   T   T   T
 13.6505618107529241  1.9877692150371069 15.1328020793875719   T   T   T
  3.2928095069414374  7.1110115757169918 12.4603975169006986   T   T   T
  5.5276627581138191 -1.0026990207239954  2.7270057699193329   T   T   T
 18.7321312402722242  8.6166133855314122 -0.1580135831151737   T   T   T
 23.0729553627734774  0.1367391621885446  5.7145905025233628   T   T   T
  7.2716323409814834  7.6542626183375200  8.6734529279606338   T   T   T
 17.1617328923726085 -3.4002758050554975 14.9943135207898308   T   T   T
  0.3193248049296036  8.6978615476499677 10.8590637218135377   T   T   T
  2.3236330064787554 -0.2293420274887933  2.1351667200536939   T   T   T
 18.9099239383794497  6.3092747373182076  2.6538920797282488   T   T   T
 23.9781078570349422 14.2989168541791045 14.6484989506319003   T   T   T
  8.3577726801457572  5.2766377489077128  7.0664839054901067   T   T   T
 12.3387765947236563 13.1733321753239565 12.6868688826889233   T   T   T
 -2.3808707048687041  6.4014761798269664 15.3324457467092117   T   T   T
  4.7255242293499364 16.4620370922313342  3.3755867008092122   T   T   T
 15.6558937738202157  6.0829342593975229  2.5799430950640576   T   T   T
 23.0639512914842690  1.3198812704626974  8.9831567261612921   T   T   T
  8.6108178076133299  8.9375106844961074  5.9401315655704012   T   T   T
 13.0426885143184599 -0.7890205077292451 16.5912185943064863   T   T   T
 24.2982786183054351  8.7097184814462132 13.6145112892474582   T   T   T
  2.7907791385077427  5.5523710458712436 -1.0015083231706148   T   T   T
 15.4729180238504895 11.0439477334512439  0.9260487489449918   T   T   T
  8.8848068920945416  1.4496087708825913 30.8785030192336336   T   T   T
 21.3799032315367263 13.2161617332247268 30.4954944395641654   T   T   T
  0.1676456413837605  5.3669028934015719 24.3652668198216880   T   T   T
 12.9521074442571198 11.5632301323864368 19.6448202489279460   T   T   T
 17.5768380938452644  4.9515859686255750 34.2701039875823739   T   T   T
  7.3250393266886409 14.9229072527957278 38.3610546687354912   T   T   T
  8.0770099824202930  3.4808290895139500 28.7124583496469938   T   T   T
 20.1193336946332622 10.4183159112058021 28.4077465271639973   T   T   T
  0.9914205003170334  5.7738200935665613 14.6812123193984192   T   T   T
 12.8002208873022365  9.8446074174197093 26.2448927125082569   T   T   T
 19.0603838562402608  0.9026525818176530 36.5113564011351457   T   T   T
  3.3056525578411478  3.4246454591032260 34.6524755915891802   T   T   T
 11.8996471644627100  4.5394912658001108 28.6082697471982996   T   T   T
 22.5352858965497127  8.3597627100550298 28.1555273265725319   T   T   T
  0.4318990954068260  3.7415969273590610 21.3736523651421670   T   T   T
 11.5379746342560185  9.3237874420502500 23.7976678276159426   T   T   T
 20.8827304566330945  4.7524014425344525 35.2778219145223915   T   T   T
  8.8829138098691534 11.3858486742061160 31.9260122527047869   T   T   T
 11.1612292408790683  3.4638648076186329 31.9008812837628533   T   T   T
 24.8096425799819862  9.4425668665296456 29.6974283355631705   T   T   T
  0.3334192934153876  7.9101848208963457 19.9054779217254243   T   T   T
 15.9387608810995847 10.7459115415379394 24.8693242388357767   T   T   T
 22.1734001272104173  6.2483329622664581 37.3565264621142603   T   T   T
  6.2881360124687111 12.5414975651519107 34.9756349573675038   T   T   T
  9.5308085599283157  5.9219118938733830 29.9993815583166210   T   T   T
 23.3963802782714261 11.7666110828483532 28.4268586253353135   T   T   T
 -0.7725318723179039  2.2076194710172694 23.5750147476714531   T   T   T
 12.7379528121879986  7.1682493698006766 19.1704967406218572   T   T   T
 16.8694739747610960  1.9187920614597225 34.0760183451759957   T   T   T
  2.2520867476074486 15.8908737897522840 30.7755227296754512   T   T   T
 11.0378130763940430  1.8993799482319111 28.3720618391918507   T   T   T
 26.3687878755034824  2.2860832102385804 25.7917565425538875   T   T   T
  3.2176965936921431  2.0895601860697317 23.1192566588964610   T   T   T
 14.2035440781796822  8.3297040035495051 22.9974749649893120   T   T   T
 18.3585822421649318  2.9125684126408289 38.1515747366593416   T   T   T
  8.5482182857057509  8.4585752548303894 33.5459634076195528   T   T   T
  9.5204896476722904  9.6295753200313037 19.9715869491147089   T   T   T
 18.3515426700853759 -2.1272497804590667 24.7414142401018609   T   T   T
 24.8169474417930545 10.7639520599394700 33.9616713067397029   T   T   T
 15.4776959829937084  1.3272634632857403 36.8969022466759640   T   T   T
 14.5538153115376243  8.8678652470338903 30.4612959991270138   T   T   T
  1.4104529719917225 -0.5930505987688283 28.2563194496665595   T   T   T
  5.8230499213651825  8.1618180288331850 22.6159052790016126   T   T   T
 18.0948541123128912 15.4734715666378939 24.1749544553685034   T   T   T
 22.0948286527375721  8.2475047152985077 35.3806542898883265   T   T   T
  9.1515506950879626  1.1017687521895554 34.7705087327658617   T   T   T
 14.3332389009348518  5.7016761965509630 28.4757654617303722   T   T   T
  1.8943842966792681 10.0033647674176684 26.2229766201607291   T   T   T
  6.4999214537817975  5.1816353128190418 24.5973207496979924   T   T   T
 22.3279823038399918 13.9548904993477230 23.9296769784355945   T   T   T
 -0.4167065837251739  5.8958460604634437 34.2999802341058029   T   T   T
  8.8077892429720883 12.7262770944185561 36.8468044951294615   T   T   T
 17.4624455638096734  5.5320446117121627 28.6275905056461397   T   T   T
  4.9650622093327499 12.8783432141619585 28.3426068681431147   T   T   T
  8.7492186068930540  6.5764204545747038 26.0909496801369016   T   T   T
 20.7874538545731298 15.0594000466131561 25.9891817737704507   T   T   T
 -1.0115425137661374  8.4464585885365757 38.9990441401160695   T   T   T
 10.4561989953417882 -1.8264561715859746 34.0010556321083044   T   T   T
 18.0074511512108550  8.6376781504856837 29.3947125595308343   T   T   T
  5.7776226420718277 14.4134867104148121 30.4651392804612513   T   T   T
  8.9827667440532331  6.0588958693288752 23.0559323101776279   T   T   T
 19.9620248482691558  2.3137506944564632 23.5554665543995725   T   T   T
  1.2554042752455206  8.4388786364108164 35.8223805220128213   T   T   T
 12.8014354696528372  0.7192215774816967 34.4154192572824940   T   T   T
 15.0610131007298627  8.4130642860702451 27.8449321020970793   T   T   T
  3.5311669972352813  4.9180975408130472 23.9692745729940562   T   T   T
  6.4914429974081296  8.8443269939777949 25.9121679223633627   T   T   T
 20.1206917776170187 12.5414277100584854 22.5096581266773015   T   T   T
 25.3964654635960478  5.8311287051162672 36.9882785783054686   T   T   T
 12.9589770364702623 12.0791391178395671 36.6559187534678870   T   T   T
 15.6072030113653941  5.9034164124560053 31.5425872975337995   T   T   T
  2.4766093708478549 12.8987091516128913 30.8783935055375522   T   T   T
 11.5788361533819231 11.6329633886188013 29.1340060004840744   T   T   T
 22.1194189813235127  5.0091948163959454 28.0053475499790778   T   T   T
 -0.3569015551049685 11.5315441754456742 26.0378980390916688   T   T   T
 14.5823994591348693  2.3732639026397968 26.2355864126298108   T   T   T
 22.9080938064627126 13.5296730435427257 34.6609000979339612   T   T   T
  5.5331823051569158  5.9972325961928803 34.9572910224623712   T   T   T
 11.6946034442879139 10.1819676151830869 31.7412995015819952   T   T   T
 -0.7860434376942190 11.2499273419930930 22.4353378068254834   T   T   T
 14.3920725886862648  1.3877467644887995 22.7861168506852394   T   T   T
 16.0605261200233649 10.7386888855907010 35.0297205303056245   T   T   T
 -0.3135178405631193  2.5293442624281206 34.3915962818078071   T   T   T
  7.8582224606874806  9.4419789253471329 23.1212547919685463   T   T   T
 20.6841247992779707  2.2553067957989170 29.5713708214077791   T   T   T
  1.1057426844052956 13.0721531687574668 23.8724832200701478   T   T   T
 12.9266457919741224 -2.0664577679942009 24.0341639026516773   T   T   T
 19.1495651525454349  8.1414718819584628 34.2639813166316003   T   T   T
  3.1168707176927875  2.6397658349904116 38.2850430381099613   T   T   T
  7.5157494706609702  9.1911384886438903 29.9321989439977116   T   T   T
 21.0236814290273557  5.3015795356972566 30.9595369571322543   T   T   T
  3.9000849430647091 11.2779826584448060 23.7479406055271163   T   T   T
 16.3156135802342455  4.1819882539577584 24.0722225053654988   T   T   T
 23.8943179231230651 10.0216494295568594 36.4885034760629594   T   T   T
 12.9221353533393959  1.2627220612348233 37.1010779252461020   T   T   T
 10.1879044061332849  8.4762238460194332 29.1611633224868783   T   T   T
 23.2137477520768165  1.4014088371211781 28.2162901685372347   T   T   T
  0.5276099635259935 16.7787343542228413 17.2760893531463040   T   T   T
 13.2446870048620280  5.2791342784919122 24.2532837739586995   T   T   T
 21.3423355785938469  8.9983279745450879 31.6104662848479663   T   T   T
  5.4406305821411562  0.8026847665618507 33.7457315005316474   T   T   T
  8.3438163042398283 12.1323764068005957 28.3725732805962956   T   T   T
 23.0108208354228481  2.7201582210750406 31.7695490400703235   T   T   T
 -0.2400708893682620  8.7169618574429357 24.0851976101727026   T   T   T
 12.1195499789495518  2.0105930838191277 24.5287019269760513   T   T   T
 18.4757737546885323  5.6867127669829154 36.9095560365473290   T   T   T
  5.8586343841317765  2.2712622415508199 36.7099573374386665   T   T   T
  4.0491070566685439  8.8706536108019662 28.6343576519849954   T   T   T
 15.0178703179905266 -1.2720711637999782 31.4260405968130918   T   T   T
 19.0353738027518027  6.6316768777975525 21.5036976598789948   T   T   T
  7.2782120654072315  2.2762569794187484 23.5409414292357511   T   T   T
 10.3828332741670355 10.1822351354092859 40.3752888348370504   T   T   T
 23.8617620674254987  1.5712940152327490 40.2335405274971407   T   T   T
  2.1479457404245372  5.8689606948416628 28.1394018309416687   T   T   T
 15.1848754059584454 16.2406879619334781 30.7663272016042555   T   T   T
 19.1869013327491977  5.0157324004272583 24.3438906022467521   T   T   T
  5.7802075872255427 14.2979333892279250 22.5781617870958371   T   T   T
  8.9630120050080464  5.4357303452406489 33.8359993506090859   T   T   T
 20.2342825535743565  2.0252232289774086 34.4881842582475144   T   T   T
  5.6264016424552574  5.7682843446281922 28.3768937107534249   T   T   T
 14.1307806064493260 14.7312324831241561 28.5299829799283913   T   T   T
 20.8442308908415121  7.6287212957795880 25.5585984227337093   T   T   T
  9.6989661081900014 13.3045681165046261 24.8172289968198925   T   T   T
  9.6722517891874737  6.2159684198946605 37.1110321393584712   T   T   T
  4.1072283633072102 20.2435278871275948 38.9690918838205107   T   T   T
  2.1095574453054624  8.7159870444682817 30.9340816286309455   T   T   T
 18.6675910016991082 -0.2266949584352064 30.8725173522999761   T   T   T
 20.2288868547002032  9.2199501218239206 22.7600056918608296   T   T   T
  7.3974032417223485 15.3359628209035748 26.2863792850366131   T   T   T
 11.7918011739808168  3.3742465836886222 35.3359398411642474   T   T   T
  3.9421732352703329  1.7982729595848725 28.2183501354696737   T   T   T
  4.9515059771508092  7.5188508181068654 31.7460204943993993   T   T   T
 17.6369282097329929 -0.1935795075215609 28.3406301967878065   T   T   T
 22.1351755255570275  5.7481302719973977 22.9492366044632625   T   T   T
  9.4328065868676987  0.9188184281828931 22.3899288672943868   T   T   T
 13.7821850040529270  8.3209413863292951 34.9156502220586020   T   T   T
 -0.4181758164180366  4.5568273135650790 29.6922187543477953   T   T   T
  2.3983965506983038  5.3466015614150280 31.4100751366128392   T   T   T
 15.9139043661691595 12.0046053934535841 28.9041095531788379   T   T   T
 18.1765542081372473  8.5865178152585031 24.2932265419504141   T   T   T
  7.2262070614345788 12.3126408292914640 24.2083049259188456   T   T   T
 13.5419263884617109  3.0760420178969565 40.1698484961575275   T   T   T
 26.5830748741956775 13.2426899639782931 34.8927704206814013   T   T   T
 -0.5657665315217604  0.1867140677229730  0.7993705589498710   T   T   T
 12.8316622648986876  6.3070775554139420  0.5915547866501699   T   T   T
 17.5301370626288993  0.0116861329550532  5.8568788168229187   T   T   T
  4.9018933612102327  7.5179071207390917  6.1721473984702087   T   T   T
  9.0611752626230455  0.3388188841650063 11.5497759801366833   T   T   T
 21.6214591733093080  7.7261394019612801 11.3706492940891746   T   T   T
 23.5469394425829428 11.0888264856138150  5.4647504920870915   T   T   T
 11.2216860541710215  3.6532478331359823  5.8885764087558536   T   T   T
 15.4430462325158953 11.1235812825586002 11.7017272198225601   T   T   T
  2.6259094870091073  4.1684293308582880 11.7538003711577854   T   T   T
  6.8875325091948927 10.7751235887071530 -0.3001795703628650   T   T   T
 21.6894253868839222  3.6295171311165149  0.4373996356470694   T   T   T
  5.1001242403695706  0.2334584669255430  5.8395765142272182   T   T   T
 17.2339997226321273  7.4794518166227686  5.6876486166579392   T   T   T
 21.5403735301247181  0.0933765988966751 11.8592964396274603   T   T   T
  9.3103420847884717  7.3943559508912378 11.5607302237770142   T   T   T
 14.4977897352038969 -0.7393270410198194  0.9319583318836960   T   T   T
  1.7047962436924291  6.5277914428714459  1.6039277686680395   T   T   T
 23.2925888546975202  3.7160780387572712  6.1119404060074576   T   T   T
 11.1365290720206129 11.2084298040685226  5.7156873125705552   T   T   T
 15.4538589343999888  3.5727098386738567 11.7497218077852370   T   T   T
  2.6664494151205598 11.3246508763697626 11.7100333896925122   T   T   T
 10.4240814026427611  3.7611544513756452  0.5252936989076968   T   T   T
 17.6736020448301545 10.8481631790207231  0.2759440787997379   T   T   T
  9.3396303755903496  6.8297161159983268 18.5414907082812555   T   T   T
 21.8104492283076574 -1.5796750924120770 18.0145415125472965   T   T   T
 24.2408648782041602  7.0460364603544736 31.2706476807384455   T   T   T
 11.8396653505462535 14.2539248438943034 31.1978814686306620   T   T   T
 16.1222773534768287  7.0195866305708829 25.4700085522886965   T   T   T
  3.4354992898349206 14.4333949280879992 25.3486356064769467   T   T   T
  5.3939134139508980 10.6304952316536649 31.3925125023211642   T   T   T
 18.3162321484057848  3.5692416061661429 31.5556997074356147   T   T   T
 22.0343704804099580 10.8551656775532059 25.3769552829477441   T   T   T
  9.6991714289878388  3.5101295040512928 25.4978760959463671   T   T   T
 14.4169824777985163  9.3455281370769292 18.6059301455049741   T   T   T
  0.3538588646485548  4.9977331188820502 18.4294582927353296   T   T   T
 12.0395258031653025  6.9312625844864275 31.7449380340381460   T   T   T
 24.4599012120821691 14.1767764851197491 31.6025568990120398   T   T   T
  3.5901472753337171  7.2695970014970532 25.3606622420126264   T   T   T
 15.7269397608167569 -0.4769064325089051 25.5069289961897425   T   T   T
 20.5030662719825294  6.0406578169674967 18.1491532534799695   T   T   T
  7.8677119327383656  2.7029979651052924 18.8745325182950658   T   T   T
  5.3644954460693519  3.4264651910331576 31.5240824892082472   T   T   T
 18.2166332148577439 10.9749022096957489 31.5455713307499153   T   T   T
 22.2035308969926213  3.4295591870204132 25.2423391038749365   T   T   T
  9.6745196979252324 10.4155974374769471 25.8829283251595434   T   T   T
 14.6786756457153817  1.2441028697319292 18.7790021036205523   T   T   T
  4.2110233700676911 12.5067187381430855 18.2678508214874924   T   T   T
  4.7868791762666998  0.0558594350316197  7.8885556642389449   T   T   T
 17.0828138577417832  7.6100155949175274  7.8226861001200581   T   T   T
 21.4146020652119837  0.1812153109681865 13.9483098790321893   T   T   T
  9.1124149854536149  7.4732744007684957 13.5918991124942536   T   T   T
 13.3447114956556945  0.3707901257046939  2.4600534370104215   T   T   T
  1.5783138618541277  8.7722498331007337  1.7915743379932405   T   T   T
 22.5812978822279540  1.8166371128586849 11.2739430867724710   T   T   T
 10.0081519202168554  9.1806105159975395 11.0121454679572857   T   T   T
 13.1306181628119329  0.0214957125424409 18.8934691128614816   T   T   T
  3.0430003896279771 10.6515532614413537 17.7366492563823144   T   T   T
  5.9019887037616954  2.0659337246217340  5.4862940852648139   T   T   T
 18.2428789468256092  9.1555780713088240  5.0497378455258888   T   T   T
 22.4703210306750343  5.9203679564243110 10.5335819710696850   T   T   T
 10.4229836646902072 13.4982426232304533 10.9326666145931384   T   T   T
 16.3839695012355158  0.2555445043439770 17.7693433601905646   T   T   T
  2.0432603108331895 14.6977389571098200 16.7224897577493543   T   T   T
  6.0962045344132489  5.9124047411167870  5.5852673969817435   T   T   T
 18.4507085475733312 12.9628823005918186  4.7967675412583954   T   T   T
  7.0875677182754684 -0.0497879862467509 10.9539246417709393   T   T   T
 19.6067121037319723  7.5320671238840662 11.1106938783583544   T   T   T
 23.4907750376368192 -0.7477050163545474 17.2278418833600320   T   T   T
  7.9260264017227229  7.9294591390675908 21.1692139665400099   T   T   T
 15.6477692456484672  0.1026622921593466  4.9833924787413668   T   T   T
  3.0516690556498083  7.1389122173861672  5.4103796111005362   T   T   T
  2.7572663881324382  3.3308039146500903  7.4964552562205320   T   T   T
 15.1639241680423105 11.1447908094632560  7.5670674496844867   T   T   T
 19.1071976737787743  3.9578315651633211 13.1922707684064395   T   T   T
  6.7613097113255236 11.1921833583100749 12.6230132702432325   T   T   T
 12.0071580693832836  4.3969465304292568  1.5905701434707418   T   T   T
 23.2071488530061742 11.0034977622517580  1.2522000261240531   T   T   T
 23.4515673759562411  3.8182690770024097  8.1395940242926592   T   T   T
 10.8575720935623981 11.3034623692192184  7.7257294486670078   T   T   T
 15.4345787335779736  3.6987192103522690 13.8701567831931705   T   T   T
  2.6822893649031614 11.2449643190414683 13.7458693825409828   T   T   T
  8.5904973613663156  4.6573978647281278  1.3780627680697664   T   T   T
 19.2493380381383723 11.1625242324214220  1.6706640164542146   T   T   T
  3.6589358944074197 12.9807044775708924 11.0749422145453664   T   T   T
 16.3868151947332699  5.3448968362791671 11.1913599115928797   T   T   T
 21.5828035082051386 10.9588228953183489 17.1861368831272685   T   T   T
  6.1580352001310761  3.4656656357751658 16.3387138649738937   T   T   T
 12.1176474492288087 12.7790906961869553  5.0049627264636332   T   T   T
 24.2987728325918688  5.5640495293394787  5.3158244740334544   T   T   T
  3.4801612806983258  2.2480562887721365 11.2609678448805486   T   T   T
 16.4744632062431009  9.6258684682076883 10.8324972737451724   T   T   T
 20.1858696651635299 -0.7262894648509066 17.0312180176180803   T   T   T
  8.3765190425414833  6.2431337096012101 16.6760895912912055   T   T   T
 12.1232646031322790  2.2006986580856029  4.8583168614931314   T   T   T
 24.8491720303005614  9.4363005232024371  4.7140653956659486   T   T   T
  0.7036247670279742  4.1751410782990961 10.8568052357459290   T   T   T
 13.3510533746069537 11.2143887171718148 11.1294601770989949   T   T   T
 19.3154066585795086  2.1675777792819395 18.3062140537060714   T   T   T
  5.4664540217509661 12.7776189532074120 16.7004267067997318   T   T   T
  9.2840795650662855  3.7028642853917790  5.4365221780483095   T   T   T
 21.6432019596521634 10.9005964934934170  4.7783502290737196   T   T   T
  0.8878296663332881  0.4469571210954328 13.3863268413131173   T   T   T
 13.2864301748178146  7.7316240143682364 13.5054994771361425   T   T   T
 18.0259192299150541  0.5319914587480478  1.6966706662455016   T   T   T
  5.7378916229427013  7.7423838938531606  1.7368520071325741   T   T   T
  9.4075546539373818  0.0865266275667949  7.3816781742622428   T   T   T
 21.3124677949887626  7.7190366135490258  7.1645355949518024   T   T   T
 26.1827394214396563  1.5854558456629266  1.8328746374388596   T   T   T
 11.2059989845873567  7.4603089030237317  1.2689718397887115   T   T   T
 17.4126098484541281 -0.3091573750280723  7.9086451161579481   T   T   T
  4.9618567781433738  7.8364396575934432  8.1335721876650666   T   T   T
  8.9855192158840431  0.3204522907162068 13.5628675510449526   T   T   T
 21.8692109343252525  7.9658263120845749 13.4655606376342760   T   T   T
 22.6152493958564165  9.5085429433807178 10.7683787293737065   T   T   T
  9.8227407177362860  2.2681172608439093 10.8606523966744835   T   T   T
 14.5981385810485218  7.5393978145910880 17.6713991067569722   T   T   T
 -1.4316498412922916  3.7510292175928726 18.7500339114970984   T   T   T
  5.5999661611587443  9.2461263624539747  5.1949301709906370   T   T   T