Li288 P48 S240 Cl48
1.0
  25.1819793006824639    0.0000000000000000    0.0000000000000015
  -0.0000000000000009   14.5388225279766061    0.0000000000000009
   0.0000000000000000    0.0000000000000000   37.2126966544236950
Li P S Cl
288 48 240 48
direct
   0.0455251041666666    0.1365753125000000    0.1739422129699928 Li
   0.5455251041666664    0.6365753125000000    0.1739422129699929 Li
   0.7121917708333332    0.1365753125000001    0.3334428666722386 Li
   0.2121917708333332    0.6365753125000000    0.3334428666722386 Li
   0.3788584374999999    0.1365753125000001    0.0144415592677472 Li
   0.8788584374999997    0.6365753125000001    0.0144415592677472 Li
   0.0077168750000000    0.2500000000000001    0.2463074601788846 Li
   0.5077168749999998    0.7500000000000006    0.2463074601788846 Li
   0.6743835416666665    0.2500000000000002    0.4058081138811303 Li
   0.1743835416666665    0.7500000000000006    0.4058081138811303 Li
   0.3410502083333332    0.2500000000000002    0.0868068064766389 Li
   0.8410502083333331    0.7500000000000006    0.0868068064766390 Li
   0.1211415625000000    0.3634246875000001    0.2463074601788846 Li
   0.6211415624999997    0.8634246875000002    0.2463074601788847 Li
   0.7878082291666664    0.3634246875000002    0.4058081138811303 Li
   0.2878082291666666    0.8634246875000002    0.4058081138811303 Li
   0.4544748958333332    0.3634246875000002    0.0868068064766389 Li
   0.9544748958333330    0.8634246875000002    0.0868068064766389 Li
   0.1589497916666666    0.2500000000000000    0.1739422129699928 Li
   0.6589497916666665    0.7500000000000007    0.1739422129699929 Li
   0.8256164583333331    0.2500000000000003    0.3334428666722385 Li
   0.3256164583333332    0.7500000000000006    0.3334428666722385 Li
   0.4922831249999998    0.2500000000000002    0.0144415592677472 Li
   0.9922831249999997    0.7499999999999999    0.0144415592677472 Li
   0.1211415625000000    0.1365753125000000    0.2463074601788845 Li
   0.6211415624999999    0.6365753125000001    0.2463074601788846 Li
   0.7878082291666665    0.1365753125000002    0.4058081138811303 Li
   0.2878082291666665    0.6365753125000001    0.4058081138811303 Li
   0.4544748958333332    0.1365753125000002    0.0868068064766389 Li
   0.9544748958333330    0.6365753124999999    0.0868068064766389 Li
   0.0455251041666667    0.3634246875000000    0.1739422129699928 Li
   0.5455251041666666    0.8634246875000002    0.1739422129699929 Li
   0.7121917708333332    0.3634246875000002    0.3334428666722385 Li
   0.2121917708333332    0.8634246875000002    0.3334428666722385 Li
   0.3788584374999999    0.3634246875000002    0.0144415592677471 Li
   0.8788584374999997    0.8634246875000002    0.0144415592677472 Li
   0.9621917708333334    0.8865753125000000    0.3334428666722384 Li
   0.4621917708333331    0.3865753125000002    0.3334428666722385 Li
   0.6288584374999997    0.8865753125000002    0.0144415592677472 Li
   0.1288584374999998    0.3865753125000002    0.0144415592677471 Li
   0.2955251041666666    0.8865753125000002    0.1739422129699928 Li
   0.7955251041666663    0.3865753125000002    0.1739422129699928 Li
   0.9243835416666667    0.0000000000000001    0.4058081138811302 Li
   0.4243835416666665    0.5000000000000001    0.4058081138811303 Li
   0.5910502083333331    0.0000000000000003    0.0868068064766389 Li
   0.0910502083333332    0.5000000000000000    0.0868068064766389 Li
   0.2577168749999998    0.0000000000000002    0.2463074601788845 Li
   0.7577168749999997    0.5000000000000001    0.2463074601788846 Li
   0.0378082291666667    0.1134246875000001    0.4058081138811301 Li
   0.5378082291666665    0.6134246875000002    0.4058081138811303 Li
   0.7044748958333330    0.1134246875000003    0.0868068064766390 Li
   0.2044748958333332    0.6134246875000002    0.0868068064766389 Li
   0.3711415624999999    0.1134246875000003    0.2463074601788845 Li
   0.8711415624999996    0.6134246875000002    0.2463074601788845 Li
   0.0756164583333333    0.0000000000000000    0.3334428666722384 Li
   0.5756164583333332    0.5000000000000002    0.3334428666722385 Li
   0.7422831249999998    0.0000000000000003    0.0144415592677472 Li
   0.2422831249999999    0.5000000000000001    0.0144415592677471 Li
   0.4089497916666666    0.0000000000000003    0.1739422129699928 Li
   0.9089497916666663    0.5000000000000001    0.1739422129699928 Li
   0.0378082291666667    0.8865753125000000    0.4058081138811301 Li
   0.5378082291666665    0.3865753125000002    0.4058081138811303 Li
   0.7044748958333331    0.8865753125000002    0.0868068064766389 Li
   0.2044748958333332    0.3865753125000002    0.0868068064766389 Li
   0.3711415625000001    0.8865753125000002    0.2463074601788845 Li
   0.8711415624999999    0.3865753125000002    0.2463074601788845 Li
   0.9621917708333334    0.1134246875000000    0.3334428666722384 Li
   0.4621917708333331    0.6134246875000002    0.3334428666722385 Li
   0.6288584374999998    0.1134246875000003    0.0144415592677472 Li
   0.1288584374999999    0.6134246875000002    0.0144415592677471 Li
   0.2955251041666666    0.1134246875000003    0.1739422129699928 Li
   0.7955251041666666    0.6134246875000002    0.1739422129699928 Li
   0.0455251041666666    0.6365753125000000    0.1739422129699928 Li
   0.5455251041666664    0.1365753125000001    0.1739422129699928 Li
   0.7121917708333332    0.6365753125000002    0.3334428666722385 Li
   0.2121917708333332    0.1365753125000001    0.3334428666722384 Li
   0.3788584374999999    0.6365753125000002    0.0144415592677472 Li
   0.8788584374999997    0.1365753125000002    0.0144415592677472 Li
   0.0077168750000000    0.7500000000000000    0.2463074601788845 Li
   0.5077168749999998    0.2500000000000001    0.2463074601788846 Li
   0.6743835416666664    0.7500000000000007    0.4058081138811302 Li
   0.1743835416666666    0.2500000000000002    0.4058081138811302 Li
   0.3410502083333332    0.7500000000000007    0.0868068064766389 Li
   0.8410502083333331    0.2500000000000002    0.0868068064766389 Li
   0.1211415624999999    0.8634246875000002    0.2463074601788845 Li
   0.6211415624999997    0.3634246875000001    0.2463074601788846 Li
   0.7878082291666664    0.8634246875000002    0.4058081138811302 Li
   0.2878082291666665    0.3634246875000001    0.4058081138811303 Li
   0.4544748958333334    0.8634246875000002    0.0868068064766389 Li
   0.9544748958333330    0.3634246875000002    0.0868068064766389 Li
   0.1589497916666666    0.7500000000000000    0.1739422129699928 Li
   0.6589497916666666    0.2500000000000002    0.1739422129699929 Li
   0.8256164583333331    0.7500000000000007    0.3334428666722385 Li
   0.3256164583333332    0.2500000000000002    0.3334428666722384 Li
   0.4922831249999998    0.7500000000000007    0.0144415592677472 Li
   0.9922831249999997    0.2500000000000002    0.0144415592677472 Li
   0.1211415625000000    0.6365753125000000    0.2463074601788845 Li
   0.6211415624999997    0.1365753125000002    0.2463074601788846 Li
   0.7878082291666664    0.6365753125000002    0.4058081138811302 Li
   0.2878082291666665    0.1365753125000002    0.4058081138811302 Li
   0.4544748958333332    0.6365753125000002    0.0868068064766389 Li
   0.9544748958333330    0.1365753125000002    0.0868068064766389 Li
   0.0455251041666666    0.8634246875000002    0.1739422129699928 Li
   0.5455251041666664    0.3634246875000001    0.1739422129699928 Li
   0.7121917708333332    0.8634246875000002    0.3334428666722385 Li
   0.2121917708333332    0.3634246875000002    0.3334428666722385 Li
   0.3788584375000001    0.8634246875000002    0.0144415592677471 Li
   0.8788584374999997    0.3634246875000002    0.0144415592677472 Li
   0.7955251041666667    0.8865753125000000    0.1739422129699928 Li
   0.2955251041666665    0.3865753125000002    0.1739422129699928 Li
   0.4621917708333334    0.8865753125000002    0.3334428666722385 Li
   0.9621917708333334    0.3865753125000002    0.3334428666722385 Li
   0.1288584375000000    0.8865753125000002    0.0144415592677472 Li
   0.6288584374999998    0.3865753125000002    0.0144415592677471 Li
   0.7577168750000003    0.0000000000000000    0.2463074601788845 Li
   0.2577168749999998    0.5000000000000001    0.2463074601788845 Li
   0.4243835416666665    0.0000000000000002    0.4058081138811301 Li
   0.9243835416666667    0.5000000000000001    0.4058081138811302 Li
   0.0910502083333333    0.0000000000000002    0.0868068064766389 Li
   0.5910502083333331    0.5000000000000001    0.0868068064766389 Li
   0.8711415625000001    0.1134246875000000    0.2463074601788845 Li
   0.3711415624999998    0.6134246875000002    0.2463074601788846 Li
   0.5378082291666665    0.1134246875000001    0.4058081138811303 Li
   0.0378082291666666    0.6134246875000002    0.4058081138811302 Li
   0.2044748958333333    0.1134246875000003    0.0868068064766389 Li
   0.7044748958333331    0.6134246875000002    0.0868068064766389 Li
   0.9089497916666667    0.0000000000000000    0.1739422129699928 Li
   0.4089497916666666    0.5000000000000000    0.1739422129699928 Li
   0.5756164583333332    0.0000000000000001    0.3334428666722386 Li
   0.0756164583333333    0.5000000000000001    0.3334428666722384 Li
   0.2422831249999999    0.0000000000000002    0.0144415592677472 Li
   0.7422831249999998    0.5000000000000001    0.0144415592677472 Li
   0.8711415625000001    0.8865753125000000    0.2463074601788845 Li
   0.3711415624999999    0.3865753125000002    0.2463074601788845 Li
   0.5378082291666665    0.8865753125000001    0.4058081138811302 Li
   0.0378082291666667    0.3865753125000002    0.4058081138811302 Li
   0.2044748958333333    0.8865753125000003    0.0868068064766389 Li
   0.7044748958333331    0.3865753125000002    0.0868068064766389 Li
   0.7955251041666667    0.1134246875000000    0.1739422129699928 Li
   0.2955251041666664    0.6134246875000002    0.1739422129699928 Li
   0.4621917708333331    0.1134246875000001    0.3334428666722384 Li
   0.9621917708333334    0.6134246875000002    0.3334428666722384 Li
   0.1288584375000000    0.1134246875000003    0.0144415592677472 Li
   0.6288584374999998    0.6134246875000002    0.0144415592677471 Li
   0.3788584374999999    0.3634246875000002    0.8260577870300074 Li
   0.8788584374999997    0.8634246875000002    0.8260577870300073 Li
   0.0455251041666665    0.3634246875000000    0.6665571333277617 Li
   0.5455251041666666    0.8634246875000002    0.6665571333277618 Li
   0.7121917708333333    0.3634246875000002    0.9855584407322530 Li
   0.2121917708333330    0.8634246875000002    0.9855584407322530 Li
   0.3410502083333333    0.2500000000000000    0.7536925398211157 Li
   0.8410502083333331    0.7499999999999997    0.7536925398211157 Li
   0.0077168749999998    0.2499999999999998    0.5941918861188701 Li
   0.5077168749999998    0.7499999999999997    0.5941918861188701 Li
   0.6743835416666666    0.2500000000000000    0.9131931935233613 Li
   0.1743835416666664    0.7499999999999998    0.9131931935233613 Li
   0.4544748958333333    0.1365753124999998    0.7536925398211156 Li
   0.9544748958333332    0.6365753124999999    0.7536925398211157 Li
   0.1211415624999996    0.1365753124999998    0.5941918861188699 Li
   0.6211415624999999    0.6365753124999999    0.5941918861188701 Li
   0.7878082291666665    0.1365753124999998    0.9131931935233613 Li
   0.2878082291666664    0.6365753125000000    0.9131931935233613 Li
   0.4922831250000000    0.2500000000000000    0.8260577870300074 Li
   0.9922831249999997    0.7499999999999996    0.8260577870300074 Li
   0.1589497916666665    0.2499999999999996    0.6665571333277618 Li
   0.6589497916666666    0.7499999999999997    0.6665571333277618 Li
   0.8256164583333333    0.2500000000000000    0.9855584407322530 Li
   0.3256164583333330    0.7500000000000004    0.9855584407322530 Li
   0.4544748958333332    0.3634246875000002    0.7536925398211156 Li
   0.9544748958333332    0.8634246875000001    0.7536925398211157 Li
   0.1211415624999999    0.3634246874999999    0.5941918861188701 Li
   0.6211415624999999    0.8634246875000001    0.5941918861188701 Li
   0.7878082291666667    0.3634246875000000    0.9131931935233613 Li
   0.2878082291666664    0.8634246875000002    0.9131931935233613 Li
   0.3788584374999999    0.1365753125000000    0.8260577870300074 Li
   0.8788584375000000    0.6365753124999999    0.8260577870300074 Li
   0.0455251041666664    0.1365753124999998    0.6665571333277618 Li
   0.5455251041666666    0.6365753124999999    0.6665571333277619 Li
   0.7121917708333332    0.1365753124999998    0.9855584407322530 Li
   0.2121917708333330    0.6365753125000001    0.9855584407322530 Li
   0.2955251041666666    0.6134246875000002    0.6665571333277619 Li
   0.7955251041666666    0.1134246875000000    0.6665571333277617 Li
   0.9621917708333330    0.6134246875000002    0.9855584407322530 Li
   0.4621917708333332    0.1134246875000003    0.9855584407322530 Li
   0.6288584374999998    0.6134246875000001    0.8260577870300075 Li
   0.1288584374999997    0.1134246875000000    0.8260577870300075 Li
   0.2577168750000001    0.5000000000000000    0.5941918861188701 Li
   0.7577168749999998    0.9999999999999998    0.5941918861188701 Li
   0.9243835416666664    0.5000000000000000    0.9131931935233613 Li
   0.4243835416666665    0.0000000000000000    0.9131931935233617 Li
   0.5910502083333332    0.5000000000000000    0.7536925398211156 Li
   0.0910502083333331    0.9999999999999999    0.7536925398211156 Li
   0.3711415625000000    0.3865753124999998    0.5941918861188702 Li
   0.8711415624999999    0.8865753124999999    0.5941918861188701 Li
   0.0378082291666664    0.3865753124999998    0.9131931935233613 Li
   0.5378082291666665    0.8865753125000000    0.9131931935233613 Li
   0.7044748958333333    0.3865753124999998    0.7536925398211157 Li
   0.2044748958333329    0.8865753124999999    0.7536925398211156 Li
   0.4089497916666666    0.5000000000000000    0.6665571333277620 Li
   0.9089497916666665    0.9999999999999998    0.6665571333277618 Li
   0.0756164583333332    0.5000000000000000    0.9855584407322530 Li
   0.5756164583333332    0.0000000000000000    0.9855584407322530 Li
   0.7422831249999999    0.5000000000000000    0.8260577870300074 Li
   0.2422831249999997    0.9999999999999999    0.8260577870300074 Li
   0.3711415624999999    0.6134246875000002    0.5941918861188702 Li
   0.8711415624999999    0.1134246875000000    0.5941918861188701 Li
   0.0378082291666664    0.6134246875000002    0.9131931935233617 Li
   0.5378082291666666    0.1134246875000003    0.9131931935233613 Li
   0.7044748958333332    0.6134246875000001    0.7536925398211159 Li
   0.2044748958333331    0.1134246875000000    0.7536925398211157 Li
   0.2955251041666667    0.3865753124999998    0.6665571333277617 Li
   0.7955251041666666    0.8865753124999999    0.6665571333277618 Li
   0.9621917708333332    0.3865753124999998    0.9855584407322530 Li
   0.4621917708333333    0.8865753125000000    0.9855584407322530 Li
   0.6288584374999999    0.3865753124999998    0.8260577870300074 Li
   0.1288584374999999    0.8865753124999999    0.8260577870300074 Li
   0.3788584375000000    0.8634246875000002    0.8260577870300075 Li
   0.8788584374999997    0.3634246875000002    0.8260577870300074 Li
   0.0455251041666664    0.8634246875000001    0.6665571333277617 Li
   0.5455251041666666    0.3634246875000000    0.6665571333277619 Li
   0.7121917708333332    0.8634246875000001    0.9855584407322530 Li
   0.2121917708333330    0.3634246875000000    0.9855584407322530 Li
   0.3410502083333332    0.7500000000000000    0.7536925398211159 Li
   0.8410502083333331    0.2500000000000000    0.7536925398211155 Li
   0.0077168749999996    0.7499999999999996    0.5941918861188702 Li
   0.5077168749999998    0.2499999999999998    0.5941918861188702 Li
   0.6743835416666666    0.7499999999999997    0.9131931935233613 Li
   0.1743835416666664    0.2500000000000000    0.9131931935233617 Li
   0.4544748958333332    0.6365753124999999    0.7536925398211159 Li
   0.9544748958333332    0.1365753124999998    0.7536925398211157 Li
   0.1211415624999997    0.6365753124999999    0.5941918861188702 Li
   0.6211415624999999    0.1365753124999998    0.5941918861188701 Li
   0.7878082291666665    0.6365753125000000    0.9131931935233613 Li
   0.2878082291666664    0.1365753124999998    0.9131931935233613 Li
   0.4922831249999998    0.7500000000000000    0.8260577870300074 Li
   0.9922831249999999    0.2499999999999998    0.8260577870300073 Li
   0.1589497916666665    0.7499999999999996    0.6665571333277617 Li
   0.6589497916666666    0.2499999999999998    0.6665571333277619 Li
   0.8256164583333333    0.7499999999999997    0.9855584407322530 Li
   0.3256164583333330    0.2500000000000000    0.9855584407322530 Li
   0.4544748958333334    0.8634246875000002    0.7536925398211159 Li
   0.9544748958333332    0.3634246875000000    0.7536925398211155 Li
   0.1211415624999996    0.8634246875000001    0.5941918861188702 Li
   0.6211415624999999    0.3634246874999999    0.5941918861188701 Li
   0.7878082291666665    0.8634246875000001    0.9131931935233613 Li
   0.2878082291666664    0.3634246875000000    0.9131931935233613 Li
   0.3788584374999999    0.6365753124999999    0.8260577870300075 Li
   0.8788584374999997    0.1365753124999998    0.8260577870300073 Li
   0.0455251041666664    0.6365753124999999    0.6665571333277618 Li
   0.5455251041666666    0.1365753124999998    0.6665571333277617 Li
   0.7121917708333332    0.6365753125000000    0.9855584407322530 Li
   0.2121917708333330    0.1365753124999998    0.9855584407322530 Li
   0.1288584375000000    0.6134246875000002    0.8260577870300074 Li
   0.6288584374999997    0.1134246875000000    0.8260577870300074 Li
   0.7955251041666666    0.6134246875000001    0.6665571333277618 Li
   0.2955251041666667    0.1134246875000000    0.6665571333277618 Li
   0.4621917708333332    0.6134246875000002    0.9855584407322530 Li
   0.9621917708333332    0.1134246875000003    0.9855584407322530 Li
   0.0910502083333335    0.5000000000000000    0.7536925398211157 Li
   0.5910502083333331    0.9999999999999999    0.7536925398211157 Li
   0.7577168749999998    0.5000000000000000    0.5941918861188702 Li
   0.2577168750000001    0.9999999999999998    0.5941918861188701 Li
   0.4243835416666666    0.5000000000000000    0.9131931935233613 Li
   0.9243835416666664    0.0000000000000000    0.9131931935233613 Li
   0.2044748958333333    0.3865753124999998    0.7536925398211157 Li
   0.7044748958333331    0.8865753124999999    0.7536925398211157 Li
   0.8711415624999999    0.3865753124999998    0.5941918861188700 Li
   0.3711415625000000    0.8865753124999999    0.5941918861188702 Li
   0.5378082291666666    0.3865753124999998    0.9131931935233613 Li
   0.0378082291666664    0.8865753125000000    0.9131931935233616 Li
   0.2422831249999999    0.5000000000000000    0.8260577870300074 Li
   0.7422831249999999    0.0000000000000000    0.8260577870300074 Li
   0.9089497916666665    0.5000000000000000    0.6665571333277618 Li
   0.4089497916666665    0.9999999999999999    0.6665571333277619 Li
   0.5756164583333332    0.5000000000000000    0.9855584407322530 Li
   0.0756164583333332    0.0000000000000000    0.9855584407322531 Li
   0.2044748958333333    0.6134246875000002    0.7536925398211156 Li
   0.7044748958333332    0.1134246875000000    0.7536925398211156 Li
   0.8711415624999999    0.6134246875000002    0.5941918861188701 Li
   0.3711415625000000    0.1134246874999998    0.5941918861188702 Li
   0.5378082291666665    0.6134246875000001    0.9131931935233613 Li
   0.0378082291666664    0.1134246875000003    0.9131931935233613 Li
   0.1288584374999999    0.3865753125000001    0.8260577870300075 Li
   0.6288584374999997    0.8865753124999999    0.8260577870300074 Li
   0.7955251041666666    0.3865753124999998    0.6665571333277619 Li
   0.2955251041666667    0.8865753124999999    0.6665571333277617 Li
   0.4621917708333333    0.3865753124999998    0.9855584407322530 Li
   0.9621917708333332    0.8865753125000000    0.9855584407322533 Li
   0.0000000000000000    0.0000000000000000    0.0107490194466316 P
   0.4999999999999999    0.5000000000000001    0.0107490194466316 P
   0.6666666666666664    0.0000000000000002    0.1702496731488773 P
   0.1666666666666666    0.5000000000000001    0.1702496731488772 P
   0.3333333333333332    0.0000000000000002    0.3297503268511229 P
   0.8333333333333330    0.5000000000000001    0.3297503268511229 P
   0.9166666666666666    0.7500000000000000    0.1702496731488772 P
   0.4166666666666665    0.2500000000000001    0.1702496731488773 P
   0.5833333333333330    0.7500000000000007    0.3297503268511229 P
   0.0833333333333332    0.2500000000000002    0.3297503268511229 P
   0.2499999999999999    0.7500000000000007    0.0107490194466316 P
   0.7499999999999997    0.2500000000000002    0.0107490194466316 P
   0.1666666666666666    0.0000000000000001    0.1702496731488773 P
   0.6666666666666664    0.5000000000000002    0.1702496731488773 P
   0.8333333333333330    0.0000000000000003    0.3297503268511229 P
   0.3333333333333332    0.5000000000000000    0.3297503268511229 P
   0.4999999999999999    0.0000000000000002    0.0107490194466316 P
   0.0000000000000000    0.5000000000000001    0.0107490194466316 P
   0.9166666666666669    0.2500000000000000    0.1702496731488772 P
   0.4166666666666665    0.7500000000000000    0.1702496731488773 P
   0.5833333333333331    0.2500000000000001    0.3297503268511229 P
   0.0833333333333332    0.7500000000000006    0.3297503268511229 P
   0.2499999999999999    0.2500000000000002    0.0107490194466316 P
   0.7499999999999998    0.7500000000000006    0.0107490194466316 P
   0.3333333333333333    0.5000000000000000    0.5107490194466315 P
   0.8333333333333333    0.0000000000000000    0.5107490194466315 P
   0.9999999999999998    0.5000000000000000    0.8297503268511229 P
   0.4999999999999998    0.9999999999999999    0.8297503268511230 P
   0.6666666666666666    0.5000000000000000    0.6702496731488773 P
   0.1666666666666663    0.9999999999999999    0.6702496731488773 P
   0.2500000000000000    0.7500000000000000    0.8297503268511230 P
   0.7499999999999998    0.2500000000000000    0.8297503268511230 P
   0.9166666666666664    0.7499999999999996    0.6702496731488773 P
   0.4166666666666665    0.2499999999999998    0.6702496731488774 P
   0.5833333333333331    0.7499999999999997    0.5107490194466318 P
   0.0833333333333330    0.2500000000000000    0.5107490194466316 P
   0.4999999999999999    0.5000000000000000    0.8297503268511230 P
   0.9999999999999998    0.9999999999999998    0.8297503268511229 P
   0.1666666666666663    0.5000000000000000    0.6702496731488774 P
   0.6666666666666666    0.0000000000000000    0.6702496731488774 P
   0.8333333333333333    0.5000000000000000    0.5107490194466315 P
   0.3333333333333333    0.0000000000000000    0.5107490194466316 P
   0.2500000000000002    0.2500000000000000    0.8297503268511230 P
   0.7499999999999998    0.7500000000000000    0.8297503268511230 P
   0.9166666666666665    0.2500000000000000    0.6702496731488773 P
   0.4166666666666665    0.7499999999999997    0.6702496731488774 P
   0.5833333333333333    0.2500000000000000    0.5107490194466315 P
   0.0833333333333330    0.7499999999999998    0.5107490194466315 P
   0.1666666666666666    0.0000000000000001    0.2255795918046693 S
   0.6666666666666664    0.5000000000000001    0.2255795918046694 S
   0.8333333333333330    0.0000000000000002    0.3850802455069150 S
   0.3333333333333331    0.5000000000000001    0.3850802455069150 S
   0.4999999999999998    0.0000000000000002    0.0660789381024236 S
   0.0000000000000000    0.5000000000000001    0.0660789381024237 S
   0.8718771800000000    0.1156315400000001    0.3113070206325255 S
   0.3718771799999999    0.6156315400000001    0.3113070206325255 S
   0.5385438466666664    0.1156315400000001    0.4708076743347712 S
   0.0385438466666667    0.6156315400000002    0.4708076743347711 S
   0.2052105133333333    0.1156315400000004    0.1518063669302798 S
   0.7052105133333332    0.6156315400000000    0.1518063669302799 S
   0.8718771800000000    0.3843684600000002    0.3113070206325255 S
   0.3718771800000001    0.8843684600000005    0.3113070206325256 S
   0.5385438466666664    0.3843684600000002    0.4708076743347712 S
   0.0385438466666666    0.8843684600000006    0.4708076743347712 S
   0.2052105133333332    0.3843684600000002    0.1518063669302799 S
   0.7052105133333331    0.8843684600000006    0.1518063669302799 S
   0.2562456399999999    0.0000000000000000    0.3113070206325255 S
   0.7562456399999997    0.5000000000000001    0.3113070206325255 S
   0.9229123066666665    0.0000000000000001    0.4708076743347712 S
   0.4229123066666666    0.5000000000000000    0.4708076743347711 S
   0.5895789733333332    0.0000000000000001    0.1518063669302798 S
   0.0895789733333330    0.5000000000000000    0.1518063669302798 S
   0.0833333333333333    0.2500000000000000    0.2101248365744386 S
   0.5833333333333331    0.7500000000000006    0.2101248365744388 S
   0.7499999999999998    0.2500000000000002    0.3696254902766845 S
   0.2499999999999999    0.7500000000000006    0.3696254902766843 S
   0.4166666666666665    0.2500000000000002    0.0506241828721930 S
   0.9166666666666664    0.7499999999999999    0.0506241828721931 S
   0.9166666666666666    0.2500000000000001    0.2255795918046694 S
   0.4166666666666665    0.7500000000000006    0.2255795918046694 S
   0.5833333333333330    0.2500000000000002    0.3850802455069150 S
   0.0833333333333332    0.7500000000000007    0.3850802455069151 S
   0.2499999999999999    0.2500000000000004    0.0660789381024237 S
   0.7499999999999997    0.7500000000000000    0.0660789381024237 S
   0.1218771800000000    0.8656315400000006    0.3113070206325255 S
   0.6218771799999998    0.3656315400000004    0.3113070206325255 S
   0.7885438466666664    0.8656315400000006    0.4708076743347713 S
   0.2885438466666666    0.3656315400000005    0.4708076743347712 S
   0.4552105133333335    0.8656315400000008    0.1518063669302799 S
   0.9552105133333331    0.3656315400000001    0.1518063669302799 S
   0.1218771799999999    0.1343684600000001    0.3113070206325255 S
   0.6218771799999997    0.6343684600000006    0.3113070206325256 S
   0.7885438466666664    0.1343684600000001    0.4708076743347712 S
   0.2885438466666664    0.6343684600000000    0.4708076743347711 S
   0.4552105133333331    0.1343684600000001    0.1518063669302798 S
   0.9552105133333330    0.6343684600000000    0.1518063669302798 S
   0.0062456400000000    0.2499999999999999    0.3113070206325255 S
   0.5062456399999998    0.7499999999999999    0.3113070206325256 S
   0.6729123066666665    0.2499999999999999    0.4708076743347712 S
   0.1729123066666666    0.7500000000000000    0.4708076743347712 S
   0.3395789733333333    0.2500000000000001    0.1518063669302799 S
   0.8395789733333331    0.7500000000000000    0.1518063669302799 S
   0.0000000000000000    0.0000000000000000    0.3696254902766842 S
   0.4999999999999998    0.5000000000000001    0.3696254902766843 S
   0.6666666666666664    0.0000000000000003    0.0506241828721931 S
   0.1666666666666666    0.5000000000000001    0.0506241828721930 S
   0.3333333333333332    0.0000000000000003    0.2101248365744386 S
   0.8333333333333330    0.5000000000000001    0.2101248365744387 S
   1.0000000000000000    0.0000000000000000    0.0660789381024236 S
   0.4999999999999997    0.5000000000000000    0.0660789381024237 S
   0.6666666666666664    0.0000000000000001    0.2255795918046693 S
   0.1666666666666665    0.5000000000000000    0.2255795918046693 S
   0.3333333333333331    0.0000000000000001    0.3850802455069150 S
   0.8333333333333330    0.5000000000000001    0.3850802455069149 S
   0.8718771800000000    0.6156315400000001    0.3113070206325255 S
   0.3718771799999998    0.1156315400000001    0.3113070206325254 S
   0.5385438466666664    0.6156315400000001    0.4708076743347711 S
   0.0385438466666666    0.1156315400000001    0.4708076743347711 S
   0.2052105133333333    0.6156315400000002    0.1518063669302798 S
   0.7052105133333331    0.1156315400000001    0.1518063669302798 S
   0.8718771799999999    0.8843684600000006    0.3113070206325255 S
   0.3718771799999998    0.3843684600000002    0.3113070206325255 S
   0.5385438466666664    0.8843684600000006    0.4708076743347712 S
   0.0385438466666666    0.3843684600000003    0.4708076743347712 S
   0.2052105133333332    0.8843684600000006    0.1518063669302798 S
   0.7052105133333331    0.3843684600000002    0.1518063669302799 S
   0.0895789733333334    0.0000000000000000    0.1518063669302799 S
   0.5895789733333332    0.4999999999999999    0.1518063669302799 S
   0.7562456399999998    0.0000000000000000    0.3113070206325256 S
   0.2562456399999999    0.5000000000000000    0.3113070206325255 S
   0.4229123066666666    0.0000000000000000    0.4708076743347712 S
   0.9229123066666665    0.5000000000000000    0.4708076743347713 S
   0.0833333333333333    0.7500000000000000    0.2101248365744386 S
   0.5833333333333331    0.2500000000000001    0.2101248365744387 S
   0.7499999999999997    0.7500000000000007    0.3696254902766844 S
   0.2499999999999999    0.2500000000000002    0.3696254902766844 S
   0.4166666666666665    0.7500000000000007    0.0506241828721930 S
   0.9166666666666664    0.2500000000000002    0.0506241828721931 S
   0.9166666666666666    0.7500000000000000    0.2255795918046693 S
   0.4166666666666665    0.2500000000000001    0.2255795918046694 S
   0.5833333333333330    0.7500000000000006    0.3850802455069149 S
   0.0833333333333332    0.2500000000000001    0.3850802455069150 S
   0.2499999999999998    0.7500000000000007    0.0660789381024236 S
   0.7499999999999997    0.2500000000000001    0.0660789381024236 S
   0.9552105133333334    0.8656315400000000    0.1518063669302799 S