Li P  S  Cl
 1.0000000000000000
    20.5609999999999999    0.0000000000000000    0.0000000000000013
     0.0000000000000033   20.5609999999999999    0.0000000000000013
     0.0000000000000000    0.0000000000000000   20.5609999999999999
 Li  P   S   Cl 
 191  32 160  32
Selective dynamics
Cartesian
 -3.5622546692898718  7.1018896529799358  0.0467563533179606   T   T   T
  1.3717879782591820  8.1285636566184891  9.9697543595902900   T   T   T
  6.8641392412465736  7.1651687726477089  0.4291206785702712   T   T   T
 10.0557213526709663  1.9074344029101917  7.9460032149268116   T   T   T
  3.2081974857707238 10.1094408267027855  7.4440497702168287   T   T   T
  0.3866930658815443  1.2925508942864681  1.9740328655964743   T   T   T
  7.9685373077706823  5.1321106164010635  6.6671604761930556   T   T   T
  9.5670193617112460  6.1303968855731812  3.2793053673136274   T   T   T
  8.2487610263139661  3.0813402550828326  5.2172578911091660   T   T   T
  6.4330889431306444  6.2255097812274025  2.9286290780961015   T   T   T
  2.3989985988916831  1.9307886839963950  0.2091168055365249   T   T   T
  3.6320531441856065  7.4798466116400473  5.9946468688495020   T   T   T
  6.8612141462744356  9.8206768513621938  2.7311442690672862   T   T   T
  8.7807423530800879 -1.9102525698021664 10.8706784688886611   T   T   T
  2.4291694023781440  7.4996338389912278  0.0771376585394388   T   T   T
  0.5093245679925723  7.1106334203373480  6.5978754479946318   T   T   T
  5.6085674480950951  3.3208597208745863  8.1796621450679812   T   T   T
  2.8195146217749349  5.3386797838171942  8.1149259178141122   T   T   T
  5.8194915765987272 13.4234345885039446  7.8419342561764820   T   T   T
  2.4909143188336338  4.4409421283822619  2.7943826521442063   T   T   T
 -3.9551705138951800  1.0892003962923735  6.2531636158889663   T   T   T
  8.0597782006423149  1.1214083788452882  9.3739838165868647   T   T   T
  6.7235836578537542  0.3954012504365489  6.7102532322569424   T   T   T
  9.9707966929107368  8.4211795136164174  2.2636653596597851   T   T   T
  1.1990594396061469  2.3045497352936466 14.1443040546467529   T   T   T
  3.2405675981732402  5.3829423703449049 18.7141295101583296   T   T   T
  5.4953188253881233  8.1898723638246089 14.2179237235908289   T   T   T
  8.9301210854449824 -5.0084511073030731 23.4593623380960636   T   T   T
  1.3107234437326307  7.1840582549143974 16.1292162289143199   T   T   T
  3.4165149068651193  3.7864198130184796 14.5720805126738302   T   T   T
  5.5284528288690407  3.2409195136344833 18.4735106454848470   T   T   T
  9.0193852103005678  9.8206398572608524 13.3714983480685898   T   T   T
 10.1789281649093635  3.0838108816512841 17.5635306224704202   T   T   T
  8.2360298397588476  6.8128644322065695 14.5746447937924639   T   T   T
  0.5515287144140562  2.0267678837362473 11.7069521256460636   T   T   T
  4.1391715825112438  9.4994217549615421 17.3845472824218348   T   T   T
  6.8140333922778167  5.5991196377414427 11.9198597386578715   T   T   T
  8.5403102558816109  2.3592855410659714 20.0512277623511004   T   T   T
  3.8290846123112754  0.2578998337571544 13.5410677272451938   T   T   T
 -0.0107746385881669  8.1366310810227862 18.7437860699830843   T   T   T
  6.1898056574404103  0.6632380853290285 17.6203149167232951   T   T   T
  7.8516609788559890  8.7954531085117083 10.8376535384965198   T   T   T
  1.7452701802458452 10.0175683822955843 18.5883901423554931   T   T   T
  4.5145357223764826  2.8872243089919807 11.1687651642402539   T   T   T
  3.2716624538748760  5.1263403515344192 12.2098466565601189   T   T   T
  7.3747792015977573  8.0425466064154705 25.5276293797317493   T   T   T
 10.8245170356843090 -0.8733597261991669 18.1300079168849102   T   T   T
  2.7057778614139951 12.4313775572395784 15.3250119793092239   T   T   T
  0.8779745819314014 12.5034460864036241  4.3130670877217216   T   T   T
  0.5687066727541038 17.4784401904703692  8.2482991697894370   T   T   T
 10.4371007830117257 18.4622940493732521  2.0674629456120672   T   T   T
 10.1479589900386671 12.5903552451357577  8.1013042221748464   T   T   T
  3.8297119917627516 22.6343384783024035  5.5820701097204051   T   T   T
  4.8705915899391634 13.0133023691485921  1.1512705179515197   T   T   T
  2.5913147049714502 16.0772255717367152  6.2011300009913608   T   T   T
  2.7540012230519868 20.1162748424728335 -3.5394765482551356   T   T   T
  9.8704918692960071 12.7977057664795861  5.0899052885099554   T   T   T
  8.6075685834292290 19.1852556779396295  0.1430343792969412   T   T   T
  3.2768128216206107 10.4817991667962325  2.9546910124117485   T   T   T
  5.1738467673077757 17.3209518346486639  8.5998904946853685   T   T   T
  7.7931479968212498 20.0153245089577680  2.4841611025943728   T   T   T
  7.9942262890913414 14.9319518095692931  7.5538448238452052   T   T   T
  2.2710380264696597 15.0358243489884433  2.9319220290843950   T   T   T
 -4.0183793734160451 23.5654930623963885  8.9418755652127704   T   T   T
  7.3548377298538581 10.6162004146315336  6.5103030247330773   T   T   T
  2.9895059521992673 20.7655237510222506  3.1333559367895232   T   T   T
  2.6917473945347417 15.8785106068700461  9.7971745181587746   T   T   T
  4.9219817570720892 12.7928265925094866  4.1622210748963582   T   T   T
  1.1475456375401567 12.9229268351169164  1.2161831644425243   T   T   T
  2.3692490509454855 18.8232736311852662  9.9904430664820758   T   T   T
 10.7738948637966825 18.1123603435173699  7.0584712526730975   T   T   T
  5.6629822397225089 17.7918067510024152  1.2585386535177643   T   T   T
  2.0124899273357681 12.5853011973970830 10.4124514747064634   T   T   T
  2.4270868249564939 15.7681311194416676 17.9657850490919913   T   T   T
  6.7461061442450392 18.0505349177973926 15.3714864548868260   T   T   T
  9.3854152420815886 15.4607509954366868 17.8097141961503880   T   T   T
  0.1714599551092602 13.3488494702932226 13.4757834576571263   T   T   T
  3.8463873970818296 14.6764049128550695 12.7122844055935573   T   T   T
  5.2191016810209110 13.5980306524291858 18.5746213314826996   T   T   T
  7.6795649884680497 20.1326100483596271 13.0031417298492382   T   T   T
  9.9354202891973493 13.1667293462804764 19.1138419748665349   T   T   T
  7.6339794621185071 15.8305969079148383 13.5356624315930709   T   T   T
 -1.2519862297223006 10.5779696288392984  8.2602435108955525   T   T   T
  7.5618077612237515 15.5117660186276485 20.2415599140095104   T   T   T
 10.1646058941990365 17.7675013860864830 13.2410747201641499   T   T   T
  8.6293114753564097 13.6116495796523669 16.0921763697902911   T   T   T
  8.0679635190500179  4.9811353233249740 17.1194794034049558   T   T   T
  4.7672590739398961 18.2926585880453594 18.0687032049910243   T   T   T
  6.1319539830512637 12.2984513502223773 15.9261546528561837   T   T   T
  5.5450871116265406 17.6198838683500014 11.8426706671528699   T   T   T
  1.6031818500881363 18.6376911248923705 20.3994547965728756   T   T   T
  4.2770190096328964 11.1152710314471435 12.6680490371016905   T   T   T
  1.8116545890876932 10.3576770524832131 12.5812485836568602   T   T   T
  0.4278699837484635 17.7867856910234003 16.9832434178885308   T   T   T
  8.0343461819449065 11.2218846336543283 19.0326770146469748   T   T   T
  7.7839966914103940 22.7980842335264775 15.8320539493213932   T   T   T
 10.8417429717770570  6.5864149682895574  7.8285056822380117   T   T   T
 14.0772129570681876  9.4295368228263374  7.5101690345929200   T   T   T
 20.2458378857396326  6.7021454279687314  3.4505021059834311   T   T   T
 19.3104171952248791  0.7289712981756888  8.2455978359158717   T   T   T
  8.1975922808319943 12.1953240526733087 10.0399533438125275   T   T   T
 14.1353130118279928  4.5261018201203171  2.3406154207771297   T   T   T
 23.8273933036730554 -1.5588013178964597  5.9486683157968532   T   T   T
 19.5621575124281435  9.3452505445558369  2.5114425013557446   T   T   T
 24.6564987865034766  7.6169113502036287  9.4733602213781047   T   T   T
 16.6732579593223917  5.4477624770636082  2.8030852541436633   T   T   T
 10.3997536394502941  2.8642001799782038  2.2796404191761610   T   T   T
 12.3383162653017191  7.9006261509947642 10.1047231771469246   T   T   T
 18.4183956506850777  9.7899375288092578  0.1724543351362369   T   T   T
 20.6539949511841883  3.1558533499651018  7.0733310247911607   T   T   T
 11.7519304079944877  2.7373293150802178  4.5455819675684488   T   T   T
 12.9384875837477296  7.3663389375850601  5.6405213372257217   T   T   T
 18.3068682732466854  4.7777751057787885  7.9697111969810717   T   T   T
 13.3848120611338413  4.9040619996881469  8.1209523096562926   T   T   T
 12.6433153682770740  2.8287325895729953  0.5550253695412438   T   T   T
 13.2584258677364613  0.4046008781652958  3.1557822098320565   T   T   T
 15.5151953766222679  6.7789367855312097  7.9476644002969330   T   T   T
 21.5567666010272987  2.4310870017171267  4.4330088536722503   T   T   T
 16.4305841766034320  9.4719374798968268  2.7574489169145266   T   T   T
 12.0263335832684195  2.8378444715770788 14.6094151983895770   T   T   T
 14.7572721543109679  6.7234154774952479 17.7043069271343789   T   T   T
 16.1709648723146913  6.3076330446177273 12.1416750324062050   T   T   T
 20.3879831135268645  1.7259617607760620 18.3174568528106079   T   T   T
 10.6726995541581893  8.5179695898422505 18.6571595293165942   T   T   T
 10.9241584161388836  3.5126554008123323 11.8171021077698288   T   T   T
 11.5952977162622357  5.6610958262854538 17.7240424249545292   T   T   T
 19.5747628676120229  6.1457513870609715 13.2561161955689020   T   T   T
 18.4861322176685050  2.7997510427738379 15.5561362425157217   T   T   T
 18.6962139118342208 10.1287439375079202 12.3934034743751660   T   T   T
 12.7575671544974973  5.2964121899371133 12.8980686122691779   T   T   T
 13.1015148153120986  9.8324114139605783 16.4905267833034337   T   T   T
 15.8628466887188555  9.2413158791815242 13.5588575793341128   T   T   T
 18.1053394944765245  2.1820386552982818 20.1361692186099326   T   T   T
 14.9015376987584585  1.3350330333355607 13.3038763779291465   T   T   T
 18.2083749360380907  2.6797903570619286  4.9921847329911424   T   T   T
 19.8583264100999841  4.5734871802840784 17.5634555883371384   T   T   T
 18.3974850905178968  8.1334498718716830 10.5065319800958203   T   T   T
 13.4895905271396117  7.5060676232168051 20.2776301270019346   T   T   T
 11.7306545658420607  0.7458587413749799 11.7057420922665152   T   T   T
  5.1282148617899086  2.9441552862239595 23.1125682891434252   T   T   T
 12.6092862729632191  7.2764159445405525 15.8101984525863006   T   T   T
 16.6636468355072154  4.6227486122177890 18.4900159968844591   T   T   T
 19.0607625497632043  8.2809964219290695 14.7507936643411313   T   T   T
 12.8587430674915240 11.3337690307697780  4.3459713957127493   T   T   T
 12.6981879690513839 15.1777128478566361  7.5411899897476395   T   T   T
 17.4264256472341330 18.1375342327551046  5.1350495609035853   T   T   T
 17.5115326095443180 13.0273938774543758  9.8405877057975530   T   T   T
 13.3749535560595874 20.2776442781633968  7.1159257862049268   T   T   T
 12.1918988783900755 14.6069505447584884  3.2122520527269143   T   T   T
 18.0027743724844171 17.8616462767018618 10.5869311197961284   T   T   T
 20.0407826233922890 18.1309564601696600  2.9544483141644222   T   T   T
 17.9155083541426521 14.8469611060647768  7.2425821462188091   T   T   T
 18.1836696990590454 17.9766558776416403  0.3991003394402671   T   T   T
 10.5377266878116984 12.3168442677845622  2.4149638509823830   T   T   T
  7.8080850935896207 17.6246342134129605  4.7617680538437837   T   T   T
 16.0802755397209580 16.0916770687361002  1.7184960138814631   T   T   T
 20.5984879278902824 13.6708415293685910  7.0210227232825204   T   T   T
 15.4188421299393159 12.6154355299879413  2.6079619495902731   T   T   T
 13.3098136707499819 17.6470545976087152  5.4213355563297840   T   T   T
 17.6766251839444948  7.8300652506972801  4.6627440779535805   T   T   T
 18.5641482637632009 15.3248911649127173  3.5828838910719321   T   T   T
 15.4760370092712769 17.1938358833903386  8.2470265239243439   T   T   T
 13.9227990160789954 13.2131744668900186  0.4159342316893365   T   T   T
 12.7579059092102067 10.6539078652436725  1.6987560698468258   T   T   T
 13.1787260855192994 17.1360180165536988  9.9431795437167487   T   T   T
 16.5221914869866779 11.6930286425801686  6.3506583154635159   T   T   T
 16.1426959482902106 19.6092755273135815  3.0535799578227580   T   T   T
 12.0455817903906564 10.6038651632680008 12.8231891534633249   T   T   T
 13.4453918754532342 20.5595223123017199 17.5614154044088764   T   T   T
 20.0282559009268226 18.1133983918778867 13.6487264507732320   T   T   T
 19.4049716481265335 11.3961674535307953 18.3916639318795276   T   T   T
 12.8773994415774755 18.6106219674060966 20.2858923862609046   T   T   T
 13.6539304294437542 15.0878486164074737 12.3687853584460310   T   T   T
 17.0073284886697920 15.0997369515944371 18.2261977390922567   T   T   T
 16.2028891186905568 21.9822342504512136 17.7822575748132081   T   T   T
 16.9339421216251083 10.9575444438977669 17.3978282873350629   T   T   T
 19.0012583523492822 20.2376359235620065 12.0565591898618898   T   T   T
 10.2655024579431373 12.6735649895454578 12.6775792987968252   T   T   T
 18.4988211995756799 15.6425645154216824 13.6775339546160488   T   T   T
 15.4417987807235555 18.2556968891590792 12.6117600263161229   T   T   T
 17.4196142138602141 13.2693217325335766 20.1247484096752345   T   T   T
 15.1912992568760483 12.2531316017682084 13.4943140588041501   T   T   T
 13.2859799391377997 18.9139070192023020 15.4936814171258774   T   T   T
 17.4362177234157230 12.8727701505130838 15.6639860985954211   T   T   T
 17.1390921551971758 18.8207474679899249 15.0634765723997326   T   T   T
 14.4867524557042398 16.8605611669970905 18.3135660226175965   T   T   T
 12.8102536664436570 13.1890502009625319 15.2794291106944975   T   T   T
 12.7042613167801495 12.5737013174220245 10.8062304914115153   T   T   T
 11.9758546758459072 16.7164993511760187 16.1383128545343162   T   T   T
 19.7628009923622514 14.4299770701266645 17.9115287691027270   T   T   T
 14.1521293367626040 23.0514959132452439 11.0102797910179664   T   T   T
  0.1376286030221588 -0.2113451684942929  5.3293310774286171   T   T   T
  4.9583809467322864 -0.1160280590549798  0.2072916889156502   T   T   T
 -0.2100327508214838  4.8055167439393305  0.1997421695594651   T   T   T
  5.0881438094602229  5.3456621387936005  5.0705856594113383   T   T   T
  0.2287932210838820 -0.0921810263650755 15.2736750034591129   T   T   T
  5.2208216181270553 -0.0454249825753334 10.2822382376477375   T   T   T
  0.2486439833325280  4.8987734918301422 10.2941489607453374   T   T   T
  5.2798376034464729  5.3445258893066203 15.7676475383459440   T   T   T
 -0.3379222679779015 10.0925423874979820  5.3040372225445331   T   T   T
  4.8459733408080963 10.1775478645907000 -0.1225772619522260   T   T   T
 -0.1885007558652460 15.4827989601840468  0.0312949684231561   T   T   T
  5.3650845532394831 15.4038854694719678  4.9828623184225878   T   T   T
 -0.1958242826188810 10.5624340461331805 15.7752099513770485   T   T   T
  5.0950100268845127 10.5238501658132737 10.1389828457564484   T   T   T
 -0.1420278945641270 14.9802027073058586 10.4117427333977250   T   T   T
  5.1835593990734816 15.0370719765523049 15.3107240638353694   T   T   T
 10.1205767072533561  0.0683532705786400  5.4156114253075547   T   T   T
 15.3614688741572252  0.2094243278994873  0.0300433455661380   T   T   T
 10.1203501581106696  5.2799841444972104  0.0624580792975798   T   T   T
 15.2160877775651535  4.5061481468942768  5.3354349410094093   T   T   T
 10.2224226972604502  0.0922339404670558 15.3888273993298981   T   T   T
 15.6116930684850210  0.0753229167805924  9.8851725172034151   T   T   T
  9.9393514855631508  5.4855717995070687 10.3655815611190700   T   T   T
 15.1776160264400080  5.4978808856323322 15.2102293713939059   T   T   T
 10.4085260485130444  9.9445868084474576  5.2066989326657529   T   T   T
 15.3983538646521456 10.2544394381265338 -0.4330250707301568   T   T   T
 10.7603349638731736 15.7804236683143984  0.0498403518588709   T   T   T
 15.4903767402393981 14.9325982332491112  5.2150841680710203   T   T   T
 10.3127399091270782 10.6227077081711645 15.9202663294671698   T   T   T
 15.5210058868533451 10.0891671470749582 10.1158895380843159   T   T   T
 10.2154888544271945 15.2205351028549298 10.3020872021679484   T   T   T
 15.3109060524443983 15.8844958551597291 15.3511786450149632   T   T   T
  1.2761817038003094  0.8888287244327053  6.6378486952171176   T   T   T
  1.0187717398500391  8.7731120168429744  4.2547261607531954   T   T   T
  9.3859508627371451  8.6856937881896137  6.4651136949017269   T   T   T
  9.3177822343553647  0.9969484981116398  3.8587846029493833   T   T   T
  6.4541230449159315  0.9831639703811312  1.2400925654357269   T   T   T
  4.4389233038199425  1.5597162778646430  9.1916586438968775   T   T   T
  6.1574604097565553  9.1153625941499339  9.0837515864124097   T   T   T
  3.8125352254467733  9.0294502688792875  1.2802645810919544   T   T   T
  1.0203013642917684  6.0349408600756833  1.3287377908263063   T   T   T
  8.6153139123060161  3.9497283778332375  1.2853136020862312   T   T   T
  8.5745529329492278  6.6147566011273398  9.3776355398997957   T   T   T
  1.3262280120474990  3.6776822680424344  9.2529109096589206   T   T   T
  6.1154954511052591  6.7028410425727403  6.3303211208213250   T   T   T
  6.5132302447438404  4.0203006140980824  4.0078974678001522   T   T   T
  3.9974626953939558  4.2473550506511693  6.4414772817550201   T   T   T
  4.1267340343903056  6.2755467946206007  3.7067542642719813   T   T   T
  2.7232123387093603  2.3593604030638606  2.5594143152443047   T   T   T
  2.5981849350001567  7.9079564228351247  7.8696073652282656   T   T   T
  7.8466523042780585  7.7195203343888936  2.5286435344914251   T   T   T
  7.7013902710768161  2.3954170277862152  7.4632249134537911   T   T   T
  1.4248435249001987  1.1956217738298318 16.5062140540387325   T   T   T
  0.8793671458744432  9.1373118813329199 14.6662293437256039   T   T   T
  9.2405346444995775  9.6042330744411544 17.3620761570945064   T   T   T
  9.3629625104576117  1.3540191664554384 13.8848846869236340   T   T   T
  6.3130101535491612  1.0718963421517882 11.6414650171108782   T   T   T
  4.2380510666659710  1.1547061416438342 19.1705762916613871   T   T   T
  5.9222123106728821  8.9229691473891730 19.0697122878374223   T   T   T
  3.6006257404785669  9.4815709184126611 11.0953210311502968   T   T   T
  1.1392687288441619  6.0762044962646886 11.6095131049968874   T   T   T
  8.7884129365717314  4.2614095159402794 11.6362283157283812   T   T   T
  9.2619585679658112  6.3419798288508451 19.1977848465213299   T   T   T
  1.0068498126552223  4.0687295591979700 19.3423337085164277   T   T   T
  6.5837177013451802  6.7649783535716868 16.3366259026080414   T   T   T
  6.1738655832322129  3.8212867213021489 14.5704397323945507   T   T   T
  3.8977674350652283  4.1440190015479077 16.9375452922922456   T   T   T
  3.7890124686345303  6.2710708555215042 14.5151550437258798   T   T   T
  2.8102543359271257  2.5399465719399292 12.7690204030823349   T   T   T
  2.3100120144561749  8.0121852170292396 18.2926914538177456   T   T   T
  7.6943327760016968  7.9864912663416812 13.0478006085534961   T   T   T
  7.6502950640384224  2.5697833539682895 17.8799643592456725   T   T   T
  0.7404221347790326 11.3845499675135358  6.4473864995187586   T   T   T
  1.2417826284693172 19.2374881746845823  3.8803165364995387   T   T   T
  8.7088095742966960 19.4003974618178958  6.4130756935085893   T   T   T
  9.0415782861034621 11.0443373556494535  3.9285367488574847   T   T   T
  6.3653305700003431 11.1589959319171275  0.5455071748759734   T   T   T
  4.0550819224326187 11.8307817249103664  8.9080433516515054   T   T   T
  6.6365329778837303 19.3565083892143903  9.4005639508148722   T   T   T
  3.3630321804221572 19.6289677498666784  1.0854246802184437   T   T   T
  0.7815575281642178 16.7848068316231540  1.1964708871234451   T   T   T
  9.6031023038399077 14.3363856874095426  1.0927680955388952   T   T   T
  9.2730660402923526 16.3758336413804138  8.8870199737917908   T   T   T
  1.1865206716994194 14.0836501571356276  9.1099811975936582   T   T   T
  6.7285637168058159 16.2952803059960090  6.3703738131445435   T   T   T
  6.4059747540930658 14.5884909582609588  3.5444644810374881   T   T   T
  4.1943023034463360 14.2327058261489920  6.0424119093870194   T   T   T
  3.8454072928275771 16.7567920603377090  4.2759171828136138   T   T   T
  2.9886136682906908 12.7351860853973324  2.7558091792955701   T   T   T
  2.8439613061294544 17.7775857334720797  7.8837020642925211   T   T   T
  7.9780866867434748 17.8499312978299898  2.1558326368167950   T   T   T
  7.9311664601645342 12.4551669619879988  7.7620048170023246   T   T   T
  0.9228062126938279 11.7591898439159479 17.0455491048622569   T   T   T
  1.3427001907821832 19.0348851044689589 14.5225460739532117   T   T   T
  8.7588928248969751 19.9468171989341769 16.5977890398655781   T   T   T
  9.2656578679175841 11.7497083155194364 14.6035967913411557   T   T   T
  6.4496414622523570 11.0568754076580138 11.4113553858374814   T   T   T
  3.4982381647618088 11.3150692030725732 19.3159701261163512   T   T   T
  6.0710817307191078 18.9449757407150834 19.7689764695829417   T   T   T
  3.9178558476257233 19.6038165190449796 11.5228213534341695   T   T   T
  1.0441627803158340 16.4028931815273644 11.4076994128161697   T   T   T
  8.8312848880139629 14.2347455635888664 11.3036114157566239   T   T   T
  9.4954376122542392 17.0486766946285542 19.5742362856717378   T   T   T
  1.1975479830171107 14.3187802175007093 19.4727902983829892   T   T   T
  6.3039960029931983 16.2382328268040901 16.7462112070426699   T   T   T
  6.5546898948024666 13.8050709697374856 14.3244080563676022   T   T   T
  3.8584057711062374 14.1186226485941759 16.4700269113082314   T   T   T
  4.6078356644784471 16.4964161138117937 14.0288326719411547   T   T   T
  2.8204002674923472 12.8343459475243211 12.9267856661776435   T   T   T
  2.4604187081054496 18.1640802384793929 18.2521704545935677   T   T   T
  7.7387039449605535 18.0024784234405573 12.9039037752710257   T   T   T
  7.8041551258123656 13.3486047860518688 18.2188240164481172   T   T   T
 11.4942295210210510  1.1493257045720839  6.5297891685360545   T   T   T
 11.7348581601077839  8.9080070266725198  4.0603866838384972   T   T   T
 19.1257041536788961  8.7609523238997085  6.5594347552712664   T   T   T
 19.4377155141308151  0.7253674377337681  4.0104891799320530   T   T   T
 17.0111405678854908  0.7642113254209512  1.2025508585226272   T   T   T
 14.3768771748536377  1.0889964613310978  8.6150418688000396   T   T   T
 16.7508710732011394  8.7387081734309646  9.0365839222251978   T   T   T
 14.4144518354269984  9.0751455767414573  1.0689099845841217   T   T   T
 11.1768125313720841  6.2442574016133756  1.4067503242968742   T   T   T
 19.0567488791707333  3.8210827921173633  1.5546036969240216   T   T   T
 19.9608057122236318  6.2696088136653865  8.8340481057855289   T   T   T
 11.1412142330665951  4.4166877096421588  9.1270667856909053   T   T   T
 16.6536260706345587  5.5296745847898618  6.4242259329497475   T   T   T
 16.0224530105936296  3.4119642859828505  3.7386331602120828   T   T   T
 13.7420743037466604  3.5055295612106563  6.2503258568206590   T   T   T
 14.4556968941733732  6.0852536758058440  4.0991719590851048   T   T   T
 12.7478744861333908  2.7785190375048820  2.6771408678459947   T   T   T
 13.1258058034262515  7.4107902087207007  8.2264536123723442   T   T   T
 17.7726101537301844  7.7305557863165673  2.2962790142967604   T   T   T
 18.0975055561485476  2.5652285386752598  7.2083987664189557   T   T   T
 11.6847038121494506  1.4097912374349073 16.6155497016080851   T   T   T
 11.2069932941347581  9.0709911303875739 14.7363651889979863   T   T   T
 18.9055613808967067  9.3610311394281549 16.8526533452035032   T   T   T
 19.7788402033227300  1.0955827404014189 13.9262975939901956   T   T   T
 17.0960486394638025  1.2851451736969788 10.7579147911386848   T   T   T
 14.3927567728614232  1.6021022798778801 19.4788097544488714   T   T   T
 16.5763349486024083  9.0686919912631687 18.9620378152093316   T   T   T
 14.1584864319253612  9.1626580893979632 11.3064371510325721   T   T   T
 11.0958547499628661  6.6094896438250155 11.4756835479398358   T   T   T
 19.5538825459487029  3.8189946779710526 11.5411030172541516   T   T   T
 19.1424473214833384  6.2682012257890110 19.5470119051927504   T   T   T
 11.3643788028963666  3.7152683032722993 19.5054560400632830   T   T   T
 16.6190391429035813  6.1068834155370872 16.5072792755184636   T   T   T
 16.2216384938933658  4.0285912278866007 14.0920953187576128   T   T   T
 13.5926986690221838  4.3178944182034682 15.9515864829436733   T   T   T
 14.5239188477928725  7.0304914542753245 14.0775961946631938   T   T   T
 13.0216246257714552  2.9910466614542193 12.7255289395663969   T   T   T
 12.7244657534656529  7.5974896292381695 18.0951705610448492   T   T   T
 18.0115692141359247  7.8541138855556989 12.6945849783101679   T   T   T
 18.0001213527150057  2.7951886880461236 17.9417413913082946   T   T   T
 11.5919840029201744 11.3426597332321073  6.3035828489790378   T   T   T
 11.3593552859038454 19.1726274974095645  4.3003382333503524   T   T   T
 19.6717151866052404 19.1267374592702346  6.5057635341019049   T   T   T
 19.2389682719394273 11.2472488809628146  3.9035785273044583   T   T   T
 16.7493634432835634 11.3376379906165461  0.8587014422673267   T   T   T
 14.6740231284008349 11.3976028094433985  8.9179836143868787   T   T   T
 16.6720363230528861 19.1680301357152771  8.9814731773131999   T   T   T
 14.0362303748351653 19.8486349421120707  1.5016640924306246   T   T   T
 12.0790643115110434 16.6990779044780453  1.3470735682355681   T   T   T
 19.5976391324269841 13.8351675090888833  0.8326926539230757   T   T   T
 19.1237402517344393 15.9804993452738717  9.1339005117775507   T   T   T
 11.6590575046611367 13.8962491907776133  9.2607648324015539   T   T   T
 16.4751976930077078 16.4240230699911827  6.4135480451848146   T   T   T
 16.7077803811004770 13.9516803579793258  3.9496762923096300   T   T   T
 14.7060051803820500 13.4354248694900491  6.4775369043144915   T   T   T
 14.3286289887071678 16.1232404484683727  3.8848859806834475   T   T   T
 12.9279464619661049 12.7183931149281673  2.6281749174935327   T   T   T
 13.2615441826581097 17.5159490484150560  7.6800224905228198   T   T   T
 17.7896773497598844 17.4533720702523070  2.6549802713496651   T   T   T
 18.1766499578649530 12.5816589616519963  7.5917454567595541   T   T   T
 11.5992713770682521 11.7608317777686988 16.9255763558025194   T   T   T
 11.4831830268679749 19.5652275043958959 14.1929604509082541   T   T   T
 19.4020594895598748 19.6645863659427143 16.5165942107362511   T   T   T
 19.2024749521425520 11.7845935552754248 14.5389542169309731   T   T   T
 16.7624830725854039 11.1833339178057116 11.2583591373878917   T   T   T
 14.1113374176447905 11.4700303774843935 19.1867961693719202   T   T   T
 16.2236765071429829 19.1617307965566930 19.4636253123649468   T   T   T
 14.2232494210305678 19.9219895567338519 11.3517252342409911   T   T   T
 11.3780171842776241 16.3829692531165350 11.5807902808883867   T   T   T
 19.4329671154437023 13.5979221932503336 11.5027492781020566   T   T   T
 19.0420133996025811 16.4662851769870322 19.3413477568711265   T   T   T
 11.8732686186107870 14.5169766738329553 19.3696707932900303   T   T   T
 16.7170958519816679 16.9837995714157799 16.6298344681400252   T   T   T
 16.5281178280577592 14.5946187015586180 14.1569373507477643   T   T   T
 14.0464213122795147 14.9742974273957312 16.5997979923505632   T   T   T
 14.1290069271315541 17.0177433361100334 14.0675522931732502   T   T   T
 12.8191211010173536 12.7532058092625533 13.1256157674824987   T   T   T
 12.5776259325777851 18.1407722837650986 17.8986102600698871   T   T   T
 18.0112330620420522 18.0186300459813538 12.9068510647991577   T   T   T
 17.9418804175091182 12.9448594043453173 17.9455250306524654   T   T   T
  0.5598459630131625  0.4276683662888986 -0.2909055426380766   T   T   T
  5.3014299534200848  5.4473530757835800 -0.2888081295924055   T   T   T
  4.9758800641517551  0.0639793886168530  5.1447337433813782   T   T   T
  0.0669854996201625  4.3200499812831890  4.5357382014548229   T   T   T
 -0.1811936269069212 -0.1664064958426906  9.9476100109129835   T   T   T
  4.8054501041998989  5.2929151399947099 10.3206623573319458   T   T   T
  5.3364490774792541 -0.4213902423029780 15.5226431124365476   T   T   T
 -0.0939968817349130  5.2080463321501655 15.3765004376706784   T   T   T
  0.1378695440237040 10.3298376567438428 -0.2823219974491510   T   T   T
  4.9726095424993977 15.1694872574403412 -0.1884715207338253   T   T   T
  5.6214766286617461 10.1925871745341734  4.8710870762994656   T   T   T
  0.4811269015274218 14.8469072041731085  5.0707978672766059   T   T   T
  0.1531663907245154 10.2162359736531982 10.3416340872932242   T   T   T
  4.8369656702846484 15.6727375389939922 10.3046496085627215   T   T   T
  4.6835999501985874 10.3857393162579630 15.2902923519691090   T   T   T
 -0.1016323947930644 15.2591054109266935 15.0847384123614550   T   T   T
 10.5925099959805387 -0.2150373892330993 -0.0503113712050410   T   T   T
 15.2814461314743326  5.5016788492095356 -0.4342021249970640   T   T   T
 15.5334714995201448 -0.5773788094171273  5.1689090892717093   T   T   T
 10.3252026053162087  4.7500268954204419  5.1671619181371522   T   T   T
 10.0154010419830097  0.2449662983591014 10.0008138699046540   T   T   T
 15.1339372703771549  4.4317371280733928  9.7112429420952839   T   T   T
 15.1046976157264776  0.0190131547508905 15.3033716154206534   T   T   T