Li P  S  Cl
 1.0000000000000000
    20.5609999999999999    0.0000000000000000    0.0000000000000013
     0.0000000000000033   20.5609999999999999    0.0000000000000013
     0.0000000000000000    0.0000000000000000   20.5609999999999999
 Li  P   S   Cl 
 190  32 160  32
Selective dynamics
Cartesian
  1.7394136243488110  5.5885873049595816  3.2723381124432001   T   T   T
  1.7532240621866992  5.8202794368424398  7.2052763214223248   T   T   T
  8.3501231998279035 10.0620008343412071  1.5027048456810654   T   T   T
  6.9679506218371143  1.2131089408979938  5.5665798701360005   T   T   T
  3.0541259771013003 10.2324910361431609  7.0855454614309998   T   T   T
  1.9191841898319648  1.8296763677514050  0.6817368797559307   T   T   T
  8.3546145055069356  2.3483181336480379 10.3169877136857071   T   T   T
  7.3355735383908582  8.2584347542306631  3.8778792311534689   T   T   T
 10.2077746747027458  2.0935069509167503  8.1860894057170110   T   T   T
 10.0712300821230301  6.7068043432769615  2.4147429208458568   T   T   T
  0.5230407019917002  0.9796825146865004  2.7298892221517557   T   T   T
  0.8208164169536841  8.4338807070281145  8.6874116241507124   T   T   T
  6.2523178423418013  7.6860105025741081  0.8916586963538949   T   T   T
  8.3091170950479611  4.8214115507408790  7.5109078679772479   T   T   T
  4.0162737283100505  4.2942720970837378  2.2652271463159042   T   T   T
  5.5472379192029813  7.6944258015437974  6.8775526742372008   T   T   T
  8.4954157465710356  0.5133657178489169  8.4137764738737530   T   T   T
  7.2339513021588120  4.9580460361641032  2.3234208070592306   T   T   T
  2.9292911989683308  7.9834125018154731  5.1946716271174829   T   T   T
 -0.2594555027813603  3.6072567737618697  3.1017628175355223   T   T   T
  2.7221116032214443  2.4904068062274867  4.8691353902220404   T   T   T
  3.2795821531127998  7.3573387037573728 10.1278693153052632   T   T   T
  5.3912352969014972  3.2899349206789252  8.3672081562869387   T   T   T
 12.7992274401877619  7.4969916559144743 -4.8995875112294538   T   T   T
  2.8808820838396847  0.3197617969668637 13.9880327987032409   T   T   T
  2.3082095066426778  7.5068379258894575 15.5124245406911054   T   T   T
  5.8887346699044532  7.4244605228093894 12.3342902738129165   T   T   T
  7.3632749679505816  5.2514457688550875 18.6634307202505028   T   T   T
  0.1548912440088112  8.2638635002430920 18.4438208420212817   T   T   T
  3.0715523099980655  5.1248863474714410 12.3281744094712167   T   T   T
  6.2992068062857198  3.0607382037378077 20.1237633332219232   T   T   T
  7.2356476793780846  9.6744342412333371 12.6256958618840773   T   T   T
  9.9497454633574964  1.8283967087004394 19.0232168181364898   T   T   T
 10.1432260366938394  7.9956546448037038 12.3030970007678491   T   T   T
  2.1370638742947961  1.5766329314497405 10.8700712577012997   T   T   T
  2.2678648291375900 10.1358379096431239 17.9143848825328220   T   T   T
  8.5256079536076417  8.0261087638561595 10.1737939430368538   T   T   T
  7.2700422969122824  1.1543779018680997 16.5677233323317097   T   T   T
  0.7249624079770914  3.5150633505871340 13.3383790072419863   T   T   T
  4.5413544619872424  8.9775344795016920 17.3138289563894361   T   T   T
  8.7343049241994581  4.0690506791170975 16.3127696220151464   T   T   T
  8.4864925504040141  7.7040690873535906 14.6536861772945368   T   T   T
  2.8739412407296281  5.3847584902959085 18.4100256897310288   T   T   T
  2.8095335270560455  3.4281207955174353 15.2854275143801583   T   T   T
  5.2866866588934140  2.9026462665470856 12.8755910606600725   T   T   T
  2.2984222538862036  8.2746413335855458 20.1124558346199080   T   T   T
  5.2460601497507273  2.7137135874238978 17.2609548591267625   T   T   T
  8.0039341319692401  5.1829019601087332 12.9535963192347570   T   T   T
  1.4730003551844824 12.3507026874051338  0.2071639279489943   T   T   T
  2.6939514090709786 15.7291388945905499  9.4370594755222221   T   T   T
  6.9029448638475488 20.5304660234505079  3.0941330211203129   T   T   T
  5.3090008519702314 12.6938210477880293  7.2386264876410058   T   T   T
  4.8955195734585351 17.5527752331738540  8.7385977452929691   T   T   T
  2.9327217435572943 14.9628457085112050  1.3380522698218720   T   T   T
  8.0336568818482927 14.2085397948323919  5.6005748728124836   T   T   T
  9.4147848297138950 17.6740964270562984  5.0181138565977657   T   T   T
 10.1219745326941126 12.9579015003550424  7.2569923946134054   T   T   T
  7.8744677088386315 16.0843590344561349  2.5280867521433299   T   T   T
  1.9954623952410746 10.5581238731687872  2.8435467117823894   T   T   T
  2.9705891621211054 19.6657591877428786  6.8745884473773060   T   T   T
  5.3210213606498034 18.0584926142721827  4.7836220775771636   T   T   T
  6.8952385030133554 14.6921199395411293  9.1376529427130375   T   T   T
  2.3018952597311277 13.2433269422649644  5.0209072375203858   T   T   T
  0.3294876456475579 18.0500464480862348  8.6010757079777100   T   T   T
  7.3333440668139920 10.7111138716952308  6.0859499213984858   T   T   T
  5.2375482211159738 18.2272276986242048  2.1415590111641083   T   T   T
  2.3386725792717304 16.2280331409195178  5.8710644144499788   T   T   T
  4.9992935260005344 12.1098687373698670  3.1427815399432237   T   T   T
  0.5720361282569622 14.6558083079585018  2.8498644440570944   T   T   T
  2.5499305450737983 19.5160476727062466  9.8535171928051319   T   T   T
  8.4696768248577161 11.2392164282955012  9.4510851522308368   T   T   T
  7.7917740046107626 18.7898246247120646  0.5171375704246843   T   T   T
  4.9871289288952481 14.1986689511186821 12.4323195603148626   T   T   T
  1.7849053810079740 20.3879904859559211 18.4893747688485988   T   T   T
  8.1104069795967657 15.5279822025373999 12.7318058710388531   T   T   T
  7.8971845325197849 12.6285695937515481 20.2677252302350723   T   T   T
  2.7757922032387388 18.0538978193164681 15.8929618359686575   T   T   T
  2.4789900083196730 12.7146726041437628 10.5272181236971587   T   T   T
  9.7866820659378444 13.2515942710115571 17.2622326403057826   T   T   T
  9.2586890975310023 18.0460957110805182 11.0814162147595443   T   T   T
  7.4884382443717179 15.3922594964167896 18.5813854092935813   T   T   T
  9.2969201634711229 17.6437709656237658 14.9003966867890139   T   T   T
  0.2349760048657072 13.5100964799333223 13.7677656220198994   T   T   T
  2.6202744953838635 18.3501715279638162 20.7811473910898670   T   T   T
  5.7013116267551531 17.4578935734763938 12.0957188815843306   T   T   T
  6.9584008840671032 12.0228651076312438 15.8527437980946466   T   T   T
  3.2436918248290039 12.7613707849864291 15.1680481640734470   T   T   T
  0.1472323895748661 17.6644863313872662 17.7354798212616771   T   T   T
  5.2910111395343842 13.0768174849659893 19.2010516289320705   T   T   T
  4.0888768675468334 16.4095810918996854 18.2114151110092948   T   T   T
  2.3107693456548191 15.2969862414638271 13.3067084143385674   T   T   T
  2.8690517749722821 10.6831787975515553 13.3976347352584089   T   T   T
  4.4569484834270465 19.8145685131377540 17.9637266843010721   T   T   T
  8.5314670747843131 10.8537595585340370 18.3498352174943378   T   T   T
  8.3702618714835229 20.2416821450520352 12.5377503488480180   T   T   T
 11.0691602200287935  2.6951889919989966  4.9167894043919995   T   T   T
 13.4963342749795938  9.7511904115885351  6.8942015506564829   T   T   T
 17.4759312973007681 10.1468154258506136  2.6791684820614878   T   T   T
 15.9299609629945014  3.1432814018548272  8.2512649860478398   T   T   T
 13.2671210190451632  7.3189910719844180  9.7363769154209763   T   T   T
 10.7549739217332139  2.2430200101860942  1.7027287177637964   T   T   T
 17.2400021260478091  1.1231157729791568  6.3671218160905836   T   T   T
 16.6452082927955551  7.2269565959888871  0.1651098191571660   T   T   T
 18.5167265618894454  4.2843166871358491  5.9015201367993440   T   T   T
 20.0293945583426449  8.3391285154084933  1.6249390314082972   T   T   T
 18.7849348967596619  4.9097644691277607 -2.8118683047248663   T   T   T
 12.2681797353723869  5.3804122240321934  7.0282645518669389   T   T   T
 16.0348125767977692  8.1427659198750124  4.0011389955841636   T   T   T
 17.8181692808775978  3.1875159240568776 10.2539740950087062   T   T   T
 14.0499265271194282  2.8838525470478387  0.1366889477371409   T   T   T
 10.9323092841332219  8.3188657368013619  7.6802972905225690   T   T   T
 20.3812756580196428  2.2335263758653170  8.5402367743540282   T   T   T
 15.6494903261100795  7.1512883763954402  7.4379270585913266   T   T   T
 14.5221426021332309  2.1695433616931834  3.9657981204088646   T   T   T
 12.2201925113849725  0.1178129760122469  1.9162419767492207   T   T   T
 13.4216291325351218  7.3174716084556435  5.0865799373954790   T   T   T
 18.6502960939614404  0.0405050672856095  8.9303781205123016   T   T   T
 19.4772559739393003  7.2500382028221768  4.1580444527913230   T   T   T
 12.4444802503591969  3.1901046982926817 15.2023273364233873   T   T   T
 12.9032968283803005  4.6032880755844445 23.0982337086228853   T   T   T
 15.8999961449409604  8.3164621532822931 12.9265342525543065   T   T   T
 20.3383293088093424  2.8625326422320736 16.4487437788447011   T   T   T
 10.5928405801210204  8.3301718322488423 19.5041901009268557   T   T   T
 14.2196027553488982  5.3837742470356114 12.2002353636925704   T   T   T
 17.4978990468577038  1.9091792204785867 14.9404580874526438   T   T   T
 13.1274038068669938 12.6013105249705557 15.1080795779481569   T   T   T
 17.0337646981842425  5.6981694079115481 23.0456998940700686   T   T   T
 18.8547491754447840  7.4506240438379336 15.1588674571275295   T   T   T
 13.3249777313504953  2.8341184290478654 10.4062558161052898   T   T   T
 14.9397209541787195  6.2829243539715511 18.0847642200262442   T   T   T
 18.0641478742064834  5.5277024438416946 12.9960586469176285   T   T   T
 16.2699552429040359  3.5282926353416548 18.2575576246195652   T   T   T
 11.3500903923398351  4.2108236532680143 12.7588909030721815   T   T   T
 13.2091142495244860 10.0204143043896803 17.7226564328485168   T   T   T
 17.7572214379454039  0.1532482240565904 17.7519086821341219   T   T   T
 20.3960215863285441  8.0274785137626967 11.2513238923561492   T   T   T
 13.6867103422003176  7.4132905587070672 20.1962404511012110   T   T   T
 15.0493936713609511  1.5837121684534141 13.4579550088948992   T   T   T
 12.5554039907850257  0.8890132278273297 13.0070926392119528   T   T   T
 11.4279122772721298  5.6612552743166118 17.7269683513846132   T   T   T
 19.5796578058762414  2.2019774619653756 19.7210386939425177   T   T   T
 18.0681830021766281  7.4549652421663586 10.1680740362349660   T   T   T
 13.1734733469495904 15.0170549651238208  1.9800978285531825   T   T   T
 13.0445883540524292 17.4153889136210474 10.3954049483557842   T   T   T
 15.9493043735502145 18.6908760689625204  2.8983440880682032   T   T   T
 20.0206629204024580 13.3668818668699263  6.9728872941316808   T   T   T
 14.3204663765123499 19.7838940253277329  7.0792898696108688   T   T   T
 12.9471506699064669 10.4630232487690833  3.1354346057529696   T   T   T
 16.1308068328558285 12.3408979532295184  5.7210590710394094   T   T   T
 17.8041287187202606 18.5306146737370874  5.2624266852119685   T   T   T
 18.3884564185705024 10.2535759183708457 12.4159090549650077   T   T   T
 20.3142647951684978 18.2526553302745995  2.9708123190922886   T   T   T
 12.3434410408546125 13.8742415515888418  4.5787033640231449   T   T   T
 11.9053450129011207 19.7220124382054642  8.2758130512201369   T   T   T
 17.6917710378174746 17.6515576564448438  0.2852825360655490   T   T   T
 19.2565936761050764 10.6224800314309231  7.7165691975046826   T   T   T
 11.9506446699234932 12.5817959887468422  0.4687192195483480   T   T   T
 11.5683329473258887 16.0662129778524019  7.6631663514528059   T   T   T
 17.1596374245855401 14.8647090997290743  7.8628546562888539   T   T   T
 18.4124301445308767 15.4930628864235498  3.6017522963466759   T   T   T
 15.0116067277887701 16.9503571884231583  8.1134066892890502   T   T   T
 10.3763619813677614 12.7821923029706657  2.9695415365460818   T   T   T
 14.8889462438525459 12.9316371820365870  2.2014471540821368   T   T   T
 12.7453211871853647 17.7485776900511993  5.6813423312951246   T   T   T
 18.0564813298382560 12.8169831551511084  9.7343232370304786   T   T   T
 18.0566641950236644 20.3775473681236257  2.8709719608575393   T   T   T
 13.9292726019583100 12.8383196785246501 10.8381099967806716   T   T   T
 12.1344990044042120 15.7356133342518767 16.9898355263585259   T   T   T
 19.3569996390341217 20.1779276599436841 12.3819269303652018   T   T   T
 18.4387156173620319 12.7954074015866954 15.6315725605871219   T   T   T
 14.2365879567754376 17.5175060823949345 19.5991638140492412   T   T   T
 10.5618453036184636 12.9934893960643958 13.4955532115493408   T   T   T
 18.7802765278408756 12.2880054926192628 19.7178693750876661   T   T   T
 16.0590579484680944 18.5619156784072281 14.5273472493710827   T   T   T
 15.8576881841771513 13.4292290824296483 19.6712320083051608   T   T   T
 15.6205655115102839 16.5056766362139236 12.7123527413225137   T   T   T
 12.6587601787445792 10.3649882804374620 12.8053476818969258   T   T   T
 12.9648561709518031 18.9516282750272644 15.4903580176694540   T   T   T
 19.3833695107063377 17.5202927153430004 14.9917693405285775   T   T   T
 15.5238675521196328 12.2354708970478541 17.3086735680636039   T   T   T
 12.2975890904456620 15.1110900107225241 12.8378807469647249   T   T   T
 12.0239134532466636 18.6136605665907062 20.4891250063974226   T   T   T
 19.4162451211723059 14.6351545728256962 17.7911110844170679   T   T   T
 17.8286520442514167 17.4989237343765396 11.2240742473088098   T   T   T
 10.4818543236979824 18.6903738582479875 18.4009827288531085   T   T   T
  6.3551177206729959 19.0134959950324500 14.3805272350378228   T   T   T
 15.1930274341089060 11.9764418893341276 13.4192319336459001   T   T   T
 12.8643476263920729 20.3009525395943697 18.4222329334268551   T   T   T
 17.6389158477651193 10.7999595026228992 17.6181833458067629   T   T   T
 18.4789823459729448 15.4747062475578439 13.5085238362696742   T   T   T
  0.1558994263986690 -0.0879896302021354  5.7166809071059985   T   T   T
  4.7344103758722955  0.1693186117660717  0.3491680808190072   T   T   T
 -0.3210266718226615  5.3698413593184959  0.0553693965158477   T   T   T
  5.3571787741883385  4.8598954502613090  4.9359583600473442   T   T   T
  0.1193359790796767  0.1636606138085161 15.5544426573853976   T   T   T
  5.3816945190211944 -0.0290743740760813 10.5644023784039085   T   T   T
  0.3507061164518163  5.2345869197824069 10.2535786930805095   T   T   T
  5.6608899644822150  5.3688095799016287 15.4595654919509204   T   T   T
 -0.1193133622996322 10.1090311175968885  4.8357613378098225   T   T   T
  4.6558252824184949 10.5065359351446936  0.2186807945710943   T   T   T
 -0.3184871840520167 15.1381594682134253 -0.0152219483882842   T   T   T
  4.9598072714793666 15.3114090499991828  4.9813194012817812   T   T   T
  0.0040271508976892 10.3397309207396262 15.2358317899480724   T   T   T
  5.3749573870101761 10.1901685634768171 10.1029161877473790   T   T   T
 -0.2481098623949331 15.0861320458430477 10.4313399143387056   T   T   T
  5.1828832034873544 15.6282617764605529 15.5001107332360366   T   T   T
 10.2259138116618065 -0.0227728050151709  5.1744396477363628   T   T   T
 15.4445988618521604 -0.1681367258440039 -0.0759591415811647   T   T   T
 10.7282068815194176  4.7606000649810358 -0.1036232038672858   T   T   T
 15.8135928514889716  4.7868683047840870  5.0472013273650100   T   T   T
 10.3154737177619857  0.1834689017306761 15.5459058412196782   T   T   T
 15.7200604188868596  0.0408081617408949 10.3133359048204412   T   T   T
 10.5509803541457678  5.0914117215110641 10.0346900792288007   T   T   T
 15.5642772461665793  5.1522597822944372 15.3603375052495448   T   T   T
 10.1946810188375778 10.2601967404780083  4.8002919141797884   T   T   T
 15.2674578428876000 10.3858685835342932 -0.0660935836677004   T   T   T
 10.1741767403703047 15.5413948660011272 -0.2383741436406133   T   T   T
 15.1976585842630545 15.4413848772967874  5.0797714430409320   T   T   T
 10.2337341113622298 10.1881966459875546 15.3662517432602819   T   T   T
 15.5109992400164707 10.0393827916954663  9.9605139425691629   T   T   T
 10.1190004812533960 15.2194179629044033 10.5189758996475060   T   T   T
 15.2111528339220587 15.3552115652896646 15.3337472041324308   T   T   T
  1.4960743764005140  0.8706469147626354  6.8503669065124573   T   T   T
  1.0195061734899018  8.4881442966675493  3.9054964622819139   T   T   T
  9.2642923566863207  9.0427212177499143  6.0999782783775398   T   T   T
  9.1740889982690668  1.4430760332030155  4.1855570951782655   T   T   T
  6.3128713802283665  1.2132428262841943  1.2184730228574776   T   T   T
  4.2297644819154261  1.2406242829502361  9.4897514444510804   T   T   T
  6.5803794305959631  9.0640136532192663  8.8524509799495625   T   T   T
  3.8197489976779524  9.5038060964770352  1.6618737796602465   T   T   T
  1.0852483359689153  6.5909068388046776  0.8838876549486545   T   T   T
  9.3226067762476283  3.7498360585280452  1.1393179971067771   T   T   T
  9.5584364743902981  6.3125930365228378  8.8068341530826402   T   T   T
  1.4614731019537115  4.0506750188592449  9.0883606716593626   T   T   T
  7.0459827982105434  5.9566253822751092  5.5961577897173846   T   T   T
  6.0184099584521356  3.3838774327494590  3.6615874672114912   T   T   T
  3.9938972267844051  3.9834651020496206  6.3617035560868151   T   T   T
  4.2144318859292635  6.1974702030078470  3.7713782391770194   T   T   T
  1.9791968096573991  2.9896323453746820  2.7682182726972786   T   T   T
  3.0924725148050252  7.6399951723595025  7.5918856406017969   T   T   T
  8.0636245450584880  7.5865506122573594  2.0440810726148482   T   T   T
  7.7492104503786594  2.6127673023326401  8.1426469446046656   T   T   T
  1.4834527807874900  1.1563239743997678 16.5379444204052817   T   T   T
  1.0654658219483806  9.0995067537908607 13.8785488645404129   T   T   T
  8.9066652985628849  9.1647116560468227 16.6089763861974760   T   T   T
  9.1117280291917204  1.8492691527523504 14.7137362713667752   T   T   T
  6.6246037663000266  1.1352127675049641 11.7428492499745722   T   T   T
  3.9736488722689520  1.3160988923172194 19.4290988051009492   T   T   T
  5.4586156230836593  9.0494284449681093 19.5117264244531938   T   T   T
  4.2829709830592577  9.3789656063237175 11.4435967275993509   T   T   T
  1.4174320839620886  6.3178433305469062 11.6764011264846150   T   T   T
  9.5285167398039725  3.9370101028999680 11.5493549027891333   T   T   T
  9.6824352452681293  5.8109133076261346 19.2385224261002392   T   T   T
  0.7928883413482165  3.8838607491448753 19.5895927837736679   T   T   T
  7.2549208066348623  6.2677069737933664 16.5420687383326097   T   T   T
  6.7144617568928977  3.7797475886521035 14.7156921556579263   T   T   T
  4.2287754917300227  4.5343890930022637 16.8067083974126419   T   T   T
  4.5621403847560034  6.6137656386216772 14.2667422028333171   T   T   T
  2.9161445753281665  2.7686235839781324 13.0670913289187087   T   T   T
  2.5807396066422723  7.9904844136331548 17.9507301337550516   T   T   T
  7.9609287258740702  7.5465458051698429 12.4787493090628150   T   T   T
  7.6941771782197721  2.8366087311395569 18.2626605631250669   T   T   T
  1.1663770122443600 11.2311654004768702  6.2440114273006335   T   T   T
  1.0918616875162614 19.2445835839019814  4.3458804972248579   T   T   T
  9.1714738597337746 19.5019442573875921  6.4999796117635373   T   T   T
  8.5669065229828067 11.3742776500952623  3.9244148792719402   T   T   T
  6.0844654696585652 11.7469678541207596  1.0693441543841935   T   T   T
  4.0185044953921158 11.4837888720207619  8.9793339849973357   T   T   T
  6.4107942609919331 19.2243452317919008  9.4153501037487750   T   T   T
  3.4501406556149625 19.9856963418469036  1.7408557609530946   T   T   T
  0.9369689988892667 16.3630996550232339  1.3141904766782486   T   T   T
  8.9390015720096887 14.4189087295859775  0.9746338027709477   T   T   T
  8.8698829132851742 16.4872573023736066  9.4259182674723530   T   T   T
  0.8414132194288719 14.1579064074139200  8.9478421913419606   T   T   T
  6.1476172055465490 16.3046835343428000  6.3399675147901435   T   T   T
  6.3284685127968041 14.2912275719133852  3.8852354299536467   T   T   T
  3.9081313572337133 13.9872664032616338  6.3554896091231701   T   T   T
  3.6331925854581799 16.5151079440317581  3.9666579932390911   T   T   T
  2.5710573390094646 12.9070017426380677  2.5084600033747888   T   T   T
  2.6250923729530022 17.6448672820077483  7.9029312621109318   T   T   T
  7.1979966370539588 18.2084217124248546  2.9074653730332027   T   T   T
  7.7018184615976475 12.7531436651944663  7.3765293986084952   T   T   T
  0.8221294605755355 11.7491991834043574 16.3387949161535531   T   T   T
  1.2149490460345336 19.5402613373470508 14.2917091932495328   T   T   T
  9.0372563229745460 19.5336305279742675 16.6564486165412049   T   T   T
  8.8897095762894249 11.3799635943594755 14.0644688171427550   T   T   T
  6.6229274395977864 11.3414410975877882 11.0731784770366311   T   T   T
  3.4228528437221173 11.4253735221411894 19.4790778532322193   T   T   T
  5.5555932038600631 19.0561933888720034 20.0476368351047469   T   T   T
  4.1817924500550383 19.3948455487551072 11.7905124005599919   T   T   T
  0.9419188771592344 16.2999730238947897 11.4396791400990736   T   T   T
  8.9088000188368088 13.8460387372230098 11.6502061297480317   T   T   T
  8.8492655830935050 17.0137755543887685 19.4890599563326674   T   T   T
  0.8877388849449569 14.1439356390788902 19.3590250581401477   T   T   T
  6.2250530915782187 16.9522582509250590 16.5237132432688938   T   T   T
  6.3236447118677379 14.4568995945179317 14.3091512844471591   T   T   T
  3.8784483059630777 14.5082083321360891 16.8505041624998100   T   T   T
  4.0796490798082345 16.6836211567319594 14.0216639885366181   T   T   T
  2.5512503004087566 13.1574408313144335 12.8021871428978802   T   T   T
  2.3478346645570816 18.3455240849136700 18.0772268528489732   T   T   T
  7.7779140794593058 17.8662581974233134 12.9979985212183422   T   T   T
  7.2677315623677039 13.1343161343151671 18.0282991202186764   T   T   T
 11.5808128310271030  1.0220803295920411  6.4082846696189586   T   T   T
 11.2530052461204271  9.1539266510347641  3.5306525829204638   T   T   T
 18.9490581973727785  9.0374281020852987  5.9766682739002857   T   T   T
 19.5502803523927895  1.1571149081239025  4.5293537071306575   T   T   T
 16.6330740050387682  1.1946182664917577  0.9288497341793074   T   T   T
 14.4221349603065061  1.1097617971965905  8.8754147876435425   T   T   T
 16.7213579300194759  8.8690854442592055  8.6950804500370324   T   T   T
 14.2034472624439108  9.3719581305986779  1.1607429076085514   T   T   T
 11.8685266554680720  6.1049115018315270  0.9813596352823278   T   T   T
 18.8961887619894888  4.2313737959237683  1.2682564450162599   T   T   T
 19.8841242615288856  6.5430889408535799  9.0646019755078271   T   T   T
 11.8000142877718357  3.7922811963119303  8.8757014991311234   T   T   T
 17.0054287478137205  6.0578906521387559  6.1051364446082372   T   T   T
 16.8885740925918810  3.6402749015910514  3.7826972380394910   T   T   T
 14.6146688984406765  3.5055940596183892  6.1325714767946566   T   T   T
 14.7227407712684766  6.0805220823274775  3.7527449144507052   T   T   T
 12.9382702755654826  2.2605629406916021  2.4210515554044179   T   T   T
 13.2008089169441440  7.5933397524025121  7.3709502599343901   T   T   T
 17.6434686117475046  7.8787165236248597  2.4006211696936224   T   T   T
 18.1244127123509990  2.4109632716181300  7.9664475393206446   T   T   T
 11.8613906878882265  1.1475706658146081 16.4325556044693357   T   T   T
 11.4727051046168143  8.8667374434780335 14.2117164006122731   T   T   T
 19.4448168055671751  9.1744540248454900 16.5722241534090315   T   T   T
 19.7234620273096972  1.4025712260127816 14.1010475043599790   T   T   T
 16.6259421785318899  1.5991822035403371 11.4624677683727381   T   T   T
 14.6020607715411277  1.2367648178594348 19.2137655151971956   T   T   T
 16.2890560150878443  9.2433777326235820 19.1835344339234979   T   T   T
 14.2288961420792788  8.9433552730271604 11.4922310270561034   T   T   T
 11.8841525758978275  6.2287313897085195 11.1820617748333930   T   T   T
 19.6989869398542510  4.0784698015105114 11.4276476012564512   T   T   T
 19.1792718707891368  6.6747665650127290 19.6024048603900951   T   T   T
 11.9666241604282746  3.5015048400136002 19.3961809723060128   T   T   T
 17.0043918915720127  6.2604390751674197 16.6801511151993012   T   T   T
 16.5140058032247730  3.8659341549721571 13.9648953793963084   T   T   T
 14.2195382033369384  4.2176822167345094 16.6774881812140450   T   T   T
 14.7854789850738690  6.8160905747221605 14.4581712030431362   T   T   T
 13.1916348433191626  3.2909340955456958 12.8334992546212039   T   T   T
 12.8525272493038276  7.6239689933701431 18.2016937421186782   T   T   T
 18.2033308203831687  7.8506782441471579 12.6872691382453020   T   T   T
 18.2086066399664936  2.5481262093614951 17.6195233760858159   T   T   T
 11.4214198088050445 11.4042660409984826  6.1458784456843745   T   T   T
 11.2950075506066980 19.2926769079092608  4.0203593651939515   T   T   T
 19.5172214548503966 19.2010600500172686  6.9442303921153252   T   T   T
 19.6680513854894201 11.2115165429457182  3.3039951313342391   T   T   T
 16.5385773456457557 11.7404853434190368  1.0198033373098847   T   T   T
 14.0385218772171694 11.0939537625301234  8.9957674051877081   T   T   T
 16.8721716860955091 19.3024919233463308  9.0925917702283741   T   T   T
 14.2603632574212504 19.3596934778560623  1.1895439917756820   T   T   T
 11.3839559996396549 16.3485277537130465  1.1809522311725644   T   T   T
 18.9944398671638233 14.0873607558312859  1.0811805782347494   T   T   T
 18.9131188740432137 16.4037394622168264  9.4495306121824711   T   T   T
 11.3570640620192602 14.0424533371911089  9.2251228394433973   T   T   T
 16.4517188732023527 16.5764980776036275  6.1904872233462749   T   T   T
 16.2818090696395465 14.2083592129584950  3.8313614421658548   T   T   T
 13.8905712571325815 14.1165514268559118  6.1174037192375543   T   T   T
 14.0605600065986351 16.6959599293269925  3.9015874749270369   T   T   T
 12.7028620209791221 12.6195778960960077  2.7142738307166177   T   T   T
 13.1190049048337585 17.9922261578631826  7.8622907605734591   T   T   T
 18.1012547226790232 17.9287368207673445  2.7810947753103039   T   T   T
 17.7457605839918173 12.7182492067374238  7.4087602255674296   T   T   T
 11.5213427628717930 11.5021550292281454 16.5041102333142859   T   T   T
 10.9538210314498805 19.4339985543255551 13.9887196707234018   T   T   T
 19.5512637188840337 19.4566999763187880 16.6241678559226926   T   T   T
 19.2388076860738657 11.3413298727579708 13.9997323348699148   T   T   T
 16.6270726988518689 11.3209554834575030 11.1269258190365932   T   T   T
 13.8938928200774434 11.7343663705721450 19.3302115653485913   T   T   T
 16.1517142718939937 18.9451600878053306 19.1674724444049431   T   T   T
 14.5096276310439141 19.7169881548776793 11.6814761961687665   T   T   T
 10.9906694369025253 16.6406099770133231 11.7424098596687863   T   T   T
 19.2184831414744366 14.0273568464950973 11.8324670957064377   T   T   T
 19.3130331268262552 16.6005842361309170 19.3998530128521409   T   T   T
 10.9672463676279950 14.3107459777744417 18.9230419111106869   T   T   T
 16.4317452467117775 16.7444798255290621 16.3186778647396551   T   T   T
 16.3168765782547815 14.0433983044889708 14.1068147190987876   T   T   T
 14.2591839907784923 14.0088367659980939 16.5589595875560676   T   T   T
 13.8845707851337750 16.4516516093758760 14.2654767668530003   T   T   T
 12.9676962755447516 12.8253940456064939 12.9028260508356727   T   T   T
 12.7159314751716970 18.0024957085340027 17.9304455221122083   T   T   T
 17.9278807468423800 17.9461591959587352 13.3799204992139913   T   T   T
 17.5754103986964587 13.0969061927746591 18.0371484522895003   T   T   T
  0.0165841906222463  0.2676713717527948  0.1027029144753904   T   T   T
  5.2798531498828041  4.7782324454908300  0.1558228242503941   T   T   T
  5.4586156316328349 -0.2414664713482879  5.7465744144408184   T   T   T
 -0.1873681908898080  5.0196952406561373  4.9399479470926337   T   T   T
  0.1572376392009255  0.0050641034606981 10.2628521230058016   T   T   T
  4.9267769826319165  5.6806209609299145 10.9613172705707917   T   T   T
  5.0662387152910613  0.5658653276058223 15.8984035851191070   T   T   T
 -0.2045456751512662  4.9262407224731453 15.0686667964338881   T   T   T
 -0.2375688379329160 10.2088160403916177 -0.4334901299788119   T   T   T
  4.9498631241560558 15.5330888986651434 -0.1670155906537501   T   T   T
  5.4906182811485653  9.7857149523072806  5.0945688596330880   T   T   T
  0.0052865331595133 15.3759569497282946  5.1778510486600124   T   T   T
 -0.0568483115012808 10.0336865920441518  9.8120177697685307   T   T   T
  4.6574734253729195 15.3554002604540276 10.3894554320940617   T   T   T
  4.3688721620342754 10.6969227367088457 15.4003895497864551   T   T   T
 -0.3780737928709723 15.4160183905495813 15.6475949653074800   T   T   T
 10.6217906344393640 -0.1707925824671919 -0.3008911229971238   T   T   T
 15.4311383847544175  5.3173533577169767 -0.3072238544666878   T   T   T
 16.1448438645368775 -0.3885560120514002  5.2030361888714713   T   T   T
 11.3180286479674663  5.2747750640472422  4.8404953512056039   T   T   T
 10.1533870371409112 -0.0746412729810182  9.8135941850789763   T   T   T
 15.2793073415562084  4.6928930624939760 10.3633489791692899   T   T   T
 15.9235376949893386  0.2643924440776301 15.1426334441194914   T   T   T
 10.7051832368287947  5.2607866185316281 14.9881389700282401   T   T   T