Li P  S  Cl
 1.0000000000000000
    25.1819793006824639    0.0000000000000000    0.0000000000000015
    -0.0000000000000009   14.5388225279766061    0.0000000000000009
     0.0000000000000000    0.0000000000000000   37.2126966544236950
 Li  P   S   Cl 
 286  48 240  48
Selective dynamics
Cartesian
  3.8055549143341958  2.7178461531565721  8.5392866647159380   T   T   T
 14.4851887328211681  8.9768365620922168  7.2056115430761185   T   T   T
 17.8460345351405039  1.5155215019783597 12.9177261518368720   T   T   T
  5.1690600481862523 13.5967732166048627 12.2520634681389957   T   T   T
  9.9088191281928317  6.1087867904772715 -0.1793231174209201   T   T   T
 26.1540177661512558  9.7801086402674748  4.2130399461400732   T   T   T
  0.8259673040997321  1.9482945630438753  6.9211640566869717   T   T   T
 16.1332542190143045 11.2676359516625446  9.4969503449995987   T   T   T
 15.8042928422910620  2.8975159408009290 14.5060164008878729   T   T   T
  6.8168016936951634 11.2449637574035037 15.0743350635026108   T   T   T
  7.8504794118406176  2.8215557621694161  2.9496673566638454   T   T   T
 21.1439504714885445  6.7539453374675640  0.6056891089444503   T   T   T
  2.6038164597724673  6.0448235261864394  8.6745499745119048   T   T   T
 14.7428966963583701 13.7242639721487407  7.5212602362570742   T   T   T
 18.5472757797356991  6.3562087598187809 14.6338888650579566   T   T   T
  5.0664256315082490  9.3100916917711771 12.7223926342916194   T   T   T
  9.2938864800029428  5.6682708934003037  3.0048202989236232   T   T   T
 23.7350373677714970 13.8303162204494150  2.9211022368838377   T   T   T
  5.4801383211520074  3.7237126740606876 11.1040452809767096   T   T   T
 17.3308108122800846 10.1682637376896210  7.1689540925491357   T   T   T
 20.5830579005657768  4.2705725475554797 13.1325595471638508   T   T   T
  5.3673909971002125 10.4267595112406468 10.4940764329475229   T   T   T
 11.6020486030100454  2.6916752362594116  2.3049589440858380   T   T   T
 22.3563721195460587 16.8945898877647949  3.3914894723461306   T   T   T
  7.8521811217894326  2.6881058495478833 13.8585835725259425   T   T   T
 17.6098955768878156 12.8016943921717896 12.0191929912512787   T   T   T
 19.3579018821635600  2.4362335874457783 15.6318506992040138   T   T   T
  4.2631658469851326 12.2188147113781973 14.8033359771825967   T   T   T
 15.8144117868269625 -2.3906887527977085  5.3568402645071398   T   T   T
 24.5049136219001511 14.1247024483504688  0.4490077848819471   T   T   T
  0.8886700893632612  5.0528574263432846  5.8742276289952464   T   T   T
 12.6871151715510493 12.1588719228662043  8.4840560426386773   T   T   T
 17.0145492086998047  4.6160210934759700 12.1219950173840303   T   T   T
  3.2032777444642169 13.2107292402417222 17.9374460083388989   T   T   T
 12.0186475397060253  4.3247432209701868 -0.4626278397329754   T   T   T
 18.6458289837127182 14.3853259714828781  2.6759260844977844   T   T   T
 25.4419991824192451 17.2994941116387011 15.0286343874480579   T   T   T
 10.5427540554402004  7.9153155466416854 14.7487858384197050   T   T   T
 16.1267077728581967 13.1206067024434887  2.1114262961824486   T   T   T
  1.4506155084880756  6.7974390215364826 -3.2953001124643539   T   T   T
  6.6345021260078108 14.2454055043930978  8.6315676014000360   T   T   T
 22.2755294210396499  7.0577610272923188  8.9942690878483571   T   T   T
 22.3071719280635676  2.6006780520545161 18.8564705724077655   T   T   T
 12.0054294247663726 10.6008154335612055 18.7082875575485552   T   T   T
 12.6318463536163481 -2.7698348631521945 -0.0855878459262830   T   T   T
  2.0172415706327862  6.7999755481601243  2.6081711804574881   T   T   T
  8.1542465559807376  2.0975163121504128  8.9071662012653725   T   T   T
 18.7967123239112510  6.6081026676796446  8.4998521978668702   T   T   T
 -1.2463373360275651 -0.7352423545380748 12.0527565453713397   T   T   T
 13.3093478745720493  8.5868086577697937 10.7159924209612889   T   T   T
 13.6789500080924995  2.3440427586252732  6.0477101158447102   T   T   T
  5.4676361546924932  7.6528863447296755  3.0672812963563856   T   T   T
  9.5922354326552846  0.7096819501352412  4.9085219320594087   T   T   T
 20.6637081939455740  9.6891175027115750  7.3409794295906794   T   T   T
  1.7987940956992925  0.0481157094998880 13.5348470575524651   T   T   T
 14.5419324246473884  6.7899180833788630 13.1503095725744199   T   T   T
 16.2649198897945055  2.8038643115857953  2.8111824312745521   T   T   T
  8.8058601843748843  9.7894810096983491  8.3886505549617070   T   T   T
  7.1583455456729235 -1.4843368775667098  5.8976566429490767   T   T   T
 25.3016517747142444  2.8768680132099447  9.3785297909798011   T   T   T
 -1.7036587884581591 15.7460952274877428 16.2688983723132203   T   T   T
 12.6867451889113081  9.5842536308345991 14.0877983657015413   T   T   T
 15.0835571380092102  8.7462740772230632  2.3817554557290581   T   T   T
  3.5227242734452688  3.8411508833915797  1.3515725934899685   T   T   T
 10.2269410043574300 14.2109158306540344  8.2461450795060838   T   T   T
 23.2197016594919603  7.6580171606483205  6.5314406710530291   T   T   T
 22.7975807201700675  1.9703699187413954 13.5198245773371131   T   T   T
 11.1253749813154279  5.8518999780816010 11.7826179020619328   T   T   T
 14.0235621364522522  0.9455073479503833  0.6129947159592835   T   T   T
  3.9354431470966889 10.2949098071654461  1.0418157988107886   T   T   T
  6.5507411366384733  2.0077232672634828  6.4079847672674513   T   T   T
 19.8871530906285585  8.5774131106406557  4.6672271550535456   T   T   T
  0.5278675819422221  9.3584381785337527  7.3986051345412660   T   T   T
 11.6333036603044206  1.2011967842228124 11.3279133128271337   T   T   T
 17.6102800708308678  9.2528117909911458 12.2468058199381407   T   T   T
  4.3645059412709362  2.7232325521850922 13.5493931181981999   T   T   T
 13.2885745140816116 11.0416039270621269  4.7556330403566855   T   T   T
 21.4872031958620866  0.9501278250726186  0.3866361480962424   T   T   T
 -0.1534322397751715 12.6095569976336961  8.6888819348652664   T   T   T
 12.2073822347152685  4.5407051531988021  8.6323616965733923   T   T   T
 19.9907081627394234 12.8413854460171564 14.3693672173538243   T   T   T
  5.6979323581245627  6.3170215579167781 14.7502574886331885   T   T   T
  9.1917748622123323  9.8411356391525224  2.7549076431361721   T   T   T
 20.6781618002591827  4.9912025596430381  7.2338198257916044   T   T   T
  3.4132763392818775 12.8802954318635514  7.9911938215964184   T   T   T
 19.9539420907008136 11.2758014660967838 11.0775238294989276   T   T   T
  4.1459629642798630  5.6664697465830631 12.9300169219978738   T   T   T
 10.8445753540520702 12.7314451370140986  2.2753558530721758   T   T   T
 22.0676621963550730 10.9051206236187497 -0.6763527562178546   T   T   T
  3.2700065901418531 11.1394117156211010  5.3933936533416489   T   T   T
 17.0176179110634394  4.4744004484054116  6.4799536060247682   T   T   T
 24.9806635089720999 10.1485320486171737 13.3249393247880956   T   T   T
  7.8178983410223326  5.5679474680951122 12.3745973062079457   T   T   T
 12.2148212040695707  9.1794214515497465  0.0679397520303818   T   T   T
 28.6194283493431243  4.1342054075452817  5.5449665443739438   T   T   T
  3.2490944986963948  9.7281975072546381  8.9511500292833670   T   T   T
 15.6732167851987434  2.5575099999419941  8.7770670578975736   T   T   T
 16.5204360541243318 10.7248032121141001 14.7968374146180217   T   T   T
 10.3507057221386791  0.4499596068989315 14.1229090992238611   T   T   T
 15.6440439271609772  8.6341437444585480 -0.6838755434817180   T   T   T
 21.4198571764416883  5.6997543651353100  3.9843821997191342   T   T   T
  1.1173436426542422 12.8323901971851768  5.6675282596484173   T   T   T
 14.8639973700482280  6.3471416244840979  8.6942486845079952   T   T   T
 19.7546053460065352  9.5352603529094822 14.6733052510128221   T   T   T
  0.0580652240176497  6.5995175078797903 10.8603371009157605   T   T   T
 12.2954525554460741 20.1535314116612341  2.6329272810547417   T   T   T
 24.7775762457979525 15.6223631628521638 -3.3937393141254297   T   T   T
 20.4667930086047178 13.3861285345412426  5.6971609857934915   T   T   T
  6.3098990552968210  8.7399795008153554  8.7726936360956671   T   T   T
 11.6393265779975295 12.5958213381498432 12.4640764398315973   T   T   T
 23.2545943697152779  6.0742768967465626 12.7120039350252636   T   T   T
  1.8974307859306083 16.2708637072048390  2.9055308708674046   T   T   T
 18.1480306748011913  9.2396264669685060 -3.5798997872063740   T   T   T
 22.0295863658149642 -0.8786982862703656  9.0613617292098851   T   T   T
  8.2064228607082903 11.8112008423878692 12.5719290939086061   T   T   T
 14.7325686862558651 -1.2009991346356692 14.9513590366462843   T   T   T
 22.3267197011763656 10.1883990428013824 18.6397883134094151   T   T   T
 -1.9800425667958863  0.1215375207919946  6.8278428300776497   T   T   T
 14.0610775027033537  5.8556849532896207  5.4592991630815266   T   T   T
 24.3832309409003187 -1.7940727226173905 14.9399078042579614   T   T   T
  9.2528503469154852  8.6729429878265627  5.4917232153048667   T   T   T
 18.3527400411489339 -3.3160835104844928 17.8591816629742866   T   T   T
  0.3792722004830184  5.7533844371048328 19.4011427397217275   T   T   T
  1.7898284094076431  8.1970000950631885  0.1938061536555787   T   T   T
 17.4880957018023437 10.4774667479927857  2.5086114711506533   T   T   T
 19.5880292550917616  2.1329319091396415  5.9915394101251183   T   T   T
  7.9416652070749834  5.7038364289134167  8.4389646955640938   T   T   T
 14.4890885071999147  0.7176245838892399 12.3070166628529876   T   T   T
  1.7412260301732581  8.1344947028577046 12.7632850605089345   T   T   T
  5.1874803088606791  0.5560504028431698  2.1282139440722894   T   T   T
 18.2599149300246992  6.8349680916059379  2.2909304297929114   T   T   T
 18.9152274032025147 13.5983587932163665  8.4122716768998682   T   T   T
 10.3707302225951885  6.6078430724909119  7.5266402075306642   T   T   T
 10.6268067455681070  9.6379315245803951 12.1133646014125169   T   T   T
 -2.4199922306118484  8.8977336731292240 13.6898144639477959   T   T   T
  3.1657323477880888 13.4084172404885287  3.0850141183362201   T   T   T
 15.4868646868333606  5.9547563691430252  1.8280870943931791   T   T   T
 20.9742009712947564  2.1530922103068741  8.7266089223023435   T   T   T
  7.4872652469898409  6.3447790559439445  5.4315218434586043   T   T   T
 12.2879882649056587  2.3360291224510124 14.1931016977632751   T   T   T
 24.0604557107050994  9.0136849703175379 10.3380571985278529   T   T   T
 -0.3345672257971124  3.6510578857181524  2.9477093681785216   T   T   T
 23.1191464687658126  9.4897061696227532  1.7161222083603320   T   T   T
  9.2890631136714408 12.0706286550921966 30.7424719653467200   T   T   T
 22.3696228754746969  1.3057528288931566 31.6968812781766047   T   T   T
  5.2443489833413022  9.4418526439803649 23.3762444600333659   T   T   T
 14.5668158069945726  5.5585885968516919 24.1866211688009081   T   T   T
 21.2560340438309581 12.3858617702604086 39.9165375552912067   T   T   T
  8.9919306292723729 -3.3997340348889709 36.7246319728793864   T   T   T
  9.9508846347654707  9.5037292442426455 32.5181355873126989   T   T   T
 21.2481564554805473  3.5550013935856200 29.9495526249770840   T   T   T
  0.4513348165005042 11.0375256492256852 23.6494598751273521   T   T   T
  7.2794712282243408  4.4091896338063759 24.5032405366133688   T   T   T
 17.0675617359075815 14.5041581436505886 36.6272967680288204   T   T   T
  4.3739510805135025  4.6919389763012589 28.5499073879523486   T   T   T
 10.5886428413575171  8.1111633186694903 28.8570330082540920   T   T   T
 27.8726047819090468  5.0337512154057817 23.5590524389338114   T   T   T
  6.3961600768405971 14.0052627843011734 22.9863317005095702   T   T   T
 14.2597859186003557  1.4505960332407966 25.8895002016478131   T   T   T
 22.3723009309588079  7.7215542313786356 30.2983277565707247   T   T   T
  5.4452863067182129 -2.0730167866830653 28.6257752713704612   T   T   T
 12.9722922346798875 10.2190364067627399 30.2469164717956147   T   T   T
 23.9451115508216574  4.4871905783650234 28.7664989181991935   T   T   T
  3.3723121006517358  9.2356764528935251 18.6007620882862952   T   T   T
 17.3770542729034432  1.8854715712305878 24.1746791227809759   T   T   T
 23.5337323898822959 13.5342936297739946 34.9024000937686196   T   T   T
  6.3019223230389736 -0.8179328669837491 36.8975696487863019   T   T   T
  8.5863768310946096 10.9541642368829173 28.4247904775237714   T   T   T
 23.1659615601623301  3.9965543667344163 31.9353117187681192   T   T   T
  3.1470118979328303 11.8305221103070082 22.6387799636415785   T   T   T
 16.1492530236654446  3.5267201395846821 26.2398835204384753   T   T   T
 25.0253368583644900 11.3837952810373402 28.3698718434793733   T   T   T
  8.0388751697004324  4.2017628847925232 36.9700527474765153   T   T   T
 11.5646750963208120 12.0526968622137964 28.6558616742747461   T   T   T
 25.8448574056551621  2.4790817568278460 30.0307151546337003   T   T   T
  2.5795070042643666  8.3532664382843471 21.8114030459379542   T   T   T
 13.6286030634371702  2.0656539292152405 22.9144000448339042   T   T   T
 19.0272934701647145  9.7714919681520769 37.7122660305629509   T   T   T
  3.8383197053508402  1.5517832921723580 36.5820544502715350   T   T   T
  7.6742138367081729 -2.4285988443002999 25.1320242438852723   T   T   T
 22.4366031771418903  6.6472947121563690 26.4017746328401586   T   T   T
 25.5537726937421255 10.9490107295802481 38.4181848304595874   T   T   T
  5.5628097580775435  7.8165498977754559 36.6943060984042972   T   T   T
 22.1321429538848520 -2.5354480197181006 30.8135683033091823   T   T   T
  4.9760531712335432  5.5631280655245625 31.8532082466155302   T   T   T
  7.5542939158607041  0.9885304141943049 25.1660344187260065   T   T   T
 21.2318854266546353  8.7963090679256908 22.6013033128829299   T   T   T
 27.4276919848679412 -0.6299776486895713 33.5952014147116103   T   T   T
  7.9176394394965799  8.2759609848588092 35.3519453892876641   T   T   T
 17.1093631164449107  1.0928696264312858 28.2838742268125607   T   T   T
  3.4728091096095071  8.4990228827324970 31.3000143232143984   T   T   T
 11.8153236129047219 12.1452777184359277 21.7353330411662817   T   T   T
 19.7484411411991658  6.5281988166296507 19.3374666012801093   T   T   T
  1.3373491823494958 15.7765938388208866 36.8359707288946225   T   T   T
 14.0000836274641127  0.7352167328296522 34.1794553474692151   T   T   T
 18.7098256829675123 12.4366537389284453 28.3494406396041931   T   T   T
  8.6228579346447276  8.6137225686804264 24.1381300220315218   T   T   T
 10.7701867230952306 -0.5530837775538494 24.6969432989029407   T   T   T
 21.2788346914587549  5.4184370348199140 22.2924506098360631   T   T   T
  3.8734340560148377  3.9732497294473315 34.5534116395177122   T   T   T
 18.2267887716285628  0.8827409823840922 33.9935869782602893   T   T   T
 25.0630525393511334 -5.9729219868063392 28.1637162212258296   T   T   T
  3.2334846953520082  7.9060964025711176 27.8797283994613387   T   T   T
  8.7901629086558124  1.6632162971670872 22.7481245095562343   T   T   T
 23.6273380166284497  6.5903192586467148 23.6965478648782444   T   T   T
  0.6442035865661485 -2.9078971652241505 34.8798518059482845   T   T   T
 13.1196318155291127  8.6692214976868840 34.7121077031085790   T   T   T
 22.7892086108729330  0.8276251642350156 24.1895138415024711   T   T   T
  6.6403345923167993  7.5864157226386029 29.9125530986017694   T   T   T
  9.0116637783450884 12.2500367299427673 22.5816074456095208   T   T   T
 19.8147610461509771  4.5616216537763217 24.7598858131420236   T   T   T
 19.6507774581202312 13.2256083645181164 36.8416240701897095   T   T   T
 11.4650792946052587  5.4394449683676793 33.6459377101375736   T   T   T
 15.7206339323752946 12.9453348904417673 28.7479204197307929   T   T   T
  2.5128266234955303  5.3675325345178111 30.4749598378074715   T   T   T
 12.6079633006501037  3.2143464759421665 30.5208237279287218   T   T   T
 23.0403066745422294 15.3266222270001897 28.1917291600017101   T   T   T
  4.2665141856024524  1.4403301847440027 22.6462013477299848   T   T   T
 13.3423834958854712  8.6494687068785971 23.5535184984456585   T   T   T
 18.5315042989785752  6.6026191866517268 31.8967849675372364   T   T   T
  8.2232926431268911 15.2799427852479361 37.8568414321855968   T   T   T
 10.9571685523705238  4.8575988599195448 28.6942569522242472   T   T   T
 19.8490230518191240  8.6008333353066106 24.8052933709548071   T   T   T
 -0.0925132237807044  3.0206875497435810 21.9557154120997566   T   T   T
 16.3064598627175670  4.0949026951186491 22.5131556957922783   T   T   T
 19.3977015650699585  0.1829448705347399 29.6718384965695350   T   T   T
  3.9720326191473627 10.5647488133911374 34.8162992501198829   T   T   T
  8.1414296618708342  4.0022467927498111 28.3682956320005140   T   T   T
 21.4639520511522903  9.8131140989889545 33.5470953349100753   T   T   T
  1.1521673508539143  0.7030577615176865 24.5661570670580609   T   T   T
 15.1593175106967557 12.3309843211019974 22.7962791035539283   T   T   T
 18.2471810908844816 -1.5252233922291623 32.0283267127867575   T   T   T
  6.2088403112327422  5.2720532659837280 34.4484067580949826   T   T   T
  8.9691952697641089  0.8884012540110520 30.3843627178268498   T   T   T
 22.0184950921412579 12.4137942258417908 25.5878028573484109   T   T   T
  4.2858827726961124  2.9293758827419794 25.1592955927684763   T   T   T
 16.3055869172295829 10.5612260809181997 26.5472043298833960   T   T   T
 25.2396164953123190  4.3333008394301853 36.4728476336692253   T   T   T
 10.2240849508189715 13.5113527925227359 34.3028135156210112   T   T   T
 10.3097979192948355  1.2618949534839632 28.1696334006796825   T   T   T
 24.4491163940220844 10.0079066997543720 31.7491387355938350   T   T   T
  1.2686093448093099  8.0122866581996490 24.8226725497607319   T   T   T
 13.5500187339744347 12.4764451276974597 25.2106016997480822   T   T   T
 20.6731578429531382  2.7072423619239405 34.8578270619380959   T   T   T
  6.8931130943265195 11.8503813766423427 34.5334892222329515   T   T   T
  9.5620758349171648  4.6016628984676355 31.5439773144734765   T   T   T
 21.6443437444883813 10.0853491962808413 28.5427906762113182   T   T   T
  1.5592586424818844  3.4234906545081314 25.4877746492343000   T   T   T
 17.1177265688570657  9.2320180572613566 23.7122698006059878   T   T   T
 18.5916446080228965  2.7576284767974863 37.5581121048963098   T   T   T
  5.8691946677216356  5.8191215349836023 38.1793255690403015   T   T   T
  3.4046927824872339 -2.5819472440649687 31.1845348217227993   T   T   T
 14.7931354362658318  6.6285298009809193 29.1973308674449648   T   T   T
 19.5414203379325926  0.5685202199344651 22.7281032807033725   T   T   T
 10.4925599098801516  5.2368872058765392 22.8676514367745618   T   T   T
  7.6788834901686753  1.0408082402816403 34.5320074031485262   T   T   T
 27.8690510583387834 12.7251937919795601 36.7801096848291209   T   T   T
 14.1586693940921400  8.7391350136802970 26.3451089359889714   T   T   T
 22.4548578776174494 -1.0559134543908308 18.7620743254898876   T   T   T
  5.6911164208377043 11.6740885698517403 19.8478534795373918   T   T   T
 10.7445071545066142  2.1375629747880249 32.1886968206276691   T   T   T
 24.2522976626164137  6.8901509623474952 37.9575151000191866   T   T   T
  2.8196886892941975 10.8179782692136577 25.8473258927482341   T   T   T
 15.5202022294411179  6.1706397743129395 32.6053345624844013   T   T   T
 19.3844564971240203 12.2457399005257308 23.8992531633510090   T   T   T
  9.1552594383307859  5.5247155190072803 18.3446969203450685   T   T   T
 16.0361865404054029 15.0947091193091616 31.2563759511941264   T   T   T
  2.6311426861109308  5.9280495727956684 36.4458286087592853   T   T   T
  6.2825813949459404  0.3938607575457045 28.6816773669816669   T   T   T
 16.1789462661525576  8.7653058401925144 30.5961479929182865   T   T   T
 22.9567230435782577 -1.8262722557689117 22.5449719326588003   T   T   T
 10.8726982747192675  6.5751170432555410 25.3238006036918932   T   T   T
 17.2749140173022724  6.3407973272836662 36.7092172400521903   T   T   T
  3.9256448269274191  1.8380575935865453 30.0034327255559283   T   T   T
  2.5764709992416215 -0.6251246046466555 28.4414237247547632   T   T   T
 16.9383259345827852  4.2684790676213753 29.1259433105157726   T   T   T
 25.4247421253326493 -0.4015117355389339 20.5590837906986970   T   T   T
  7.4514699437135121  6.1457752290402921 22.3969307831030768   T   T   T
 15.4555076844278414  2.8627794014897239 37.4082871124531522   T   T   T
 -0.3855078982150826  9.1277261837872352 36.3179994542630382   T   T   T
  5.5847865544340758 13.5642862566344107 31.8913040129979564   T   T   T
 18.3964321773842130  6.8594831019711959 28.6379996415379559   T   T   T
 20.5150460027177175 15.6147426237544664 25.6200694875552486   T   T   T
  7.5837196347441047  6.9701756732003188 26.1491118095347375   T   T   T
 14.3622609471301264 12.0553549231791983 34.0516888522646184   T   T   T
 23.0072464648201915  6.8223657381342981 35.1387619025453262   T   T   T
 -0.7536523815405800  1.6448478587506452  1.7943867161596472   T   T   T
 13.6516401537134033  6.5065779224119238 -0.5215009249326761   T   T   T
 16.5919288387768802  0.4171002546780214  5.7372938799230768   T   T   T
  3.8149177856812493  7.8060773442028335  5.7733786448390445   T   T   T
  8.0431163465419182  0.4440396419736247 11.6110226985769618   T   T   T
 20.3657086469182929  7.3696848740946237 11.5105137558102513   T   T   T
 22.8298087076384419 11.1358198750239801  5.7896835842901639   T   T   T
 10.3333690478064746  4.2580671252909683  5.6171367633400413   T   T   T
 14.5901436115336445 11.1942048468617230 11.5928796944008603   T   T   T
  1.9081691414278761  4.1157115415775989 11.6597350055754312   T   T   T
  6.4561297328279696 10.4012119795194948  0.8532907473866572   T   T   T
 21.9977367963523278  3.6813616611716093  0.5184934011447169   T   T   T
  4.0527319944539615  0.4799932329464104  5.4266620828995240   T   T   T
 16.5759825527025910  7.7485020444049377  5.3789554602056340   T   T   T
 20.4612386976351885  0.3693445738527909 11.8796710978761286   T   T   T
  7.6325427065726963  7.9787807893842366 11.6144516058161962   T   T   T
 11.7820133530183675  0.8529930110191792 -0.8318777064640248   T   T   T
 -1.9928496631520953 12.1721722424969983  1.2032199725375481   T   T   T
 23.1111943504800976  3.6671914995607695  6.0413667153667614   T   T   T
 10.4725695661171088 11.4206042004032930  5.7085882328562683   T   T   T
 14.0620683611010158  4.0797153334252281 11.5985956606718581   T   T   T
  1.8181768697264622 11.7111090829534454 11.5332755092185373   T   T   T
  6.6119714728356032  2.3453218277856642 -0.0084064040311603   T   T   T
 21.0933054212248123  8.1435573759555560 -1.6333562140526507   T   T   T
 10.1510332460629087 -1.2321640704794969 18.8782634363919364   T   T   T
 23.0667933319990723  7.7944020826741980 20.2407195841023331   T   T   T
 25.2786964147622299 -0.7916148828523016 31.4008632441618758   T   T   T
 12.5178121663405548  6.6648302438886891 31.3608390276793827   T   T   T
 17.3292114286613668 -0.6870577330731586 25.4069667326924886   T   T   T
  4.6683548283293499  6.5598455485142839 25.3046148209446891   T   T   T
  6.2793463377466674  2.9128462002791307 31.5060776561945524   T   T   T
 19.1726518157604744 10.3117669663194356 31.2593636370195078   T   T   T
 23.5232498306462219  2.9174982875972972 25.5054359884423256   T   T   T
 10.7249275318742523 10.2321412427208607 25.6528675480946795   T   T   T
 16.0798065254936517  4.4740657439573175 19.0528462125074363   T   T   T
  0.1317098819373648  8.4820716083796626 17.9347212872068411   T   T   T
 12.3694058593044218 -0.4835770002510010 31.0750618234468945   T   T   T
 25.2597293570239643  6.5311140205334395 31.5522483032911758   T   T   T
  4.2372552922848099 -0.8255432606185130 25.5609127518176997   T   T   T
 17.2405863934366153  6.6113397553026534 26.0001353695925204   T   T   T
 20.0119980472381584  0.3652990676798845 17.7759519210903498   T   T   T
 10.1186619822380646  8.4303590471258829 17.5973704201234398   T   T   T
  6.5589582802540303 10.2988278293372062 31.3364806434663876   T   T   T
 18.8273466947083037  2.7533074601906016 31.3752870540111104   T   T   T
 23.3659317977286989 10.0181627632391539 25.2770644954703592   T   T   T
 10.9157796188101450  2.9293899904738270 25.6520879526680723   T   T   T
 14.5282249102251342 11.6171360680081577 19.8738332054663651   T   T   T
  0.4763128956752316  2.7062964507660490 18.6908952171117981   T   T   T
  4.5109821517923789  0.7204117849611074  7.5393578400574519   T   T   T
 16.6100245137691189  7.6010566673426432  7.3459196967516709   T   T   T
 20.2114316679822323  0.5945344825753901 13.8730337058166757   T   T   T
  7.7065751982570836  7.7691698503628901 13.5806437762665499   T   T   T
 11.9722191565249361  0.5845068784753509  1.2900469867333164   T   T   T
  0.0422798169999140  8.6062707611799780  2.1173738326790086   T   T   T
 21.4210302840468714  2.0004845390273687 11.1061175424852241   T   T   T
  8.3064642626350853  9.8236896620614154 10.8149416918519066   T   T   T
 16.1336440312094780 -2.7134215818535723 16.9859460674332006   T   T   T
 -1.8573211258034050  7.5728212250251534 18.1323682771976920   T   T   T
  4.8831814719398139  1.9926545377105531  4.2601415938066634   T   T   T
 17.6078152250329509  9.5714834563290871  4.7821271908266798   T   T   T
 21.6391271500407996  5.7198640863630184 11.0928142458911925   T   T   T
  8.7426828922762763 13.5324460854745858 10.4755050657723761   T   T   T
 17.6710531827240303  7.0614661412081290 17.3280751600478062   T   T   T
  1.4905422483460056  7.8605247602526287 19.3798125177219021   T   T   T
  4.8818996365293117  6.1880934037387085  5.0323171143375474   T   T   T
 17.7679610727499409 13.5032416354315359  5.0838813905682914   T   T   T
  6.1674124283173297  0.8010811338632489 10.8000181133125324   T   T   T
 18.4781136325872950  7.2343340508698608 10.8535233359923069   T   T   T
 25.8950871789925969 -0.5877080946524892 17.3367564215406311   T   T   T
 11.6310606074206593  9.4715140861284652 16.5967954615328459   T   T   T
 17.2602702647174766  2.1960002555317728  5.0208039530901276   T   T   T
  1.8345429582829214  7.5323421161057995  5.3093929360854126   T   T   T
  2.0167142867418155  3.9034015465990266  7.5642988055969269   T   T   T
 14.9842009396407718 11.3063959158060179  7.4721238329541597   T   T   T
 18.4146003761518600  3.9978268271365796 13.9333433163715092   T   T   T
  5.8402293714851803 11.3545067728687208 13.0013815725613444   T   T   T
 10.4644861577904944  4.4905142899552715  1.3130698522061719   T   T   T
 22.2188680862951031 13.3606043648719819 -0.4392557926113446   T   T   T
 22.8532733785146505  4.0172485216509299  8.1580196014305990   T   T   T
 10.4666272491891963 11.3193551157122130  7.7392569148684451   T   T   T
 14.0869020453167835  4.1974621045782916 13.6681068235232264   T   T   T
  1.8139676595274086 11.7643865198236739 13.5829077954334352   T   T   T
  5.9173583111598713  3.4991569552590951  1.5624796765786548   T   T   T
 18.5005790448244696 12.3341041596721439  1.3624234458725712   T   T   T
  2.9315469172003064 13.2504163761096265 10.7669357480505141   T   T   T
 15.0892332240518332  5.8463594870866746 11.1836863610552708   T   T   T
 11.9235432764808262 12.9750020607448207 17.6853744598709319   T   T   T
  6.4515821532476529  8.5304533099907687 17.5105076475604093   T   T   T
 11.4480358109379612 13.1238479362829352  5.0816126219302049   T   T   T
 23.8444266869114330  5.3110494480171369  4.9480777987087547   T   T   T
  2.6876486420301267  2.4086538670994182 10.8008782676807442   T   T   T
 15.5427275956062143  9.5256561840610487 10.9607307110435528   T   T   T
 13.3213704627532579 -1.1812468821045585 19.2514885876915329   T   T   T
  3.2509404688241932 11.2433936403509094 16.8577102760031430   T   T   T
 11.1832220272397631  2.5411972425549454  4.7879823572770022   T   T   T
 23.9165949269687204  9.5461843867085534  5.2804738830064126   T   T   T
  0.0219511129550011  4.2514122357803723 11.0626340870164039   T   T   T
 12.5914687339267903 11.0200018441294496 10.8240406865277929   T   T   T
 17.3292710507146168  1.4293644526183151 19.5607840991881758   T   T   T
  3.9974403795750884 14.7274773637734100 20.4891995621523400   T   T   T
  8.4181646146656650  4.3773253820407367  4.7804364299941851   T   T   T
 20.9874012568882264 11.0956854825366413  4.8889078524632579   T   T   T
 -0.5260528695041454  0.5000645933530542 13.9841262641346820   T   T   T
 11.9704043292275930  7.8004114371236186 12.9363481373226659   T   T   T
 16.1949866804363722  0.9385007468295666  1.4043355753804316   T   T   T
  3.9739704611719628  7.3841316936863413  1.2742150761172879   T   T   T
  8.3072684219339656  0.4628119996813103  6.9421838731743186   T   T   T
 20.9755108177200924  7.4447346325299888  6.9037686954062050   T   T   T
 23.5679065363368352  2.2556026276804384 -0.0344042417984846   T   T   T
 13.2016200348458970  7.5549308787772533  1.4176693581130235   T   T   T
 14.6653488757001877 -0.0569865528589898  5.1781227922951008   T   T   T
  3.9479845141525129  7.7598407613913993  7.8184472314661377   T   T   T
  7.8843777674619222  0.0321941501053699 13.5213874836753210   T   T   T
 20.4660169799102079  7.5434851853910496 13.6522530795329686   T   T   T
 21.4517632187118963  9.1140313067400385 10.7590773778093762   T   T   T
  9.2563136778176940  2.0677282229683733 11.2560677400948386   T   T   T
 13.3629049773468118 10.2559460175905244 20.7457889205889749   T   T   T
  1.2873718152496949  1.4041012617785624 17.0970079693433590   T   T   T
  4.5001778161294803  9.2753464920939237  4.5917885448098428   T   T   T
 16.8255672659261108  0.5413083556977800  7.8264227945147811   T   T   T