Li P  S  Cl
 1.0000000000000000
    20.5609999999999999    0.0000000000000000    0.0000000000000013
     0.0000000000000033   20.5609999999999999    0.0000000000000013
     0.0000000000000000    0.0000000000000000   20.5609999999999999
 Li  P   S   Cl 
 191  32 160  32
Selective dynamics
Cartesian
 -3.1774714849399737  4.8516893987287135  2.4280159278745210   T   T   T
  3.7675071303492800  7.5149033978899524 10.2822302169525095   T   T   T
  8.0835492508629230  0.3367012505152869  8.5326094018154706   T   T   T
  7.1981665894419606  4.7405234164034411  8.6397981691335417   T   T   T
  1.4652564939029500  6.4484565437550092  6.3308305761345851   T   T   T
  3.7557954818049497 -0.3800048992553383  3.1180910929445029   T   T   T
 10.1314095808459204  3.6513114244023548  7.1609198132588032   T   T   T
  8.6232302703475057  6.9639279134012702  4.6389927008806806   T   T   T
  8.0051809984142608  3.6722658268960249  5.6825410190148560   T   T   T
  7.4095145107145317  9.8830836335504504  4.1149163448735715   T   T   T
  3.9487738269520616 -3.3936606112126917 -1.9262371941356593   T   T   T
  3.1852771109712297  9.8193216249875501  7.1019449520009177   T   T   T
 10.7217345543153986  7.2827903697761096  2.8672979184274046   T   T   T
  9.2942157408028496  2.3383305116339077 10.1584866664651159   T   T   T
  0.1568538551526263  2.0239968362158867  2.1778589451540871   T   T   T
  4.1867571465528108  7.8234919971143881  5.4684602481838098   T   T   T
 16.1270496153261931  4.1999737662915875  7.9393073204609941   T   T   T
  7.5195195062828084  7.8322278098817355  0.2905217538622443   T   T   T
  4.4145585018683864  6.1105549968244839  7.9342653641189020   T   T   T
  0.8250757471153626  7.9928291480814133  9.2000403702244942   T   T   T
  4.5396681356522395  2.5708820954304432  2.8245872167694395   T   T   T
  2.2725273422409238 13.8778188322782654  4.6872389294374939   T   T   T
  5.8795026365061922  1.8670142825970830  6.5599919507879285   T   T   T
  7.7379537410880177  5.7074698040574114  2.7796171016572662   T   T   T
  2.2710334926286824  0.7973485757571351 12.1111359920151340   T   T   T
  2.8518543396171303  5.1877413663576286 18.0437801465674497   T   T   T
  7.6019939894030912 10.4273637232776064 13.3808699445092998   T   T   T
  9.6677778515216044  3.3225534886309349 17.3819545720467659   T   T   T
  0.7509345375040715  7.3405237852224818 15.8575526511568068   T   T   T
  3.1304107918051436  5.3668775558655728 13.1123310944758078   T   T   T
  7.4561966025268056  2.7043810995298045 15.8214903651641450   T   T   T
  8.7782807090176078  9.2550117212245819 11.4335811201353597   T   T   T
  9.3328239856980559  0.6354246096666371 18.5006213654993132   T   T   T
 10.1868721508641347  7.7502488110328702  7.6720386643764487   T   T   T
  4.7101783019002896  2.2830947897335019 14.4327167149928712   T   T   T
  2.2264127899779522  4.7237475646217852 23.5767274837352332   T   T   T
  6.8632906628789483  4.7528616691381673 18.6372437298894056   T   T   T
 10.0260192168988986  8.0143108704852715 14.4201057489058240   T   T   T
 -0.8647247593228788  1.7662228574321108 18.2989620367089572   T   T   T
  2.0013266310201754  9.7992170185315821 18.8638812219906384   T   T   T
  3.1091251356515111  7.2786232524435359 20.1853760993167270   T   T   T
  5.8789184710008682  7.4860982717030584 12.5303481220812216   T   T   T
  8.6132106290538566  5.8810071839262710 13.3825935254185477   T   T   T
  2.2045376861984627  3.5924947834378615 15.3257116142138177   T   T   T
  3.7584566238796775  3.5134429048387443 10.8548171554294992   T   T   T
  4.3824654380638766  7.5887693052528951 17.1623283552197918   T   T   T
  9.8047871233611925 -2.2064002663416336 12.5957488501139903   T   T   T
  7.3542227951847190  8.7886583340296838 15.4354035519215902   T   T   T
  4.5300031591830843 13.2004842204208472  2.3476130186129014   T   T   T
  2.6358152678405111 20.5064063386636874  7.7329210812971816   T   T   T
 12.3870235412330540 20.0648141016697679  7.7499605453555516   T   T   T
  7.4807484947210448 10.9990983803290820  9.3930573542242275   T   T   T
  2.4842657599628293 18.1353482149730567 10.3080129999435144   T   T   T
  2.2417862262218562 15.6860267101934028  2.5317188773989185   T   T   T
  5.4937260507888217 12.1573802736912331  6.7389824432664032   T   T   T
  5.8242731313205960 17.7140955952200727  0.9642670872940438   T   T   T
  8.0771083089812414 13.1943198512821915  5.3340199102734607   T   T   T
  7.4408273161696172 15.6344498524217137  2.1009468937964506   T   T   T
  1.0768715459062097 12.3581775078393719  0.7571600388892906   T   T   T
  0.1732449356495414 18.6186199371721131  8.2612190629464219   T   T   T
  9.9191823148774336 16.3612924700337814  3.1709280182570052   T   T   T
  4.4921341777884214 11.7119811361864130 13.0621154031518980   T   T   T
  7.6675350092469978 15.0542087698145899 -3.2998131951329199   T   T   T
  1.5863840058567589 15.8129914905782787  7.3113111571466565   T   T   T
 10.1106326933921498 12.3523660364021328  8.1735415112967136   T   T   T
  6.9935063980103038 18.3745497420888881  4.9377744798580085   T   T   T
  2.9299546033520265 18.4704314768509477  5.4509414479342624   T   T   T
 -0.4554263889357405 13.2691765205787213  3.2821008419760558   T   T   T
  2.6804654082900132 10.5974419659341184  3.4113344140638739   T   T   T
  4.3518309440314891 16.5560354544249648  8.0322331260117323   T   T   T
  8.6183357814809298 15.1193953280817368  7.5153406422861391   T   T   T
  8.0876094785548887 20.2712192118033911  2.0312095833100874   T   T   T
  6.2976300578318316 14.2528994029940641  8.8126343702827477   T   T   T
  0.0139533894554437 18.0065918216834930 19.9174660244158872   T   T   T
  8.1224185579433801 15.9631967020355159 13.2454009114828484   T   T   T
 11.0302414327554281 13.5591875985532777 25.0297584872566077   T   T   T
  7.2408241868076990 12.5650485808635199 20.5783590981533777   T   T   T
  3.2677745235453752 15.1785685400027130 12.0934077435597693   T   T   T
  5.0333662103280297 13.6218212801321670 18.8458355052101965   T   T   T
  6.1347536594195660 21.4649425650822963 17.7381775135521522   T   T   T
  5.8707649827132871 10.8635014549195539 18.0205293232910364   T   T   T
  8.2177878129319399 18.6588468794750497 10.2800961456707789   T   T   T
  0.6156861704354694 14.1466560956447776 13.0342072978916370   T   T   T
  1.8899729674043211 20.3159943791787398 19.3023992806665277   T   T   T
  7.6336642024290260 20.7823914669459739 12.5028130225309599   T   T   T
  7.1034363852225946 12.3003967465860669 15.8352554393716876   T   T   T
  1.3860483331357181 11.1140083330139383 11.9580274138932161   T   T   T
 -2.7463505654302671 16.3707077489841453 10.8533575862451741   T   T   T
  9.2186136416291244 11.4399035436735090 18.9867707918707396   T   T   T
 -0.3022814082922513 17.6208886062923256 17.1431629966727783   T   T   T
  3.0989249230024343 13.0113055522500289 10.2391594518654241   T   T   T
  2.6063856955869089 12.8010530896508712 15.0097274203666977   T   T   T
  2.8381260184757018 18.8489000408018157 16.1819034003387188   T   T   T
  5.6843589104355479 17.9817344358062812 12.0486378785879218   T   T   T
  6.6051257424371768 18.7166990940235678 15.0415041542365415   T   T   T
 13.1649972210231994  3.2532501271735375  0.4484509241442740   T   T   T
  9.0239359260206857 10.0871902828915037  1.8314109580533962   T   T   T
 12.9364451660523976 15.1063193554938699  2.1512638611102983   T   T   T
 19.5302637327672457  4.4845448901617804  8.2376815281091940   T   T   T
 13.1979374314822024  5.8805971949601394  8.9445625375079949   T   T   T
 13.6345831976119758  1.5819324114442797  5.1713930348865018   T   T   T
 18.7995392271190553  3.1518714993769841  5.2192226465865703   T   T   T
 15.3730624184876827  8.2144604825715710  3.0113042026754684   T   T   T
 18.9134735050521741  0.3621886336426079  8.5444205334340708   T   T   T
 18.6711477899415499  9.8344536651412646  1.5944529360516295   T   T   T
 12.0927081762521809  0.1854398739460655  2.8479634427764244   T   T   T
 14.2186769506894120  9.4204472785525653  7.0522118589382767   T   T   T
 17.7553209085920329  8.9382887845571641  4.4117951385277649   T   T   T
 20.0623564227402369  2.3303517799479629  9.4968627065185593   T   T   T
 14.9529873841949659  2.2151375160701998  2.2942471282395989   T   T   T
 18.0297562356808427  5.9856512507890329 11.5939913671428219   T   T   T
 17.3432073796490229  3.4539245267752725 10.9060731818310899   T   T   T
 17.5203261673433985  6.9910170385284536  0.1327521254801392   T   T   T
 12.5237419921833339  8.8326591577980977  9.7413034251774313   T   T   T
 10.3840298421249599  2.5435358308565688  2.6174545756257239   T   T   T
 12.2482930901724423  4.6045764565482923  3.6247465203105218   T   T   T
 12.2619357835251428  6.8842412164869469  5.4859858446766676   T   T   T
 23.5869377270003611  3.1057460027766575  0.2463133423002083   T   T   T
 19.9255816575567977  7.3365215131329933  2.9079729762163522   T   T   T
 12.6296874583335565  2.4817367784889917 15.5260297095909134   T   T   T
 12.4960546757874607 10.3555048049170590 18.4162941361176209   T   T   T
 17.4402614409866530 10.3410578488901486 13.7893086039409862   T   T   T
 15.0585231509116202  2.9213019296896126 18.5309133115053157   T   T   T
 10.4871253971371452  7.8547986624311719 18.5033386974563498   T   T   T
 12.0291469249843885  4.6906805995632599 12.8124768344308340   T   T   T
 17.3435112999985108  2.8850054936278000 19.8233805016032747   T   T   T
 17.7490370251139140  8.0050639507965524 14.9133450845831881   T   T   T
 19.0680212142351664  4.3907729516834708 17.1879494030529898   T   T   T
 20.2529874999128339  8.8790688067679113 12.2794827962909565   T   T   T
 14.7525276727728603  3.4975516717345179 12.0477049465631918   T   T   T
 12.6344839692740525  5.5846481940623027 16.9424228164815105   T   T   T
 17.8990036481655892  9.7540062433588428 10.6631199465021531   T   T   T
 22.3245002143002296 -5.5017848657265604 17.2915214172516372   T   T   T
 12.3502585553420090  2.4470867619531669 10.4252782407777058   T   T   T
 15.1182793718449044  7.3967638012011117 17.6034512089296413   T   T   T
 17.4969921585166617  1.8292329142914696 15.2942953703459494   T   T   T
 15.4557374835777832  8.1142851269111365 12.8976544593476721   T   T   T
 13.4199927060676885  6.9433338260925348 20.2317225169715300   T   T   T
 10.8796111303970502  1.3480563915125614 12.9088387044642996   T   T   T
 14.5564765263448432  0.0579488585156805 13.3420756890653873   T   T   T
 13.2675699384918673  8.1217083885484165 15.5400711039646140   T   T   T
 16.3287611948677807  0.5491573815259970 17.4178802502504126   T   T   T
 21.1877816409935065  3.3362792636620178 13.3188854837619868   T   T   T
 10.9946815213643347 12.1417126833620443  1.4397002016171623   T   T   T
 16.2093809797696338 21.9919353270895144  8.1982450219071517   T   T   T
 23.3559175328422555 22.3433859406375817  4.9867315982214437   T   T   T
 18.2142701186333156 10.9640035724840565  6.5628960737130626   T   T   T
 13.3807045865171297 18.1904198439381588  5.1317917865804343   T   T   T
 13.3019051020853922 10.6904114764303504  4.0667569246267439   T   T   T
 16.2128347468233258 12.4706927066352637  5.5016678549662235   T   T   T
 17.4262385216539286 12.2441975617917240 -0.6063793644259086   T   T   T
 18.4746557250780015 12.2529200836472683  9.4317008842940417   T   T   T
 17.5506104310640865 20.2785785824215168  3.8286125919733278   T   T   T
 10.1627416712535315 17.8101829028468615  6.3033239011084374   T   T   T
 14.9263485613694140 18.8325075672017235  7.6052991724254273   T   T   T
 19.8956858005137249 17.5412499030961158  4.4625039517943064   T   T   T
 20.4515845197916448 13.1596142596005752  6.8769243439412682   T   T   T
  8.2464771225814992 18.3092970173245320  0.0508507287702493   T   T   T
 20.0820306477007833 19.9801561250835320  2.0702955082969443   T   T   T
 15.7054186206670465 13.4650266844307698  8.5633301806487392   T   T   T
 17.1820586018577686 16.0839799727867856  2.0482087524160879   T   T   T
 13.4166559392992397 15.3192762656690213  7.7099562438407485   T   T   T
 14.1635254033030780 13.5716831761493033  0.1265793156150470   T   T   T
 15.7121025728975194 12.9472213563975433  2.6276412251027903   T   T   T
 12.4696234552688949 17.9379268444725142  9.6898354335684722   T   T   T
 18.2165940284598662 15.1506322142314325  7.1930852324808408   T   T   T
 15.5984589629061698 18.2393275053163535  3.2518747300060045   T   T   T
 12.7898828754215295 12.1393706969748756 14.8984902487348219   T   T   T
 13.0721020128483669 15.0717777929686321 17.8621499364130116   T   T   T
 18.4593802371557345 20.1511922266501529 12.2667656142838695   T   T   T
 20.8832899686277358  7.8082861371956440 19.3588213774789324   T   T   T
 14.1547526898760481 17.4113470419099059 19.6437778955578040   T   T   T
 10.6296190240003625 12.8076563861459007 12.6323060133981855   T   T   T
 17.3259722673594254 14.4546031263963375 17.9055495381887297   T   T   T
 18.0169040361642914 16.0065044836086088 14.3572632348526401   T   T   T
 20.3374431402231934 12.2198822057820671 18.3892277037412413   T   T   T
 15.9480877777018257 17.8155563051754342 12.4284805011319204   T   T   T
 12.8888851436869185 14.0259584765365606 10.7893478151978552   T   T   T
 13.0489667610556968 18.7768826528567772 16.0720047145415492   T   T   T
 20.4442658693070172 17.0133300937682748 13.4344752682042543   T   T   T
 15.8115169007779492 11.5299953417492755 16.6527720150497842   T   T   T
 15.0390502100008643 13.6261301712022522 12.5646305658675654   T   T   T
 10.6532492546931046 16.9417429424256838 17.3122042811327859   T   T   T
 17.7723581360699825 19.2379332928255309 20.9795594259108356   T   T   T
 17.3959702894726291 18.7761012685198594 15.0977518811784748   T   T   T
 11.8783761910006476 20.4653174324244205 18.5532801482516945   T   T   T
 12.9355961160728263 11.2957796101556713 11.1584068541279695   T   T   T
 12.1447882812005048 15.3372868973339074 13.7912761399015658   T   T   T
 11.1471947877580000 18.0545731893652643 19.7917981041028952   T   T   T
 18.9715592373957023 13.1756949970125774 15.6428602487739052   T   T   T
 17.9931473884422957  9.9574347519622748 18.0544576597781230   T   T   T
 -0.2504478678640647 -0.0394269606258725  5.2282512198939770   T   T   T
  5.0405604537421933 -0.0711632249031110  0.0350062642893469   T   T   T
 -0.1191639371707367  4.8609491910273555  0.0299922938900863   T   T   T
  4.9862962536304680  5.0188719088624145  5.1032715405723881   T   T   T
  0.0639557300662820 -0.0665900325970481 15.3313642593816972   T   T   T
  5.1619618780577259  0.3886214919937247 10.3014845464592000   T   T   T
  0.3819317607398797  5.4090999302091998 10.4903606817354564   T   T   T
  5.5031524546986876  5.3269149352094933 15.5753138876629045   T   T   T
  0.0310192443933829  9.8495158460571250  5.2794745607571940   T   T   T
  4.6921929902639521 10.3395750892121701  0.1031948938862226   T   T   T
 -0.4237420108072867 15.2149154095446555  0.0809682476383631   T   T   T
  5.2225025556075169 15.3039130423654743  5.2412670493756979   T   T   T
  0.1326135635257239 10.6937117252950422 15.1100987160236500   T   T   T
  5.1940314227086901 10.3586687670851703 10.6362361430258314   T   T   T
  0.1046761345909687 14.9857499506503284 10.1005170447929018   T   T   T
  5.2046438825382797 15.5343633324954773 15.5444255600398762   T   T   T
  9.9242002323821197  0.0000804182708136  5.3982734258372318   T   T   T
 14.7220384779221085 -0.0394806992066756 -0.2068385610421626   T   T   T
  9.9930439785155389  4.8476036037024040  0.0536593157404110   T   T   T
 15.2865381110190839  4.8142236495855633  5.2895845473751351   T   T   T
  9.8915450046398004 -0.0716120082667052 15.4567753619873383   T   T   T
 15.2341974715612043 -0.1755719004105996 10.2226821551659075   T   T   T
 10.0879195902707046  5.3762531849295216 10.1674498024198332   T   T   T
 15.4482452357536566  5.1444685721233645 15.0346894444957258   T   T   T
 10.3983514772971368 10.0696143525693920  5.1481006974879389   T   T   T
 15.5195558490024670  9.9034330466615472  0.0196343363797215   T   T   T
 10.3193728127566207 15.0329329793231583 -0.1247519297413986   T   T   T
 15.7156057860286644 15.5172192085715235  5.0449741869635112   T   T   T
 10.3963238293420694 10.5484193974738183 15.7978381474651783   T   T   T
 15.4371158451268933 10.3878516616911583  9.9745477519039252   T   T   T
  9.9393058771729521 15.7083022798854781 10.1675930044348384   T   T   T
 15.5049317026050772 15.5241853240856749 15.0974345321851011   T   T   T
  0.8080795920998218  1.1524634469937900  6.4197610064380273   T   T   T
  1.0952798108044408  8.8671988318560189  4.0083747659443381   T   T   T
  8.8860609994549122  9.0463513897071604  6.0705090744712589   T   T   T
  8.9688963294553528  1.1345000263967344  3.8683036689947201   T   T   T
  6.1310776352405574  1.2712751187898648  1.3822863905080260   T   T   T
  3.9503491246657458  1.5937967440869589  9.3366247369632536   T   T   T
  6.4155890824671493  8.8109908386255924  9.9243791617833139   T   T   T
  3.3116524411310246  9.3287246988529713  1.0083706448650986   T   T   T
  0.8988471884019843  6.2682693062808514  1.3531353255394500   T   T   T
  8.9026529927304008  3.3338536746549430  0.9765073437019096   T   T   T
  8.7640185668596242  6.4695237612348580  8.9644190525358791   T   T   T
  1.5922759715683412  4.0873291409815433  9.3319213856389478   T   T   T
  6.1204569106247799  5.9714363021813384  6.3754165799056723   T   T   T
  6.5185643432937139  4.1139668043551954  3.9214638099562924   T   T   T
  3.8312824461418225  3.6917345021935750  6.0795785812031093   T   T   T
  3.8056396547551867  6.0816806693568317  3.9474373449982005   T   T   T
  2.4324737824246125  2.2764020346837186  2.5456158842653469   T   T   T
  2.8057705966994502  7.8526615839885068  7.9578331782733907   T   T   T
  8.3352545235739530  8.0246990240449616  2.4634972034715474   T   T   T
  7.8073540224560469  2.7435372771247004  7.9729028896176670   T   T   T
  1.4780434330283516  0.9508069573145203 16.4702029146612716   T   T   T
  1.5139056240023576  9.5364434290405899 14.1560337919917245   T   T   T
  9.1964816133651492  9.3080029294951974 16.8725453004032389   T   T   T
  8.7067051581750654  1.2976918205324837 14.3527062051592385   T   T   T
  6.5711500173561515  1.6874969443731094 11.1888576536290643   T   T   T
  4.2402241329313455  1.2512828534417908 19.3462229035053426   T   T   T
  5.9821253333290816  8.8875455874484111 19.3765679240641759   T   T   T
  3.8611106908250035  9.6275860500770403 11.8358807300488067   T   T   T
  1.3703350965195231  6.5628768761206144 11.8324003530773982   T   T   T
  9.2330734442283404  4.1534774975028643 11.6528271815651863   T   T   T
  8.7763080871032848  6.1959045907474835 19.6273581618222082   T   T   T
  0.9632481406100504  3.5847202800852749 19.4134000703261123   T   T   T
  6.5719177023381832  6.4779108199045181 16.7379086561339960   T   T   T
  6.7812310060001550  4.2922161046848863 14.2355990284683678   T   T   T
  4.4366473512767097  3.8929418299821537 16.6819590741062740   T   T   T
  4.1583322065784003  6.6888748071213220 14.7044336404184293   T   T   T
  2.8131874826243299  2.7876742217029462 13.0894149638694515   T   T   T
  1.9317808129827276  7.4064962869049422 18.0180465753318586   T   T   T
  8.1604287832668163  8.2969133701955453 13.2928193878787777   T   T   T
  7.7512448259343323  2.4292478866251002 17.9083372617888514   T   T   T
  1.2419584954355585 11.3164421428489774  6.2549247082766559   T   T   T
  0.9280549208389675 19.2202427356573793  4.0430953582547167   T   T   T
  8.5162373956046817 19.4893102806526954  6.4270529007508594   T   T   T
  9.5175931411995105 11.4138094746223562  3.8033368676484951   T   T   T
  5.9422073454237205 11.3198812498447037  1.2537014552387518   T   T   T
  4.4167597512559453 11.5737403888619799  9.0716212239803262   T   T   T
  6.2961446842563964 19.6117688988546703  9.1506798623911170   T   T   T
  3.6578393028094398 19.2611371117146746  1.0717533433422524   T   T   T
 -0.0496286717102380 16.4971304308857114  1.5381359944998190   T   T   T
  9.2454771464038181 13.7845641039956242  1.0737824565096732   T   T   T
  9.0224533856978759 16.9307641722430233  8.9873527118192733   T   T   T
  1.3147783348530366 13.9346513541382926  8.8297744400949139   T   T   T
  6.3018066055045621 16.6197203124830324  6.3469622319712560   T   T   T
  6.2239759628433076 14.1566010737396688  4.0197659425820058   T   T   T
  4.3113739972054139 14.2520834341606371  6.6791817073851583   T   T   T
  3.5774756700217871 16.3705461956106646  4.3447435104654177   T   T   T
  2.3467206191478955 12.9719606618137657  2.5541610970254252   T   T   T
  2.5591093294658656 18.3023074354328585  7.8744614770390546   T   T   T
  7.7617647228510602 17.8287902525430155  2.5403619889197770   T   T   T
  7.8061778123642025 12.7568647146817540  7.4605692509660342   T   T   T
  1.0805264003377104 12.1133528782971620 16.5211128852950466   T   T   T
  1.1698772127730404 19.3879151398318399 14.2228337676145582   T   T   T
  8.7277332494826609 19.4517438361768242 16.7198650285650388   T   T   T
  9.2113678383227580 11.9359411841730338 14.4896951950903858   T   T   T
  6.5601749320981728 11.5415541168936961 11.5392580461720637   T   T   T
  3.7822375985847425 11.3926398062424017 19.0236459574171164   T   T   T
  6.1923660806050371 19.3212865048584206 19.3560185136586540   T   T   T
  4.1174207682692021 19.8668872714254121 11.7775666722077670   T   T   T
  1.0396919939902598 16.1923849946011487 11.5382344141672828   T   T   T
  8.7470219795089719 14.4628714877905313 11.0700788070757987   T   T   T
  9.4749365886235726 16.3744284136636651 19.2404676422206009   T   T   T
  1.2487447665832145 14.2125668874706630 19.9016110749901500   T   T   T
  5.7287611907435299 16.6760092284836645 17.1473492190597838   T   T   T
  6.4392197449094670 14.5181441174849155 14.5438416440865890   T   T   T
  3.9403635614280534 14.1637080928982773 16.5360857135803201   T   T   T
  4.2096540934255966 16.7941174110746161 14.1351095874780448   T   T   T
  2.6187337037793439 13.0336168043069645 12.6436978531738138   T   T   T
  1.7186115170311052 18.0500130723819296 18.1693264231855238   T   T   T
  7.7369305024354640 18.2084342587963093 12.9718154687113021   T   T   T
  7.2494655889886870 12.6987067837726233 18.2116019180331108   T   T   T
 11.2299499772535878  1.1035154073066804  6.5944451243404334   T   T   T
 11.7082090556425253  8.8540511674303630  4.1565241254040410   T   T   T
 19.2733184758925447  9.0553223783827175  6.6226957237568058   T   T   T
 19.2183245061369234  1.0944079201255192  3.9374656884252546   T   T   T
 16.3500527895674068  0.8822486658809349  0.9352040714772513   T   T   T
 13.9466591870475742  0.9306186428741091  8.8941727103481547   T   T   T
 16.7417357440720593  9.6020834279269121  8.6372105129034260   T   T   T
 14.0957864317908417  8.9666680155403746  1.2473093422551136   T   T   T
 11.6375887102492186  5.8943228252338074  1.3076262171542721   T   T   T
 19.5124114947640734  3.5386830001080205  1.2656559923048400   T   T   T
 19.6357965896611901  6.4410036598718312  9.4515753174593709   T   T   T
 11.2387902561135267  4.1614399952064201  9.0425991552578786   T   T   T
 16.4123207434750285  6.0057602616914796  6.4846241285287602   T   T   T
 16.4650907482841831  3.5459147547088521  4.0582937719771781   T   T   T
 13.9903884559422256  3.7403941184439375  6.5886959908809279   T   T   T
 14.1298246802612351  6.0366021440997422  4.0290726026322385   T   T   T
 12.6215253088655039  2.3393044766186213  2.8186594155654121   T   T   T
 12.7159348051652152  7.6256191569722160  7.6589852802458340   T   T   T
 17.6804598709968772  7.5918578254114903  2.4421643179797807   T   T   T
 18.0213377214620536  2.7322682896901060  8.1556956629691033   T   T   T
 11.2196333344119186  1.2324022425346846 16.9483198198841123   T   T   T
 11.6481981392194989  9.5448882337277983 14.4532640443504281   T   T   T
 19.1999804962876510  9.4982187951825292 15.9853737070303303   T   T   T
 19.5465089012060318  1.3973828422523873 14.2701144547146956   T   T   T
 16.0449056719847576  1.0416115160411121 11.8115786859225746   T   T   T
 13.5456996996735537  1.4820065955266053 19.5010407279816604   T   T   T
 16.4071383940944600  8.4542686565416183 19.1583268699270661   T   T   T
 14.3567071389631504  9.2080560145958810 11.1829629751515860   T   T   T
 11.2496317271801072  6.7774316702603006 10.9832488543178233   T   T   T
 19.6663522770830639  4.0656032493270420 11.6972032366763887   T   T   T
 19.1438817841308975  6.0692453528901638 19.4812040498950054   T   T   T
 11.2776068826520444  3.9395314437902025 19.0136161869954563   T   T   T
 16.5607017371671006  6.1402532603558937 16.4045177055512497   T   T   T
 16.6554447924511351  4.2128478056921290 13.7904731270670968   T   T   T
 14.1585453446408316  3.8943121902603548 16.3167930623865090   T   T   T
 14.0400859192526681  6.4124840161343917 14.1088635788546863   T   T   T
 13.0088683977615780  2.0697229980687788 12.4621734804014892   T   T   T
 12.9282034903974807  7.8363977815162373 17.8875912095909158   T   T   T
 17.8771616007188427  8.0391925747868047 12.5517871264232834   T   T   T
 17.6176067964386860  2.2162486935702268 17.7876861320326611   T   T   T
 11.4950323732456035 11.2551314370623743  6.3696326320104530   T   T   T
 11.1652065719847791 19.0501517495048134  4.4045335647653188   T   T   T
 19.3519820821725048 19.3585761346085548  6.5118425498904173   T   T   T
 19.1547454673423374 11.0708993225775281  4.1195769125769823   T   T   T
 16.7289154721401800 11.1502772930032421  1.1366515195479707   T   T   T
 14.1144553269829895 11.6870271203649256  9.2018732367021006   T   T   T
 16.7357150931954735 19.4724459167519015  9.0595531814877752   T   T   T
 13.5253859615609358 19.5548571307097205  1.0154993666941667   T   T   T
 11.4094597736858638 16.2870392956083734  1.1513796762480559   T   T   T
 18.9291478624626706 13.7949196545298420  0.7458382963711148   T   T   T
 19.6718964071804479 16.3643095140359449  8.9774434257563556   T   T   T
 11.2791372507600745 14.5723170323968532  9.0970134214986498   T   T   T
 16.4335178788814176 17.1251722293898538  5.9255285747224820   T   T   T
 16.9635350251881576 14.1569864631254241  3.8980700162787159   T   T   T
 14.5447056491354392 14.1664455978886465  6.1365158147650076   T   T   T
 14.1868306402281572 16.2682907973612814  3.8930769864537145   T   T   T
 12.9841078248392652 12.7659081150223095  2.5970780130207047   T   T   T
 12.7447129985246264 17.9626950516436992  7.2405853548910937   T   T   T
 17.7772977468820557 18.0926161999349659  2.7915329578665249   T   T   T
 17.8771112678353106 12.9433653103575139  7.3623767414448729   T   T   T
 11.2226037054673622 11.8138893895979198 17.0629849637654942   T   T   T
 11.3705120346067705 19.6297273856403294 14.1861337927798878   T   T   T
 19.1886669535043097 19.4908630199509005 16.4797210466298907   T   T   T
 19.7662630478842800 11.5861292340760080 13.5640252865811561   T   T   T
 16.5242417902797243 11.6297266066242422 11.1942574551671807   T   T   T
 14.8165281355608549 11.3611769140115673 19.1443119977910783   T   T   T
 15.6991952621609396 19.2896229027446182 18.9616910135481902   T   T   T
 14.2213888991826956 18.8927469497346507 11.0771737299652830   T   T   T
 11.0353806238854588 16.8501176667702950 11.5836739793110173   T   T   T
 19.5744224568279606 13.6480771940583292 10.9627836796199372   T   T   T
 18.9280848982929797 16.2041411650214400 19.2659968190636732   T   T   T
 11.8010487211117567 14.0455965784556636 19.5697841208851955   T   T   T
 16.9374981186170288 16.3948201666616598 16.3598491864612612   T   T   T
 16.7128424029355216 14.2868370146327663 13.8546375509816215   T   T   T
 14.2567755666960085 14.2195584973314855 16.1262740906592015   T   T   T
 14.2176407874034201 16.8636822937823680 14.2036926318630652   T   T   T
 12.8335689393846426 13.0291633350533793 12.7565971239530160   T   T   T
 12.6691109853584294 18.0108359007371988 18.0048147592731524   T   T   T
 18.1648496818787848 17.8221164978111801 13.0119907986200669   T   T   T
 17.9725252171121355 12.0577294940953461 17.4306736248778051   T   T   T
 -0.5808131984795135 -0.4106613900675959 -0.0910821374520431   T   T   T
  4.3018591624980198  5.1655579829455283 -0.3906289351185027   T   T   T
  4.5461795891743684 -0.1587824548693251  5.2463224880972330   T   T   T
 -0.3114093260357154  5.4349966806278776  5.1985913086670461   T   T   T
 -0.1495293405615769 -0.0260927046903374 10.1517825590475290   T   T   T
  5.1025672436868810  5.4327857505885655  9.7070233354603843   T   T   T
  5.4803595267922942  0.2842832398361191 15.2676904506064854   T   T   T
  0.2531338193860084  5.0068904439150863 15.2839800467056524   T   T   T
  0.0095195710848484 10.4886532707058286 -0.7311807375563997   T   T   T
  5.1475551387414624 14.9660177323885968  0.7270064390386599   T   T   T
  4.9251320030837471  9.9365123071498527  5.2736632041563238   T   T   T
 -0.0461932611293987 15.1905964737314463  4.9432079057819704   T   T   T
  0.2178016004470513 10.0412143976505650 10.3793712134748635   T   T   T
  5.0310649793402300 15.2924793348791273 10.4810226194996012   T   T   T
  5.3763195620625819 10.4024505674287564 15.2182263853197473   T   T   T
 -0.5489374486350967 15.3098699847960713 15.2052462758748543   T   T   T
  9.8899430800088179 -0.5977730658835505 -0.0914170818679016   T   T   T
 15.8666026440063241  4.5731066595578653 -0.3996708903536908   T   T   T
 15.3150310777987748 -0.3273786390315165  4.9128344438851794   T   T   T
 10.0576786487496737  5.2008037397346687  4.9601858052537633   T   T   T
 10.0745681323310325  0.0127603485242611  9.9918255676722048   T   T   T
 15.8651562250742266  5.0786031620775756 10.2423030678518678   T   T   T
 15.6121280555958180  0.1481032091812261 15.2189574270139918   T   T   T