Li P  S  Cl
 1.0000000000000000
    20.5609999999999999    0.0000000000000000    0.0000000000000013
     0.0000000000000033   20.5609999999999999    0.0000000000000013
     0.0000000000000000    0.0000000000000000   20.5609999999999999
 Li  P   S   Cl 
 190  32 160  32
Selective dynamics
Cartesian
  5.3903925306299021  8.2585286701941829  2.2915214469943130   T   T   T
  2.5705327453605915 10.3738016909641679  7.3691183648909293   T   T   T
  8.1966694457958411  8.4813876794748690  0.5430829400654198   T   T   T
 10.2234411625062318  2.9014819531904652  7.2968892855886098   T   T   T
  2.0530772937615867  5.3174265834629333  7.4030242448853985   T   T   T
  2.0394296811531225  4.8931881464241265  3.3736166056708901   T   T   T
  7.6598423392535340  4.1598486975751801  5.5450860558364470   T   T   T
  5.8218549488420699 13.6802473279264980 -2.4824199525369930   T   T   T
  7.9640492764671231  2.1755013987981018  9.7293216084115777   T   T   T
  2.9743731926830557 10.5933325387483013  3.1513865781732422   T   T   T
  2.5177079562635907  0.7280005935202813  1.2476779212067550   T   T   T
  2.3847973932126512  7.6176056018365017 10.3758672781173669   T   T   T
  7.4779584984845053  8.7517015873959583  4.6012487370906374   T   T   T
  6.9984764304111620  0.8288255239914596  6.4554734953819999   T   T   T
  4.7396631092634092  3.1020245363399135  1.8300171112119825   T   T   T
  2.0228673165626772  7.5503795208837836  5.4772288517547940   T   T   T
  7.8440404377356758  5.1275489138536834  8.2103261420074602   T   T   T
  7.0598247442163364  5.3821896811881054  1.5614950802972847   T   T   T
  5.0177731934522667  7.0616719365843714  8.2602717567042436   T   T   T
  0.6294208173737822  2.1013697440132897  3.6411871250941439   T   T   T
  3.8207716565501957  2.5829658869759387  4.3068722012190346   T   T   T
  0.2326782642694042  7.7718958559156555  8.1122319467280253   T   T   T
  5.2546598716633381  3.3494501306356899  7.9667009910799482   T   T   T
  9.9302378930912969  7.4208799371612315  3.0182208963359440   T   T   T
  2.2101398061042197  4.6339772501954615 13.0273798364089259   T   T   T
  4.8666408880594645  7.9765251226008553 16.7925011186024875   T   T   T
  9.5392444361798923  9.1343238970661957 12.5528631772192050   T   T   T
  7.6538487121870959  2.5074805279615222 20.8928013667924759   T   T   T
  0.6382734237645019  8.5118280684075440 18.0602467745086983   T   T   T
  2.6486298140520868  2.0855037866816604 15.2002829430794826   T   T   T
  7.9482031991229816  2.7774686143869594 15.6978414439824085   T   T   T
  7.9609265518510224  7.2203266385587268 15.0618291132318998   T   T   T
 10.1160343745966745  3.2115162184723705 17.6119184696500888   T   T   T
  8.0727571151416431  8.7976303055775968 10.5794058261451696   T   T   T
  2.2553808710432159  2.5112126039661695 10.6917942667478574   T   T   T
  2.8300976087066569  7.6633624521075454 20.3072027311322287   T   T   T
  7.7212533755576969  5.8433530895625454 11.2436164429476122   T   T   T
  7.2590556960087218  0.2602037358105784 17.7368676404697965   T   T   T
  0.1197773179966453  2.4880706477863339 13.3275701714862631   T   T   T
  2.1573044524218821  7.3476183235682297 15.5140069777054279   T   T   T
  5.3281773576919980  2.4862077312939261 17.9422853699721472   T   T   T
 10.0061870286238168  6.1561098645819197 13.2963470640419281   T   T   T
  3.0085361014521941  5.5655048024656830 18.2990037495817752   T   T   T
  4.8023192100534500  2.8845807205482421 12.4184805059227141   T   T   T
  2.3377785410822760 -0.0936037202411391 12.5682966157288583   T   T   T
  3.6440356627948542 10.0385952393005571 17.0046271273710268   T   T   T
  7.4986084088915659  4.7733909712819269 18.3493282424167070   T   T   T
  6.1103030219057413  8.5146236537039659 13.3406567256938136   T   T   T
  3.9374069589062919 12.7177394374498061  4.6685157761110467   T   T   T
  1.6563222482433571 18.6340266530233443  9.5887591745257641   T   T   T
  7.9187348914339424 19.9641182275835334  4.1171030082307620   T   T   T
  9.0622848792280184 12.7794096799187038  9.8488537139977783   T   T   T
  3.3658372187043466 20.2733058959594103  6.9987532647926134   T   T   T
  4.8045754628306412 13.6029552232832067  1.9582697554798247   T   T   T
 10.2113679477278367 13.0971744745728174  6.9930127538469478   T   T   T
  7.4168543783524212 16.3445164598226675  0.8217665951046490   T   T   T
  5.7977677319283316 12.9030124802275825  8.4174826236505087   T   T   T
  5.1106824643584359 18.4248295836445166  3.3600766841636025   T   T   T
  2.2904334323092059 11.8610723949237151  0.1833827582130355   T   T   T
 -1.7772714131352856 24.9726097905022861  7.1857152282159813   T   T   T
  7.9749891786369709 16.0761220013713348  3.6531594389880082   T   T   T
  7.1824118029990496 12.1351932721180624  5.4084959505482280   T   T   T
  0.4685893190664163 13.0743126699850123  3.8208749545346508   T   T   T
  2.3960701407250373 17.8977363321854490  5.3298238048496573   T   T   T
  8.2044766971815033 14.8526901383309760  7.2130082649709601   T   T   T
  9.9942930925214615 18.0754199064260419  2.5497224050558369   T   T   T
  0.2765250078603992 16.8876433737291869  6.8281943126263478   T   T   T
  3.0371470934482168 15.9537818934775864  8.4671075549518626   T   T   T
  2.1012064380689095 15.2313056769931272  3.2752545738097902   T   T   T
  5.0582884326742672 18.2370398589398235  7.1911690791974641   T   T   T
  7.6474144214800512 10.4149727139721264  8.0209987255218742   T   T   T
  7.9962343425827331 19.7576415311156559  0.7738274415857114   T   T   T
  2.6825949104279041 15.2722763546426794 12.3558829777017305   T   T   T
  3.0678456382267014 15.4321790487319337 19.0307351228777435   T   T   T
  4.9164985771579914 18.3953758329819763 13.2694139261302357   T   T   T
 10.4825880535718809 13.0410398830802698 14.4567439329815670   T   T   T
  4.5078303765382621 17.8931133155119610 19.7730251106879500   T   T   T
 -0.0040915069488495 12.6208874866503571 12.7809889603911113   T   T   T
 10.0880044438428396 12.2852470053940213 18.1161157993198394   T   T   T
  6.9964406187979673 20.4096241582130347 13.4708987681046235   T   T   T
  7.7818150151241667 12.2794186902720526 20.2600849089101338   T   T   T
  7.5303090502576442 15.9903412433801648 13.1306116906296459   T   T   T
  1.9630407527004983 11.9549547278583308 10.6871544563004619   T   T   T
  1.5443846941187669 16.0182420359133175 16.5971672942655388   T   T   T
  9.3213272339433288 18.4153330005512110 12.5271809328268997   T   T   T
  7.1156287310880391 10.4654623331228258 17.3274362771805635   T   T   T
  4.7114810035042360 13.2127531123104092 11.9634154711494123   T   T   T
  2.8990777794572669 19.9518941186829366 18.1081283741875225   T   T   T
  6.1126868222117050 17.2758583089146107 10.6886210107081538   T   T   T
  4.1664611640291138 17.7581829105340319 16.3856175681738918   T   T   T
  3.6628026241653746 10.6247168645820658 13.5753128760958539   T   T   T
  1.9833593471467938 13.0908465095364139 15.0891768612845372   T   T   T
  0.4266560711151531 18.3397210546907594 18.7248231920261539   T   T   T
  7.9123986317931969 12.9826597356980429 15.4683923512543906   T   T   T
  7.3597397242165075 18.3971455689792833 15.2799375986255921   T   T   T
 10.5485757905094282  3.8191108115469614  3.4658070694445073   T   T   T
 11.4404799132544550  9.4449630877957791  7.5004857803056639   T   T   T
 18.0445922299019692  6.5312206707289064  0.3684425848398389   T   T   T
 18.2465690211550609  1.2712412996783886 10.5056841436316759   T   T   T
 14.4940519908898242  6.3950739862400976  8.2551918369910045   T   T   T
 11.9274055785517685  0.9010979964275138  2.2049936103128895   T   T   T
 18.0644890306378976  2.5335006006680527  5.3694427164122960   T   T   T
 19.3112856508890793  5.5622324978598376  2.9564289855164629   T   T   T
 16.1130188580295375  3.2706246793496709  8.3486049883134719   T   T   T
 20.2437641473774228  8.7528392558458705  1.8047995033759201   T   T   T
 13.0716613678663727  2.8201358746379528  5.0933167911195092   T   T   T
 13.5082711130781998  8.0810022383627746  5.1646045712043192   T   T   T
 17.7154543851371606  8.5499544152101610  4.7074587879009986   T   T   T
 20.2969366708773542  1.6937579159048450  8.1765593804775367   T   T   T
 13.0756124147862920  5.1038747900372243  2.6844450810867180   T   T   T
 11.1278298062824330  6.5122216430068862  6.8501726654390245   T   T   T
 17.9399388581838153  9.8803928195898969  0.7551409909144683   T   T   T
 13.1025875306141728  7.5732776623845641 10.0742007907823670   T   T   T
 15.3758701045677846  2.2000504308934259  2.7452023977635438   T   T   T
 13.3059782115437439  2.9289715178051150  0.4243403874800544   T   T   T
 14.6129923633923955  9.3019758311278249  7.9447127823187760   T   T   T
 16.4585249958572462  0.3091258923183817  7.7385003544544091   T   T   T
 15.8177167795502740  7.7621620521387307  1.7508760853582781   T   T   T
 14.1965944656184941  4.4155030861450664 12.4122278775063073   T   T   T
 12.3945908039285388  8.2651791998024429 20.2221841755781924   T   T   T
 15.8091496809388108  7.5484755871521632 12.3778297244075191   T   T   T
 20.4024575652611411  3.1434715655963101 17.7523078801811778   T   T   T
 14.9984185039520490  6.7433070237973833 18.4010182735329444   T   T   T
 11.9704022841227822  2.0603461260184384 10.4760192002423072   T   T   T
 17.9119261021225995  3.1394935850434447 15.7145558762254876   T   T   T
 17.2434357966085017  9.9567322020624118 13.3391438776766300   T   T   T
 17.4631993802202530  0.3782270257328793 17.4768155138483650   T   T   T
 18.2063487521505820  7.6069957633982979 15.2263686458440635   T   T   T
 12.7632298269648263  3.2205481993710445 15.4515705632880049   T   T   T
 10.6975740403286022  8.3288323456929891 18.1584391258047013   T   T   T
 20.0174214135068240  9.0001802772028938 12.0390563045213401   T   T   T
 17.8296632082393351  4.8633777670873197 18.6848282511801820   T   T   T
 14.7167827427065987  1.7650156603758753 13.2404547552451088   T   T   T
 12.5510859451206542  5.7298233671531182 18.0156430067641331   T   T   T
 19.3832043511349248  1.8774829690358277 19.8503619150171566   T   T   T
 17.9352379290258064  6.7028413122362958 10.7447348306273192   T   T   T
 12.9544280365448206  6.8993989589687139 15.8643033821917250   T   T   T
 12.2745632056188825  0.3712541794336219 12.6114924732510083   T   T   T
 10.5155310850268453  2.9425027201215479 13.3627569558182149   T   T   T
 14.3472356558581797  9.8308144977830541 17.7147749225796076   T   T   T
 16.2344167244470867  2.7754469361059653 19.2872540645462216   T   T   T
 18.6557611891249771  5.3566874541778011 13.3912651706478290   T   T   T
 12.9309303176180901 15.3024074005716724  2.7786618511326702   T   T   T
 12.7260773039124508 20.3236550706094796  8.5384207512340229   T   T   T
 17.2551344542845442 19.2579802684805124  4.4644435482155771   T   T   T
 18.5280121899612276 12.7886276382805839  5.5135199326043152   T   T   T
 14.5762834729836044 16.1368460839352679  7.6140944249681040   T   T   T
 12.3586155890259928 12.6161187902545713  0.0610399553034782   T   T   T
 17.2564173866962420 10.0531070833918008  7.0961516962529538   T   T   T
 15.5718925468115561 18.4621497590727301  2.4152036685690770   T   T   T
 15.5929045165957945 13.4198128298263253  8.0402716572858495   T   T   T
 20.3026162149210947 18.2247282704766533  2.0132082335787218   T   T   T
  8.2621154520307307 15.0403656303447875 -3.0180060197757501   T   T   T
 12.3079137632364013 18.0024266715687560 10.0945154867246867   T   T   T
 17.6450694463487494 16.1590703842429662  0.7903220121972159   T   T   T
 20.6417126017473294 12.3855696253516037  8.2127891508440509   T   T   T
 10.5583805174236911 13.4341760342545147  3.6532565269783461   T   T   T
 10.1213290287836184 18.7660097746207448  8.3933187016578170   T   T   T
 18.0489421548066957 14.3422231809918035  9.2524327406798630   T   T   T
 19.2961868543333637 17.2448917796218524  4.1564928080010271   T   T   T
 11.5611073841608771 16.5484867621739582  6.5321165743877438   T   T   T
 14.4993166286221928 11.9316234609697727  4.2663124732504558   T   T   T
 11.7853344164664549 10.8954755586435521  2.0632607664375024   T   T   T
 13.5143285947071714 18.8657246553767663  5.6408622243640894   T   T   T
 18.3149528183999522 11.4325941022471174  9.8564752679582917   T   T   T
 18.3505982286200258 19.8355564198821597  1.5141217031454739   T   T   T
 15.3812289147130379 13.5602780698380077 11.9738812126857805   T   T   T
 13.6648864856941916 17.7168972538321121 20.3082216510100473   T   T   T
 18.2288628448992363 15.9983933152592552 14.7872969151086000   T   T   T
 18.0399557230142875 10.5756076012071922 18.2421997727492879   T   T   T
 12.1012757580765289 20.2410121045539029 19.0491399057989383   T   T   T
 12.9094135856669432 18.8739046511153248 16.0942926014215679   T   T   T
 15.8555284679372797 13.1867492455111961 19.0056609236103569   T   T   T
 18.7364173477188878 18.2438454602648221 10.9287371444447938   T   T   T
 19.4038489409436536 12.8344868896196367 19.8798447315233986   T   T   T
 16.4475564828812715 18.9580140378494804 13.2027528903055753   T   T   T
 12.6314204330248838 15.2129717506750861 12.9230762849723266   T   T   T
 15.2295749223915795 17.3972937292947343 18.5599478657319779   T   T   T
 18.3137774365161370 19.4471394228294052 15.1060234111502396   T   T   T
 17.1980491620136071 12.4838186150636474 15.7319619999606655   T   T   T
 13.6824067535714491 11.8943145766751854 15.3456148997686483   T   T   T
 15.1367943175887216 13.4793250163856122 22.6989750028625288   T   T   T
 19.9333689765873459 12.7483014964696117 17.1525071514307470   T   T   T
 17.6017904670739789 15.7248633460579992 12.4681263412811063   T   T   T
 12.7714532096898701 15.5074761109522896 18.5049591784859082   T   T   T
 12.7631604810905763 12.7831183528360679 11.0464449395163058   T   T   T
 13.0970154023893137 10.2301231342303094 13.4301626935875191   T   T   T
 10.2043591215273146 17.7058166949820048 18.0506131621057619   T   T   T
 17.9031569470169565 15.2640068718257247 17.7536631087563208   T   T   T
 20.6991898488855988 17.6926938166052672 13.2036148985686523   T   T   T
 -0.1688619390919141 -0.3471124681114472  4.9121505660356251   T   T   T
  5.0893209464009876  0.1634174156018125  0.2940145553221290   T   T   T
  0.0075443739828492  5.1989003747338955 -0.1960766149332827   T   T   T
  5.2068791672105199  5.1934954609977089  4.8922628914638731   T   T   T
  0.3978001556608617  0.1415565293200405 15.5876443397525186   T   T   T
  5.0116772104305563 -0.1483982814021169 10.0822699554041009   T   T   T
  0.1570100858137131  4.8665851864138023 10.2698598544340349   T   T   T
  5.1013513719509733  5.0512154815710106 15.3152921648973646   T   T   T
  0.0132198785141134 10.3755476844843937  5.1182295034619312   T   T   T
  5.1526457568935005 10.4708840636433838 -0.1183258240388560   T   T   T
 -0.2463624761733058 15.3666808936886774  0.0749591442666785   T   T   T
  5.5188557473380921 15.3703841674101991  5.2788589803110195   T   T   T
 -0.0551783561827388 10.2789258860861903 15.3265540873840145   T   T   T
  5.1261823943661868 10.2119897987387578 10.3756486666603092   T   T   T
 -0.0420293804086415 15.6180153634334555 10.0013414592418197   T   T   T
  4.8327286544136854 15.0178599540286033 15.3122325587106687   T   T   T
 10.5502969727704716  0.2487148667543968  5.2912165602809083   T   T   T
 15.1597976333863418  0.1266031245892429  0.0888623239710842   T   T   T
 10.3698671876083619  5.0528031623793694  0.0963641784598433   T   T   T
 15.9256076280717718  5.4231873327096878  5.0211902433674789   T   T   T
 10.1713493091212559  0.0625823816518552 15.4852409545456755   T   T   T
 15.4644051815355059  0.0506073372113796 10.6288932622868995   T   T   T
 10.5053536337010271  5.1321833607661587 10.3837258426623809   T   T   T
 15.4293991994179134  5.4123025335731736 15.2403004353024922   T   T   T
 10.3808529501174913 10.2305070447880961  4.9728661754048868   T   T   T
 14.9742304289637662 10.5460835898333318 -0.0609617245894496   T   T   T
 10.1826104994707869 15.3524908412553174  0.1166897944029225   T   T   T
 15.6147922472637752 15.2809151328669923  4.9994507865463618   T   T   T
 10.1920500744006723  9.8777591718064404 15.4082255609826682   T   T   T
 15.3992738777222797 10.5600335610438361 10.5148273391025118   T   T   T
  9.9612427953969043 15.4912005192846003 10.6051858392701508   T   T   T
 15.4317664434799688 15.3649408020014580 15.4083522664817743   T   T   T
  0.9798456744151404  0.9259967010221717  6.0919848267044046   T   T   T
  1.1809505168310150  9.0646584773867200  3.9732087877506608   T   T   T
  9.0707678625622528  9.1020436136303093  6.2846619539167650   T   T   T
  9.3457755936260831  1.4526453715994019  4.0211479908955576   T   T   T
  6.2666621597526140  1.1043377767564249  1.5875679800083817   T   T   T
  3.7161276479721042  0.9518405110833574  9.0273095322874042   T   T   T
  6.2865378540677339  8.9682348894971273  9.2156971990546044   T   T   T
  3.5702738792044522  9.5951419363520039  1.0166605709588543   T   T   T
  1.1834063651336937  6.4500404508780456  1.1475827294575551   T   T   T
  9.0142063458825454  4.0522231654526752  1.2182901894558882   T   T   T
  9.1952679878802801  6.5414012773161865  9.4124557690590649   T   T   T
  1.1785465577023115  3.6945949207783086  8.9924814179398656   T   T   T
  6.3891157431349255  6.4092075469392293  5.8351994996072287   T   T   T
  6.2269183687589820  3.8211741548139622  3.7315904436326397   T   T   T
  4.0527930413168631  4.0274417080279150  6.2269627860428081   T   T   T
  3.9864131192997974  6.3877309359540630  3.7974489906579016   T   T   T
  2.3618171640842847  2.8332236859972575  2.6134887602162968   T   T   T
  2.5433006163846881  7.3425985184429212  8.1634113001222293   T   T   T
  7.5147863068672365  7.5167303243743540  2.4774561933372499   T   T   T
  7.8631865924359614  2.7336452462531358  7.5558744267932516   T   T   T
  1.6302978388446252  1.3386483583831243 17.0545808482762524   T   T   T
  1.0212190266659804  9.3029428234405831 13.9382412112742013   T   T   T
  8.9978185387242142  8.7965421429522568 16.6429388818124764   T   T   T
  9.0559767810300897  1.1407659797632068 14.2048716004036972   T   T   T
  6.1058570661532867  1.1391203997435393 11.4091712170018429   T   T   T
  3.8854881720897709  1.4120720656461119 19.7740048864183464   T   T   T
  6.0962795246817114  8.9852458453825346 19.1841313379947103   T   T   T
  4.0308033108345445  8.9029617478619869 11.7469271269570967   T   T   T
  1.4345489681776251  5.9574687899022312 11.3486128213197990   T   T   T
  9.1839880977920672  3.9686375421604367 11.4284104723029980   T   T   T
  9.4320980717765917  6.4489674232505161 19.4282021503999403   T   T   T
  1.3022168090516559  3.7971063231395217 19.4565054840952243   T   T   T
  6.4565091013787095  6.1158475671778643 16.3280065421913925   T   T   T
  6.2935642034270369  3.9595805507069635 13.9927793617717491   T   T   T
  3.9702029230058682  3.8745128089502607 16.5863250572544736   T   T   T
  4.0144971118312123  6.2913404221891742 14.0411604463643798   T   T   T
  2.6113905745613288  2.4944931232064493 12.9407258601102235   T   T   T
  2.7560975412053756  7.8209062018237923 17.9073490163038898   T   T   T
  7.9387245317264723  7.4263596230561433 12.8456781098858350   T   T   T
  7.7631938037115447  2.5201152844845831 18.1021243963242213   T   T   T
  1.0334067130488374 11.6907748426327345  6.2919802986233861   T   T   T
  1.2437825946187562 19.4293410683090393  3.6285522197444804   T   T   T
  9.1939420668898482 19.6354029004591482  6.2084766455914870   T   T   T
  9.2788656433207137 11.1887347015358216  3.5462940805136278   T   T   T
  6.4109898204488545 11.2153531224656593  1.2506174627999507   T   T   T
  3.8114647228366816 11.2655396150095140  9.2521642842625003   T   T   T
  6.2393142532784678 19.1760885574904272  8.9478655177434678   T   T   T
  3.9129788261081688 19.3639800490054412  1.3120998028987259   T   T   T
  1.1221973887432934 16.3936016566296310  1.2802313793858096   T   T   T
  8.8959985759305376 14.2706409001127668  1.2803334340968988   T   T   T
  8.7439566388795704 16.6676417885193295  9.3825861915996001   T   T   T
  1.1829829241083216 14.4331914902196168  8.9141165288365034   T   T   T
  6.8162434407737091 16.5362877811714029  6.2142377890020235   T   T   T
  6.5187096818305319 14.2415213450628517  3.9256415898868786   T   T   T
  4.4272942448195742 14.2384891807088447  6.5685837122680981   T   T   T
  4.0656042048203327 16.4343826593656530  4.1118447446311004   T   T   T
  2.5998826748879620 12.8746937783750024  2.6684106505128060   T   T   T
  2.6119777188966231 18.0107314537089280  7.5119669590813487   T   T   T
  7.6345476325158907 18.2699979834780990  2.5432999259044586   T   T   T
  7.9589635939763914 12.6047263997019581  7.6783034103250927   T   T   T
  1.1324054002532202 11.5965935413681613 16.5021454688362503   T   T   T
  1.2353613161322379 19.4732535204604353 14.2486927705540491   T   T   T
  8.8656781449453632 19.4890591613883721 16.5082863205949444   T   T   T
  8.9860056768621703 11.0983223931692496 13.9877979370867536   T   T   T
  6.2722764168695413 11.4483494003061104 11.4257835548006668   T   T   T
  4.2454548908821925 11.6423686641133912 18.8799655308665741   T   T   T
  6.2600942129508761 19.6779271622840497 19.5187294396708886   T   T   T
  3.8219689639021097 19.1837937828307687 11.2232096179685339   T   T   T
  1.3562980287853799 16.6910445567232770 11.1546664616432238   T   T   T
  8.8375140509739758 14.2627265541661945 11.7132239500747186   T   T   T
  8.8306666133596181 16.4566869243151359 19.5725973115499237   T   T   T
  1.0587375447648231 13.9370357626710533 19.5788298989289267   T   T   T
  6.2245275479569440 16.1692315461644363 16.6058824898516768   T   T   T
  5.9871608654042809 13.9285406396563864 14.0417361733580801   T   T   T
  3.5642971799951080 14.0843784402645724 16.7226189415721223   T   T   T
  3.5606679349272454 16.3487467509900064 14.3110581174446203   T   T   T
  2.5301717617761192 12.6225059471425709 13.0184688671927944   T   T   T
  2.5663041187110882 17.6271067127829539 18.1599645008823529   T   T   T
  7.0457920932049856 18.1302819854045865 12.9375870454170414   T   T   T
  7.7868015615700168 12.6427044777699447 17.7874043003713140   T   T   T
 11.7820906542036070  1.4387639008699658  6.5011425498218856   T   T   T
 11.4537404077718179  8.7224147284874096  4.0194559006467401   T   T   T
 19.4806718249380033  9.0813663487469185  6.3827375228685348   T   T   T
 19.0173338222071173  0.8839305934043439  3.9643991419887064   T   T   T
 16.4193281147235339  1.3248707660728642  1.1232279153804574   T   T   T
 14.5585227638049410  1.4226339617670527  9.3797090002966055   T   T   T
 16.4787443229702220  9.0997493140204302  9.4882192744591869   T   T   T
 13.7911076658687577  9.5222376330115814  1.2141123385001633   T   T   T
 11.7603535302340596  6.1938181395772576  1.2266358307061458   T   T   T
 19.2038790288620227  4.2311334582785882  0.8770195128404348   T   T   T
 19.4072300531809603  5.9358766652563126  8.9917995428806794   T   T   T
 11.6733200876481096  3.8242458324152704  9.0592647988319683   T   T   T
 17.1917716987946818  6.5352955704380165  6.1479928891368347   T   T   T
 16.7617569082430187  4.0090153789075877  3.7935878489962755   T   T   T
 14.6561600405595716  4.5882497389845263  6.4601393076356324   T   T   T
 14.5963465196730979  6.5295235051298945  3.6404296483177512   T   T   T
 12.9862271171042440  2.7369300359267754  2.7394766332772522   T   T   T
 12.8807027353764543  7.8265418433164262  7.6007496553870517   T   T   T
 18.0601821800192575  7.8877987453501683  2.0667145099169821   T   T   T
 18.0432960104328295  2.2870349582865361  7.7944014810663926   T   T   T
 11.4044959813911682  0.9953440094854038 16.9419445747575210   T   T   T
 11.2710306001826108  8.5255606325272080 14.3379848270773209   T   T   T
 19.4206214806969335  9.1416734451180730 16.5946855030668630   T   T   T
 19.3710275719443317  1.2298294373768461 14.5444432434804440   T   T   T
 16.5521155784625051  0.8733330193797286 12.1680118489716929   T   T   T
 14.0409773557825197  1.4519457111120275 19.3922200288440933   T   T   T
 16.0837024013430820  9.3060652522710345 19.3846973811578138   T   T   T
 14.2819716484487493  9.4030448079626456 11.7044961594133170   T   T   T
 11.8203734272944594  5.9208426451026668 11.6884525308145939   T   T   T
 19.5562469868206641  3.8248649798641594 11.5088189862334396   T   T   T
 19.6312143528677296  6.4003045218343502 19.0815753183664540   T   T   T
 11.5664931450727604  3.8285179969175278 19.5173383876441591   T   T   T
 16.8056527673854070  6.4717616079804401 16.4432295342551065   T   T   T
 16.2773293079319785  3.9848080258609255 13.8822885711244162   T   T   T
 14.1666198948357032  4.5966565777104424 16.6471630111265441   T   T   T
 14.3426278143090382  6.5829208819373468 14.0271678218280282   T   T   T
 12.7456294983602767  2.7052735138118642 13.1566517283819877   T   T   T
 12.9470019485700512  7.9946605325620457 17.9115791217924212   T   T   T
 18.1434268628620998  7.8893987626165840 12.6408981189283605   T   T   T
 18.0841450870668758  2.5169031701338014 18.0902937175097556   T   T   T
 11.6732592658256014 11.4454299810410483  5.9221220220029585   T   T   T
 11.9320336459992191 19.6112834576388764  4.1039412867753562   T   T   T
 19.4022256582744639 18.7380818797607063  5.9373079674455083   T   T   T
 19.5563735347095360 11.4793093199496532  3.6976778837989110   T   T   T
 16.3159659067692857 11.7608764341776446  0.9456048355270417   T   T   T
 14.1730104797573979 11.4893929597721218  9.2180473049830596   T   T   T
 16.7699979339707852 19.4652763102201227  9.5097372814284196   T   T   T
 13.8127445443847083 19.5740510556372946  1.2539918869256712   T   T   T
 11.5346340007377020 16.6498117543697930  0.9823474150704133   T   T   T
 19.0272389606963088 14.3070030010987139  1.2916492753416489   T   T   T
 18.9597992578209151 16.4788441642656878  9.0550158574874278   T   T   T
 11.4044800288456756 14.5157798487163543  9.4835039167093509   T   T   T
 16.7388932243928359 16.3713869769368650  6.2791069906036565   T   T   T
 16.7253767231778134 14.0087352242817804  4.0062445854055531   T   T   T
 14.0468822822877808 14.3719370324488036  6.0991744082345321   T   T   T
 14.5462203982237472 16.5915925419415267  3.6663956454873654   T   T   T
 12.7063387021453273 12.9875478585386528  2.6472043273940637   T   T   T
 12.6351843413299605 18.0358492349856370  7.8404850121966945   T   T   T
 17.7992651394589387 17.8854799823690129  2.3906049318944724   T   T   T
 18.2241294850170128 12.4416369044281243  7.6789861612132038   T   T   T
 11.5327150369239266 11.3703742749522849 16.2109802385363366   T   T   T
 11.3478969199403288 19.3363297796071230 14.3850219582891956   T   T   T
 19.7409857465823038 19.6791384235953117 16.9226312249054729   T   T   T
 19.0652803558682962 11.5122192797098819 14.2495266652128265   T   T   T
 16.5697460187326726 11.8081182102423803 11.5332674549641112   T   T   T
 13.8082154226905018 11.7152090582219213 19.0997500694140783   T   T   T
 16.2673205810992556 19.3521580953058816 19.6481838245035760   T   T   T
 14.0113896173091579 19.3677228604009279 11.3910119913029231   T   T   T
 11.0955285676545294 16.6016423848506705 12.0479327729949386   T   T   T
 19.3614610957659927 14.4230546754289897 11.3135500136045160   T   T   T
 19.0824295740262606 16.3925135427969053 19.4710058503761481   T   T   T
 10.9876338401792708 14.1377065808230000 19.2704559103581268   T   T   T
 16.5867819468647504 16.7563728524775044 16.4486367078688751   T   T   T
 16.8268667559895206 14.2667920488963311 14.2051366155747445   T   T   T
 14.5094458574267993 14.1419370645932840 16.6708002285619372   T   T   T
 14.1085281672700145 16.3942698701038339 14.1748201878219806   T   T   T
 13.3881956706396359 12.8659588559772065 13.2900563136763896   T   T   T
 12.4951008805438093 18.0854915056141259 18.2613192663016726   T   T   T
 18.4132554465479537 17.7984996039642525 13.1461814776741939   T   T   T
 17.7189053296260148 12.9640788633093678 17.9157613933712945   T   T   T
 -0.2516555083583423 -0.3809682649926732  0.0166593422625835   T   T   T
  5.7094857934154746  4.7105740586396516 -0.1078896696819473   T   T   T
  5.5570987606491080 -0.6444878617369216  5.3565322275487928   T   T   T
  0.4117450841224470  5.1018150440119445  5.1351564011901019   T   T   T
 -0.4377273582005248 -0.2016376809171919 10.0105975107035334   T   T   T
  5.7650839032586774  5.4022215651827370  9.3931488331944752   T   T   T
  5.6227563502000226 -0.5172122226860157 15.6506589314166487   T   T   T
 -0.4465052471640870  4.7555042956527069 14.8922787629534312   T   T   T
 -0.5964342305394815 10.5049515375022384 -0.2785894665129506   T   T   T
  5.1475423601753807 15.7158747078751411  0.0417459194822547   T   T   T
  5.4527576644125384 10.6387782733485032  4.7072589670455756   T   T   T
  0.3703316731178165 15.3712610875968867  4.9613608403674636   T   T   T
 -0.1986355682674041 10.5037259244555496 10.5514109619621550   T   T   T
  4.3497269194931869 15.2677654230950424 10.5789869115209747   T   T   T
  5.6724896157177653 10.0265051287791511 15.6980557684466699   T   T   T
 -0.0129614281103528 15.0680145348051120 15.1062538999267986   T   T   T
 10.3240429924524495 -0.3245141343586506  0.5258540995619693   T   T   T
 15.9179562771152572  5.5486455682702109 -0.4270503621645053   T   T   T
 15.6177027412336020 -0.3332387693778357  5.3925718703940282   T   T   T
 10.1757336581961990  5.0034778146535501  5.3648288874472119   T   T   T
 10.8803486809313092 -0.3044893976973190 10.1670430637040354   T   T   T
 15.3465461190854011  5.4478998029837484 10.2342522518596706   T   T   T
 16.1005000330677817 -0.4215911353111117 15.3776387250316429   T   T   T
 10.4051199059640478  4.6481923618335816 15.4866355989078102   T   T   T