Li P  S  Cl
 1.0000000000000000
    20.5609999999999999    0.0000000000000000    0.0000000000000013
     0.0000000000000033   20.5609999999999999    0.0000000000000013
     0.0000000000000000    0.0000000000000000   20.5609999999999999
 Li  P   S   Cl 
 191  32 160  32
Selective dynamics
Cartesian
  1.7419433665553170 -0.6142904661114555  2.0023523347954209   T   T   T
  4.2402331313662325  9.2157183275939776  7.5880197690614430   T   T   T
  6.4483689954672236  6.2177089032587514  3.1686607930476525   T   T   T
  6.8122838612814052  4.8132357556807071  8.1133865509907910   T   T   T
  2.7396067727716069  8.0225077967136382  5.5425212746522776   T   T   T
  8.5303622236023493  6.8080452354625125  4.3887657061088516   T   T   T
  4.3401324989123058  1.7214015809308958  6.9848149714757319   T   T   T
  8.3750971498889584 10.4764733977540008  2.0723177945043871   T   T   T
  7.8505794627103080  2.7714824732571945  4.9739945121207674   T   T   T
  6.7100978009826848  7.4740207592448202  0.6411606248829604   T   T   T
 13.7625810134766020  9.6447734132348035  6.5709084764362435   T   T   T
  0.5278693413776584  8.6065459515511673  7.9565501705685486   T   T   T
  9.9744411085952898  7.9020276374128198  2.0162436400873034   T   T   T
  8.0473102710252995  1.6129570998475518  9.8941980005080872   T   T   T
  5.0048696086223590  3.4617987130013117  1.8957945135667020   T   T   T
  1.8338911848611574  5.2998747640541648  6.9688980026802234   T   T   T
  7.1071399722790858  0.0300680090875587  7.0621046384956196   T   T   T
  1.7387476685757921  5.3755764087921429  3.0087495448257955   T   T   T
  4.3212512955579365  6.2516477049688604  8.5116958308882076   T   T   T
  3.2310985917857349  4.3127354773398041  0.2439088227503368   T   T   T
  3.7278049768101571  2.4881157455154863  4.4249591943079780   T   T   T
  2.4446729307254191  7.9996739204579272 10.0600230834312985   T   T   T
  9.7061761674787324  2.5222532995851963  7.3781185771448765   T   T   T
  2.7382191752001432 14.3602387376179745  0.7272913195582622   T   T   T
  7.2521138627595381  2.7106662359275240 15.6215490068215939   T   T   T
  2.3186698934444743 10.5831839650945145 12.2485416726881500   T   T   T
  8.7602198266804869  8.3016410401739975 11.1066577151601908   T   T   T
  0.1862368421399907  2.2586615106908861 22.6225834705889000   T   T   T
 -0.6272479519416856 12.0451077787249581 18.8948050533886942   T   T   T
  3.4446116030778660  2.1027719331533414 15.5326116335458959   T   T   T
 10.1692470577680343  3.3860775304948261 17.0388609883622593   T   T   T
  9.5318255509065928  1.4161570705225630 18.9958617719823408   T   T   T
  5.5978988066859774  1.8331632713126580 17.4925402815080062   T   T   T
 10.1041429394779545  8.3024676224136975 13.3542318746651105   T   T   T
  2.0827608694458353  4.7552343099849983 14.7010600145235006   T   T   T
  2.3591627559333448 10.3009548235096560 19.0123638326906317   T   T   T
  6.4267641654879748  6.1986139041077859 12.5461764808519387   T   T   T
  7.1113505568356707  5.0627014257559191 18.1489714272509914   T   T   T
  3.7915883240209696  4.6145762947451114 11.6241199383785485   T   T   T
  2.7183168546946757  8.0604749478669682 20.6122902845870257   T   T   T
  7.4825712397669886  2.6473634948856217 20.3063635965033455   T   T   T
  6.3789136574075105 10.1267469688869642 13.1980850240206671   T   T   T
  3.4992604880752709  5.9012519490003319 18.2260931961702255   T   T   T
  7.5263111584814837 -4.9139736986362710 13.7797145075026233   T   T   T
  1.9661380624854072  0.7310678345696978 11.5470306787459869   T   T   T
  5.0608583384195382 12.0420924341653723 17.3032813783268438   T   T   T
  5.2664709989871010 -2.7205075920393496 13.2488933451338156   T   T   T
  4.7950848216104216  2.5230506418390295 13.2703257272374042   T   T   T
  4.4012619846361964 15.1257137577981364  2.5915197516140380   T   T   T
  5.2857427445523832 18.1385101046301109  7.9223881722998195   T   T   T
  6.4037668083309347 17.7045732954939758  0.2095765352468524   T   T   T
  3.8048971791310251 12.2723830242795913  4.4931944904173182   T   T   T
  3.4080607078663596 20.2167938622151446  8.0212806054410883   T   T   T
  6.4616381551091981 10.0227554967684505  3.3662051920767126   T   T   T
  9.9830375028021354 12.9204604852462097  7.4417249823829188   T   T   T
 10.1228487364288995 18.3051905562498227  1.8556280493215602   T   T   T
  7.3931041537668536 10.5688565289032308  6.7503197742011265   T   T   T
  8.7305720194737475 17.6782395693345968  4.4514207078924963   T   T   T
  1.7166124254002204  7.8274722192956965 -4.4380687899012905   T   T   T
  2.2447368934802530 18.6271454130764944  9.9907534222121761   T   T   T
  7.9298051345268972 20.4286443246451128  0.8697978537177475   T   T   T
  7.8308578130441067 15.6029369906831743  2.4095446543348191   T   T   T
  1.7903764596858316 16.0733933670709206 -2.9954778108587403   T   T   T
  3.1538715404351971 15.3292225183270929  8.3876316685728245   T   T   T
  5.5749047455040825 12.1539192868905559  8.7436699799418687   T   T   T
 14.6753219996235522 12.7948146324484551  4.1199596662789828   T   T   T
  3.1091961243463575 18.3419789068612644  5.5351405850687403   T   T   T
  1.7667234512082162 14.0340331027677152  4.7987466373337719   T   T   T
  0.5549845829975372 13.2370954810306554  1.5977156904412151   T   T   T
  0.7063514154687207 16.9715642721258071  7.2795092454260093   T   T   T
  7.3028614735517152 14.5981811359381002  8.9701899672522618   T   T   T
  5.6479970715626431 18.2376003400426541  3.2758972678307687   T   T   T
  3.5353721242828628 11.6943596839155397 14.3991215534622388   T   T   T
 -0.3278264880023254 17.4276611631870750 16.9523627454251056   T   T   T
  6.8536079686447939 18.5524989797804700 15.6090375812989137   T   T   T
  8.0994159912324282 10.8878862025904191 19.0853695391657112   T   T   T
  0.7405465656021660 17.2944579665829181 20.1405674690575083   T   T   T
  4.7465285799382668 14.0113207928457033 12.5757103780746391   T   T   T
  8.6284374821838501 15.1914139555747809 17.4106048551063566   T   T   T
  2.5515198985336793 17.9510738605377398 15.6865935755667127   T   T   T
  5.0535739379746394  8.7622706301835454 17.4591596362869410   T   T   T
 14.6252350878979307 19.5114373392430061 16.9172410337582519   T   T   T
  0.2919519807487778 12.4803974294624318 12.3264646722836062   T   T   T
  4.0204755781307480 17.6769652694595578 19.2800691913785016   T   T   T
  7.4912475030466261 14.0224733036141274  6.0918845467603129   T   T   T
  6.6782470388986432 14.5805810838869778 19.5780016592830108   T   T   T
  3.0057917429081429 12.8652164563719591 10.3234650324175696   T   T   T
  2.0672117665270151 20.6580660986093001 18.9513999459611497   T   T   T
  9.7978392353488246 12.6629366555859626 19.2419898057246641   T   T   T
 10.0817751831711373 18.0481160090529436 13.7533230356135512   T   T   T
  8.3942273072841989 11.2392184572615630 30.2657379920989342   T   T   T
  8.1466115949329847 11.9944140556523759 16.1699226739081041   T   T   T
 -2.5362505159436459 12.8081713825679628  9.5680661481823854   T   T   T
 -0.0842283053766878  7.3495711673717645 12.2915631628764750   T   T   T
 -0.2753262802752064  9.5629297537387785 22.9203492065397327   T   T   T
 10.8967904521116417 12.2557309472967955 22.2419493503127299   T   T   T
 11.6388769039043307  2.1008457988037934  0.8109202085880411   T   T   T
 11.2335099100132378  2.4987680590328316  4.2854061194706947   T   T   T
 18.4212646909996849  5.5318267671192789  3.6552473477787966   T   T   T
 20.6093794743019316  1.6713178260347381  8.5932671279846726   T   T   T
 15.4399937599623112  7.0275932357104480  8.5467637983345437   T   T   T
 15.0153327829591756  2.8324856289404239  1.3795269853174716   T   T   T
 17.5397204437409826  3.2991843623566055  9.8893698983615046   T   T   T
 16.5413824213740064  9.7444203425431279  2.7267002826161630   T   T   T
 21.3966197805797229  2.5189002493818649  4.8878471756452875   T   T   T
 18.7936744404766856  5.1657328401288227 -3.3062990407631920   T   T   T
 14.3999083396508034  2.6969726072303102 -5.4238952640122546   T   T   T
 12.5702196847398220  7.2809724355805487  5.4534125667466702   T   T   T
 17.7316046139107435  7.4864565334872131  0.1513524074324140   T   T   T
 16.0023937594973908  2.5522707583296591  7.6017060571614792   T   T   T
 12.2260796492746113  4.8467583338758438  2.7593424127403967   T   T   T
 11.6885904706154431  9.4870723750782062  8.1225271476916756   T   T   T
 19.2499447983432930  4.6038284617751399  7.6890686279019747   T   T   T
 12.2662729509027741  7.7511340779712068 10.0273977054175454   T   T   T
 12.2015954216235940  0.0850078183934771  3.0448815401699085   T   T   T
 14.2421750755941865  2.2513379680284338  4.3450142644106178   T   T   T
 10.3937452712472549  6.0632480973309955  7.6157297789509881   T   T   T
 18.4640995917104824  2.5054096908195351  5.6168359075884400   T   T   T
 18.1039268434173977  7.7758793527243553  4.8041111157813123   T   T   T
 14.4467502734786972  4.8490384400911184 12.5013876567523674   T   T   T
 13.4820601141276484  5.0738471633786624 19.0543146908469794   T   T   T
 18.6039811557427299  7.3712656021453142 14.9067736869331782   T   T   T
 20.1200000985570036  1.2555203105178476 18.8650386043611462   T   T   T
 15.0871017005098853  7.7231239824666291 17.3965799842411073   T   T   T
 11.7206142152845008 -0.9901627184878800 16.9197544364415506   T   T   T
 16.8769851279892009  1.4781958116352794 19.2515551687721782   T   T   T
 11.9505134241218620 10.9094303619621407 13.0463680349215974   T   T   T
 20.7418761081578609  2.8799932962850874 13.3903276651927801   T   T   T
 18.1529355072038818 10.2386213860987922 12.7681610761678659   T   T   T
  8.5392967646077107 -2.4771707351868915 10.9310003144906673   T   T   T
 12.9953807411341540  7.7254077123671347 20.0660194288426226   T   T   T
 16.1222235663232638  8.1602855018113605 12.7535129745480180   T   T   T
 20.9053163082539832  8.2297506905595750 18.9809033779828198   T   T   T
  9.8957590659768737  0.8200799979427946 12.5331065100821473   T   T   T
 17.6075384694931678  5.7754223895587655 12.0504690455895567   T   T   T
 20.5224999543081204  3.3582687607319426 17.0813632118561571   T   T   T
 17.7797550027022879  8.6878411025916069 10.2918356593560549   T   T   T
 11.2498556281874489  6.0243127345698175 17.7108019030295694   T   T   T
 12.9497115342518629  2.8228105685919176 10.4487691142729204   T   T   T
 13.8878190675564479  0.9448460585314343 13.2433052789397454   T   T   T
 11.3351767621795592  9.3349940899570072 18.2743390102398280   T   T   T
 17.6282852861164621  1.4815080023621914 16.4940179786291097   T   T   T
 12.5668338842409621  4.9352827825443750 15.3047604306595222   T   T   T
 12.9569658194272499 10.6222138259582124  2.8009728719032712   T   T   T
 12.8576194713235541 17.2800491617220402 10.2284194742808836   T   T   T
 17.9404661681973252 18.9298527687506279  0.4862590853634073   T   T   T
 17.0813010103833811 15.4717063315692585  8.6032492210450169   T   T   T
 10.3070051467178292 18.7113638323711733  8.8532182021364765   T   T   T
 14.8892980050593433 13.5734324236439452  0.9529090961954737   T   T   T
 13.3162417519582501 12.8432580572062172 10.9859343811672101   T   T   T
 17.7468881105038285 15.7722091670073610  0.8733977084991902   T   T   T
 14.1665335326487583 18.5029838760138787  7.0252992175771256   T   T   T
 16.8493967070011408 25.0857819850598354 -1.2765236127785344   T   T   T
 11.7831797771139772 14.4416998141254869  4.0828426656791423   T   T   T
 12.6112069617060616 14.6921924134492343  0.9083618711182794   T   T   T
 17.9702088584613158 16.6866086363509147  4.6059559369645058   T   T   T
 19.7276308633696722 13.9676681895627510  7.5868432704026523   T   T   T
 15.8391597288050718  7.0422789440011773  2.7298852668449873   T   T   T
 10.7400175865001763 15.8921805427410288  7.6200840284299645   T   T   T
 18.2866129492764991 11.6129113071078933  6.8821056342204017   T   T   T
 20.1427249104619435 18.2419801625000453  2.6157736396920117   T   T   T
 17.3918789291185121 20.5769028864876695  7.0321851843441943   T   T   T
 11.9016603006128570 18.7013279357141791 -1.0768249617906887   T   T   T
 15.1268130981871707 12.6961044228726578  7.5038224379031666   T   T   T
 13.2686611784773234 19.4787456174096292  9.0786120494013556   T   T   T
 18.6293097792781808 13.6017741102664473  4.5104996436980809   T   T   T
 16.9224977156875909 19.8712435848139712  3.3416017124014528   T   T   T
  6.6487365311122719 20.2574297256389002 13.2262612090553766   T   T   T
 14.5830516811151245 17.8092649306405555 19.7355500794673304   T   T   T
 22.3070916575212230 14.7972801852185452 13.3775908278405762   T   T   T
 16.5212040842848324 12.3410937421000586 19.2055511149789737   T   T   T
 11.8208351531434399 15.8218178497474398 16.8049541952993877   T   T   T
 11.0856219375403242 14.3087552746895508 13.1617381402046281   T   T   T
 19.2163261806764325 16.3363979483680772 13.8387496697844128   T   T   T
 18.8157268446369734 20.3960484838046270 12.2825288578678755   T   T   T
 17.5469321162811838 10.5601806438744568 17.1092998131919032   T   T   T
 28.3988631889973604  8.3341156168195063 15.5250529723949207   T   T   T
 14.8657024562495810 14.9947046565719582 12.4713517216955179   T   T   T
 15.4834454931774452 17.5737850922768892 23.1949743847736372   T   T   T
 10.7125354850948611 24.5146353076125578 12.7897309937307124   T   T   T
 23.2571165565777491 10.6341900939904530 22.4675202419560165   T   T   T
 16.2326336187825362 17.9191614692234644 11.0198478212963984   T   T   T
 18.2355123390463056 14.8800030527430387 17.5071019679338491   T   T   T
 16.9115397855045622 13.3102226365968601 15.4632857443466545   T   T   T
 17.7130954860443630 18.7994620177058849 15.0479583450438756   T   T   T
 14.5499386218598517 16.0243312956479187 18.1936002928297853   T   T   T
 15.4932764384928312 12.0598486680737658 13.3241461894328790   T   T   T
 13.5154314620235265 11.8800769487502347 15.7436533224985382   T   T   T
 15.9124994878882742 18.8034824462117136 13.2413075427893219   T   T   T
 20.3494902182254833 13.5322858644176147 16.3258907053617222   T   T   T
 19.9928412590025530 17.7841173467338223 11.2499490929424315   T   T   T
  0.1212076395063123 -0.3670380193099972  5.3582721322695042   T   T   T
  5.0010411662547662  0.2200024928733978  0.0541131096231929   T   T   T
  0.0567278692675989  5.0911454233745737 -0.1313491321447235   T   T   T
  4.8324397641586012  5.1630752374591200  5.2677268196316680   T   T   T
  0.3783775984491298  0.0801010837642704 15.5378700563150645   T   T   T
  5.1024071573932792  0.3597144846691518 10.3813304981248109   T   T   T
 -0.0342089659329797  5.3151424651501715 10.1865959229690581   T   T   T
  5.2468455421608171  5.5492273013084708 15.4891384282771458   T   T   T
 -0.3376329533002209 10.6613447152903191  4.9984134128400601   T   T   T
  5.0450212869649551 10.1946434548937521  0.1895522765895733   T   T   T
 -0.5063805994277168 15.2621380942744178 -0.2459488715944380   T   T   T
  5.0358615791318115 15.2632091948355679  5.5696328411155136   T   T   T
 -0.0120307448244041 10.5034358826233074 15.2961101589466182   T   T   T
  5.0202322466989271 10.1756867712193895 10.6688451087584557   T   T   T
 -0.0211618252025424 14.9639723705045000 10.2592091616981111   T   T   T
  4.8536641809440608 15.4760973396956238 15.8529427490569006   T   T   T
  9.8218145302472539 -0.2811490300972669  5.1095078841144215   T   T   T
 14.6012678708816850 -0.1026181066560290 -0.0725741735347429   T   T   T
 10.0213431182695807  4.8674243109079569 -0.3333514534757958   T   T   T
 15.4219228492568341  4.9782270036541822  5.1262524167356114   T   T   T
 10.1144725252394352  0.3624045702367316 15.3594916394074872   T   T   T
 15.5777558197187531  0.0062436993902607 10.0644497654364127   T   T   T
  9.9173519649858228  4.9197306084916503 10.2914378616701434   T   T   T
 15.6192504210820822  5.0524017312011935 15.2123596131833807   T   T   T
 10.3628858234945440 10.2692449624625262  5.1493580844026123   T   T   T
 15.4739515658052937 10.1761763631330862 -0.1909063652429740   T   T   T
 10.4071509479313900 15.4213143785427551 -0.3858927689808632   T   T   T
 15.1831535400428628 15.5568900809847612  5.0728076274843144   T   T   T
 10.6827920121813165 10.6266714446368553 15.8530596337105347   T   T   T
 15.0509154362055444 10.0228324701140945 10.1335789304221127   T   T   T
 10.0004592750984695 15.1477600686793856 10.3626109757910427   T   T   T
 15.7284960249757777 15.8216296017449558 15.0349860611122566   T   T   T
  1.2693470643673039  0.6823846188144350  6.6041828975649670   T   T   T
  1.5134276633750692  9.7749705453056563  3.8552711247763320   T   T   T
  9.2566517270627617  8.9278339028454194  6.2427504865457486   T   T   T
  8.8918848915530067  0.9159793044614808  3.6811560738607763   T   T   T
  5.9384553297362492  1.3226776855106899  1.3543168536390628   T   T   T
  4.0514520904681923  1.7110129330291499  9.2638544683952553   T   T   T
  6.0855518194119007  9.0980586931829812  9.4040134436366074   T   T   T
  4.2926202193403205  8.7779337798037957  1.2325415389875920   T   T   T
  1.0813039927063666  6.5624381483065877  0.9456491615091556   T   T   T
  9.1817441601985710  3.6356874284239575  1.1738425214748631   T   T   T
  8.6084087104144853  6.1568668361847028  9.2722499141706596   T   T   T
  0.9642260680540371  3.7897089150564809  8.9268135099727743   T   T   T
  6.2152217562899166  6.3149731923135271  6.2616256773601480   T   T   T
  6.1463848964999537  4.0773711993931183  4.1069136901385646   T   T   T
  3.6036550293524270  3.9934409108405236  6.5183740687719487   T   T   T
  3.9574460226207218  6.5236465472698750  3.9303903968212808   T   T   T
  2.4573659034459077  2.9054809847192762  2.4886127459686640   T   T   T
  2.4775263678880224  7.1771186072240125  7.7216561251127622   T   T   T
  7.8260418692474065  8.0366204861632919  2.7602883735919090   T   T   T
  7.4143837224809293  2.7908312245658404  7.5057061426939899   T   T   T
  1.1561192222240748  1.4166354844417806 17.0169992563212276   T   T   T
  1.2494951611323801  9.0489739322412870 14.2373845690849645   T   T   T
  9.2350210553056105  9.7168691376268512 17.1038545579990284   T   T   T
  8.9981154549941866  1.8747836211327911 14.5203529042839108   T   T   T
  6.2577524422875035  1.6760848059595006 11.4678626003628334   T   T   T
  4.1018589206590335  1.4481158220918209 19.2605401995308725   T   T   T
  6.2895603183060453  9.0077415286997624 19.3697612910365038   T   T   T
  4.0524122617175120  9.0917185275835593 11.9540386937986192   T   T   T
  1.7292495921644695  6.1041988137204175 11.1682367243765679   T   T   T
  8.9758142556229767  3.3372381012884285 11.3459010650972978   T   T   T
  9.1146986409094222  6.1186632111718904 19.0180113502194743   T   T   T
  1.3237360077961682  3.9965029889368409 19.1736660078542585   T   T   T
  6.4622394047096083  6.9904759676013493 16.6470636927865456   T   T   T
  6.4471885896922956  4.4219858366696938 14.0834004479914672   T   T   T
  4.3433045618360424  4.1912232361909663 16.8781144721153140   T   T   T
  3.8339426071040554  6.5379353467398413 14.4341200724574055   T   T   T
  2.7009998909927844  2.8889680569925802 12.9977274555147826   T   T   T
  2.6691712026575609  7.9106369224381261 18.2439362607988897   T   T   T
  7.7248452585120511  8.1362919297959220 13.3972545003844576   T   T   T
  7.7425136214719679  2.4390483082201180 18.0194199387405547   T   T   T
  0.1510258907224910 12.0303531218195729  6.1932600891733376   T   T   T
  1.3256649171833708 18.9044705764942336  4.0097890653536572   T   T   T
  8.8269967991196374 19.0924943679626189  6.4699398232207415   T   T   T
  9.2960014505183697 11.3982994775363036  4.0807115797410214   T   T   T
  6.1575233769294249 11.4520057136163178  1.5286619378523996   T   T   T
  3.5590793224374249 10.9335024016667663  9.2935674549989784   T   T   T
  6.3215106559721708 19.7139603479441838  9.3751401486686152   T   T   T
  3.5843245890375521 19.3217061600484321  0.6639062674385606   T   T   T
  0.5544326796044826 16.0136252802060497  1.2603285835807418   T   T   T
  9.5299438584535530 14.4680653592439441  1.0333100952086465   T   T   T
  8.7773528449085596 16.5439709535065660  9.2726002459373653   T   T   T
  1.2720397951113782 13.8651203886999639  8.9873899036871414   T   T   T
  6.2032920058288470 16.0656934775771951  7.1211506791361874   T   T   T
  6.0068882279080054 13.9251359999231674  4.1964508718280031   T   T   T
  3.6261599869080854 14.0418714472575292  6.4922914330380346   T   T   T
  4.1172314678673452 16.6887873432392908  4.2503311682383753   T   T   T
  2.4437108743269254 13.0786132725317046  2.6817498509542279   T   T   T
  2.8178488993188759 17.7462912380017315  7.9593428510949691   T   T   T
  7.7941678064873914 17.9342738181619943  2.2250320130200740   T   T   T
  7.7386190440297851 12.6003683638797028  7.5837199395858343   T   T   T
  1.2886950474072805 11.4140350713381373 16.6866762021854456   T   T   T
  1.4680577732471014 19.6535874575701577 14.2769650462438555   T   T   T
  9.1464391913735579 19.3905231929576836 16.3133884864887833   T   T   T
  9.7743681420431745 11.9982942520109699 14.8023125513407230   T   T   T
  6.1859419649198468 11.6219047942010665 11.4628070360483321   T   T   T
  4.0511990514050211 11.6464631088857296 19.5287399932739447   T   T   T
  6.2637407235644664 19.4804263006194596 19.4739153771239017   T   T   T
  3.8384731326633004 19.7394944611785306 11.5902471031512189   T   T   T
  1.0509112036078667 16.1256023240952580 11.7151645460266298   T   T   T
  8.8327071540559228 13.7786375965999106 11.4914175661974518   T   T   T
  9.2743562328082199 16.7552893402120233 19.1079983193467271   T   T   T
  0.8161738998179981 14.2523021543326678 19.0179052229966103   T   T   T
  6.0987428125512837 16.6816845232131534 16.9381857746004556   T   T   T
  6.1087955895600583 14.1466871074451017 14.6839539726220973   T   T   T
  3.6438705850258479 14.2981227289267405 16.8804463145532111   T   T   T
  3.7667971101185005 16.4422416939724805 14.2346478548916284   T   T   T
  2.5432974186956954 12.7618421604044627 12.5809320914398270   T   T   T
  1.6872994841671956 18.3282473268289969 17.8988712197620785   T   T   T
  7.4490328671826127 18.0394117500227438 12.9099446887274372   T   T   T
  7.5994400410116256 12.9620724016447149 18.1684254464726749   T   T   T
 11.1938627725944748  0.9810206428352225  6.1201574468198441   T   T   T
 11.5390204915133925  8.7967795574392706  4.0644883442175708   T   T   T
 19.2984729991033213  9.0839468208105654  6.2228381699440432   T   T   T
 19.8453756903630278  0.9169372402446011  4.1181587864303797   T   T   T
 16.4134987667626859  0.7996265056406739  0.8695740600745369   T   T   T
 14.3636380032304292  1.2369613716090415  8.8043084559545264   T   T   T
 16.1185580652896014  9.1720611587391350  8.6778890983739423   T   T   T
 14.5949553437082660  8.9238604207674985  1.2349900142238754   T   T   T
 11.2843411448246407  6.0516801349106109  0.7951825312164358   T   T   T
 19.4450153029976889  4.0327698204667675  1.1053974648127738   T   T   T
 19.4984395484939661  6.5432611152344728  8.9005529855995853   T   T   T
 11.2780653665118784  4.0621217358506323  9.0830090979213587   T   T   T
 16.4257400305236878  6.4430675304455676  6.0854987157816831   T   T   T
 16.6677676362964036  3.7307095052451675  4.0208922874988415   T   T   T
 14.4190556251099551  3.7852647185644930  6.3349799421774842   T   T   T
 14.0481555395187172  5.9868644529436228  3.7198194355630498   T   T   T
 12.7601374066328273  2.3051729437833450  2.7386494307230294   T   T   T
 12.9481396122524064  7.4493922501360723  7.8544455469376580   T   T   T
 18.0413194237406884  7.6385762364145053  2.5234969470617772   T   T   T
 18.1562684764704194  2.5604025308910274  7.6687654374477203   T   T   T
 11.5351155208186107  1.2842200182851509 16.5906856899840136   T   T   T
 11.7572546195478438  9.2245422318302541 14.7029963519010174   T   T   T
 19.3082314615276047  9.1866893483334966 16.1536868941445206   T   T   T
 19.4894567183648668  1.3683273470188162 14.7150948338213237   T   T   T
 17.0164681539275335  1.0111627924916986 11.1404021429813245   T   T   T
 13.4335044507803509  1.3795858165555923 19.7040446502976749   T   T   T
 16.6844771248190398  9.1773614761746281 19.1879574780982693   T   T   T
 13.9009637504191641  9.1609868172691620 11.5398668675946947   T   T   T
 10.9006345228647934  6.1553542546453759 11.6172725305476146   T   T   T
 19.5802826496590505  4.1963936413384841 11.7312138346264572   T   T   T
 19.1912108922762563  6.2625665440789309 19.2522939672264712   T   T   T
 11.3044977686413795  3.5925700314992439 19.1223790637413060   T   T   T
 16.7710254138690829  6.3436586251018188 16.4218995216157850   T   T   T
 16.6814604759481959  3.8941457540147635 14.0185690593736876   T   T   T
 14.2831514293880240  4.2952166522419111 16.5942694281701506   T   T   T
 14.4373333299191451  6.5003159598070219 14.1602633341765358   T   T   T
 12.9621068956701269  3.0119210537252794 13.0095305010051305   T   T   T
 12.8420828253661199  7.5306805850730134 17.8705093860889619   T   T   T
 18.2307352361715758  7.8913412846083304 12.3680013149191321   T   T   T
 18.3494394436470358  2.5580356778570512 18.2021974555059600   T   T   T
 11.6785650041666589 11.3936467892116369  6.4186884393624819   T   T   T
 11.0505180958667246 18.8812303366427301  4.2557878846663613   T   T   T
 19.3397762429665470 19.2430026769836537  6.4659903081790846   T   T   T
 19.0821665515209133 11.5841000726817587  3.5778076680931297   T   T   T
 16.4531010489075378 11.4962693550828234  0.9341399091675040   T   T   T
 13.7758796595275488 11.4877004395700197  9.2172015673518555   T   T   T
 16.4809754237784212 19.1067266441390267  8.9358483157395803   T   T   T
 13.6668530392315706 19.2193644719972170  1.1764707139743122   T   T   T
 11.7261129588801172 16.7200536122875150  0.5277168755152452   T   T   T
 18.8046886419451837 13.7922440500401642  0.4576534917366031   T   T   T
 19.3647152980353034 16.4360197424727339  9.2886664510899326   T   T   T
 11.2095740631807121 14.1700346352803006  9.0548903828038814   T   T   T
 16.1524185112532770 16.8267288884341681  6.2666427512906706   T   T   T
 16.5044931794383913 14.5702958110517322  3.7649183569851750   T   T   T
 14.0677632948217219 14.2914614347171511  6.1423556877481937   T   T   T
 13.7457689370447085 16.4759627975766705  3.9132305704301569   T   T   T
 12.9757376153565183 13.1034576085436747  2.3279625496505822   T   T   T
 12.1342994632375447 17.8761059967065243  8.0282602358183226   T   T   T
 17.7134407399798519 17.8912867251707830  2.5385760286717085   T   T   T
 17.3169228215554121 13.5085940535223408  7.5629024125126474   T   T   T
 11.8105249407144939 11.5647082822877536 17.3026036562801551   T   T   T
 11.3168453542096046 20.1091372403685291 13.7577206716339333   T   T   T
 19.3974110380331339 19.6349278080282659 16.6634255792600996   T   T   T
 19.5436837518939157 11.8126952389430695 14.0578570026885963   T   T   T
 16.8237840814237991 11.1076386874592110 10.9388616110345449   T   T   T
 14.3197454669648643 11.3371158803777217 19.1122298062674218   T   T   T
 15.9523097453016671 19.4493097318613763 18.9728171169428492   T   T   T
 14.3310914998430405 19.3715847929268534 11.5314344118473038   T   T   T
 11.0543528363340773 16.6731278374360166 11.5134302868366554   T   T   T
 19.3804585011037034 13.8212419144655225 11.4208117864544736   T   T   T
 19.0549774983163189 16.9286392192116431 19.5188409745361255   T   T   T
 11.4912281876437863 14.2440858291143169 18.9342373339902750   T   T   T
 17.1805847197542185 17.0284767823858871 16.1750216522159391   T   T   T
 17.0098550563673072 14.8796472762646275 13.8077033683629438   T   T   T
 14.5794656603669548 14.6786436722435614 16.3888558500970873   T   T   T
 14.2317096271997432 17.1129926913262480 14.1610951631852409   T   T   T
 13.0275913422032943 12.9446221126620564 13.2302037103406906   T   T   T
 13.1886537291881307 17.8830159005442830 17.8199379688853128   T   T   T
 17.8993133698950153 18.3243985345637199 12.9315136549178824   T   T   T
 18.0974625905673641 12.7101176323373934 17.5120938621264415   T   T   T
 -0.3172925516728308 -0.2775061331253095  0.1469062937590130   T   T   T
  5.2498218406597603  5.3599353304529629  0.8472124840707213   T   T   T
  4.9500327355686746 -0.0738410858659478  5.7268802778880632   T   T   T
  0.2460504279176943  4.9985309419429669  5.0040684679448004   T   T   T
  0.2005743531804858 -0.4871512168494954 10.2651858391746611   T   T   T
  5.4762919572493187  5.2476178779538785 10.2464351620291687   T   T   T
  5.3417991625735688  0.8039404509199983 15.2260908499011549   T   T   T
 -0.1054111021422792  5.1520775610845648 15.5952675112965160   T   T   T
  0.7974760999025184 10.1796487338039636  0.1515223989189627   T   T   T
  4.8394645470992366 15.5734230324292771  0.3336236005311800   T   T   T
  5.2107948485510533 10.4748513195343591  5.8989882102097688   T   T   T
 -0.4397001169698408 15.4540013548248147  5.3018008476721308   T   T   T
 -0.0664991167199520  9.6490730011875669 10.4295975417845508   T   T   T
  5.1493516307251541 15.0292967529227113 10.3072592297648935   T   T   T
  5.9262092806652724 10.2686289960010821 15.8584318025365860   T   T   T
  0.2854776836824068 15.9233809539289624 15.4658136185425406   T   T   T
 10.2072248782522355 -0.4497998710392111  0.2577559551962556   T   T   T
 15.1273904283079830  5.2412016108265647 -0.0019553343277180   T   T   T
 15.7439415751599547  0.1394832470336859  5.3962251675053032   T   T   T
 10.1764707461610318  4.8966263595995878  4.6008945893800295   T   T   T
  9.7863483656173749 -0.3763755209528715 10.5417663692154342   T   T   T
 16.0017907618435693  4.9595372511006310 10.1011269923707356   T   T   T
 15.7749650476643204  0.2282682658459356 15.0385026157614803   T   T   T