Li P  S  Cl
 1.0000000000000000
    20.5609999999999999    0.0000000000000000    0.0000000000000013
     0.0000000000000033   20.5609999999999999    0.0000000000000013
     0.0000000000000000    0.0000000000000000   20.5609999999999999
 Li  P   S   Cl 
 192  32 160  32
Selective dynamics
Cartesian
  3.4968102038232982  4.8803065154915535  2.5401148494254135   T   T   T
  4.7025258321797292  7.6614589632897889  7.9027803344579048   T   T   T
  6.8843544645656749  5.8110317772976456  1.5375171832645798   T   T   T
  9.2384520563169730  0.5605500830661396  7.2991488869994194   T   T   T
  3.2869527824266105  8.5980741207540365  4.5753420842326262   T   T   T
  2.6722608780059720  2.7539295914399955  0.3054158577870785   T   T   T
 15.1276490209341024  3.4157485510101355 12.3423094971383502   T   T   T
  9.7286851514168013  6.4917711267486116  2.7082921104954298   T   T   T
  6.0249282175942405  1.2142248508191036  7.2089346272821349   T   T   T
  8.3626865514924091  8.6536794033054676  0.5296925141781447   T   T   T
  1.2895229313769856  0.6049202647864598  2.3261953183655741   T   T   T
  2.2238049781250662  8.5673334788511539  9.5016536411455306   T   T   T
  7.9019755842577473  8.1370474754137732  5.0359466572750904   T   T   T
  8.0158946851524870  3.6622444296117589  5.8207358821874209   T   T   T
  0.7146363629380855  3.4801695543154345  3.1925294626865175   T   T   T
  0.4575186339813976  6.8899094269731380  7.4173039913242933   T   T   T
  9.3518306327508114  3.8726928227771977  8.6229475625229295   T   T   T
  8.6297426692120514  9.9545402131519509  2.7806723434094791   T   T   T
 -2.9457756391691561 12.3559577588402050  5.4029408545949265   T   T   T
  2.4490306054103073  1.2455338902299085  5.1551064014291308   T   T   T
  0.4232684847102361 -3.1216605675362499 -3.1742247010211457   T   T   T
  3.2725615559007704 10.1497408869390000  6.9736901406298486   T   T   T
  5.7416124257075278  3.7087679257202963  8.0417923641437259   T   T   T
  5.8474061625147549  8.8976488372862867  2.7096277424079758   T   T   T
  4.7871270633514102  2.6447667226156808 11.3856542473329618   T   T   T
  3.0146902089767633  8.7978820379837668 15.6747032630167968   T   T   T
 13.8202127952760812  6.2611475620307884  9.2402445355430700   T   T   T
 10.2353044707160592  6.4557784521863173 13.3756382938144434   T   T   T
  5.6457851807676720  1.9406899646436206 17.7077250871176908   T   T   T
  2.5235356516109144  4.3439931306941597 11.1700830036907508   T   T   T
  7.1307327833609566  2.7254422339716489 20.8505606812795286   T   T   T
  8.7120752088299565  7.9759938623467530 14.8535163679679467   T   T   T
  8.4245985345037973  2.3119820583038737 16.3569607425721806   T   T   T
  7.2284015791348244  5.2191968367315846 12.4363766200999386   T   T   T
  2.7017552417816426  0.6061189138981209 11.7925594229279032   T   T   T
  1.8082289984496327 10.2396807953467466 18.5183737785265983   T   T   T
 11.7051789613835382  8.7013568178022176 11.8585047988963552   T   T   T
  8.8594363398138150  4.7709417977676258 17.4938469617592318   T   T   T
  0.5146921003788285  3.6882571254573380 12.7802905353633047   T   T   T
  0.1669000217847764  7.9008832821368582 17.7521356554755734   T   T   T
  5.7376640132611065  4.7543124533227497 18.4905541546424672   T   T   T
  6.0388802801925161  7.2811453342422903 10.9468899487423084   T   T   T
  1.2429800688644594  7.9541346256511245 20.2936409195647371   T   T   T
  1.6515744557687491  3.2842577078926882 15.3587464169842587   T   T   T
  4.4185940862143553  2.7562135607789191 14.7593393073481565   T   T   T
  4.7015376369854911  7.9891177393986386 18.2769784918946421   T   T   T
  8.3422428772632706  0.3079058186917931 19.0140699693280446   T   T   T
  8.6202680801773113  9.8212408709589134 12.0894437084377628   T   T   T
 -0.4348660316678267 13.2404844952534955  2.1877100334410282   T   T   T
 -2.6052993900796197 20.9982704288618365  8.2477082202334735   T   T   T
  7.7165893284282641 17.6530581111943121  4.7665636568285148   T   T   T
  5.3855766854105607 13.7989377014151930  8.2597018725626636   T   T   T
  1.5804311571521035 15.7375369289406013  7.2134999809415588   T   T   T
  2.8241474179119912 11.2426621397013609  3.1109570398292576   T   T   T
  6.1363391585142706  8.1022151148426094 14.3664152233361229   T   T   T
  9.3227882030959339 16.1577322487713957  2.6038311985093681   T   T   T
  4.4371211774123518 17.0572966873011680  8.0353957330582251   T   T   T
  5.0926912523929104 17.5729748151580409  2.3559407478242127   T   T   T
  2.7506032249867234 13.7143033854964891 -0.1586200308913932   T   T   T
  4.1347805956500503 19.5892285116601101  8.6136959369975390   T   T   T
  7.5346468270459948 17.8590272924474931  0.0970010233795541   T   T   T
  6.9180018568944996 10.4042886686632521  7.2170336477310846   T   T   T
  4.5453186130498677 14.1522508753860556  2.2520971125011546   T   T   T
  4.8893341233631968 23.1327427618658277  3.4434979638827534   T   T   T
 11.0169527885707339 12.5452798708299103 13.7678878941223051   T   T   T
  8.3147936545638750 20.0948326198517648  1.8589592052215638   T   T   T
  3.2044453183540247 18.3638636037767995  5.8036798832688703   T   T   T
  1.9196004353327656 15.8727001231719722  3.0410803696484980   T   T   T
  1.7227880102829514 13.4762885839427966  4.5194719494467268   T   T   T
  0.7098117766265110 18.4861286997362626  9.7028174260640991   T   T   T
  7.7293430513924966 15.0478091713558566  7.3824925848963243   T   T   T
  7.5980676315376234 11.7569661395687053 -0.2615039098287227   T   T   T
  7.2603775257717134 13.1455820682503255 10.0389167525952558   T   T   T
  9.6900262729663282 11.3512340931396079 17.9853085974871405   T   T   T
  0.7162650319738586 11.7497109539813458 13.0104069624575249   T   T   T
 12.7282513497772740 10.3809805113012246 22.9480157759856063   T   T   T
  2.8156284018782207 20.4635406366539385 17.3084105674232767   T   T   T
  2.2789389599509011 11.9082344916668053 10.6021474570480603   T   T   T
  5.9153870272370090 10.9494074721892058 17.9039152926430667   T   T   T
  9.7445237078246389 18.5619865443950331 11.8227007039312912   T   T   T
  7.1268267229062676 12.2042656267518357 15.7501413465962141   T   T   T
 20.0334576653331524 17.6433543997724982 14.6066132758135545   T   T   T
  2.3566892018897767 18.1794922670889108 20.2522618517588384   T   T   T
  2.6735280159849162 17.8692182031898241 15.4322534683258610   T   T   T
  6.7860373873152620 20.1483145387076945 14.2444766865764318   T   T   T
  5.0284454666908962 12.1915334928329955 12.7535105159759450   T   T   T
  1.3248141542457270 14.7609953028232450 13.2420555812815000   T   T   T
  3.3312842779960863 15.6884195391615755 18.0872500234231204   T   T   T
  6.5985817864319865 14.9228542325735045 18.6683293044446721   T   T   T
  7.3509919617773356 15.7271374864933975 12.9392833638271885   T   T   T
  5.3732717407335526 17.6370457549583719 12.6929790228615591   T   T   T
  3.0140924389574018 14.8864862000825209 11.1438412595328789   T   T   T
  3.1605412090796112 12.2336938920954399 15.4144654404237720   T   T   T
  5.1434085585229115 18.7822605823878490 17.6916842821814164   T   T   T
  8.4598461817555748 14.8444754105412589 17.1343372704787669   T   T   T
  9.2525364613641159 17.9093534121788167 14.5080137388124388   T   T   T
 10.3138475351341370  3.0873384151513950  2.8517417797500473   T   T   T
 12.2079442013577033  4.7395181653513312  2.9035726157532413   T   T   T
 20.3716550311948055  9.1889150788007168  2.1679921762255683   T   T   T
 17.3054074419945181 -3.7681405914258321  0.5219839043792124   T   T   T
 12.6080193259899591  9.4679229489391101  5.8887449849538456   T   T   T
 14.6232949156101633  3.1227834855082559  2.1435148295523492   T   T   T
 16.8845710832217080  1.6553210445891695  5.1827459045304538   T   T   T
 20.5641629252160953  6.4410109130290678  3.1196686205447639   T   T   T
 18.4034171751438294  2.2826707400629185  9.7965438327555940   T   T   T
 18.2269089179107944  5.3366141405994432  3.8230498867242995   T   T   T
 11.6818602821060935  1.5913223988625107  0.2974185299174298   T   T   T
 19.8505624389720694  8.3586622358427416 11.5166619789471092   T   T   T
 18.1278785914059988  8.0648662591557496  0.2308288509673817   T   T   T
 17.4900954333069301  5.0994479500675798  7.8190928839943679   T   T   T
 12.7583540421573751  2.8985883879011238  5.1675515901435345   T   T   T
 16.4983680601722256  7.5580090755324232 11.3113299318172835   T   T   T
 19.8500495337168914  3.0920831870779479  7.5248903996195677   T   T   T
 16.5091651307923755  8.2055263434933678  2.9572901278161323   T   T   T
 15.3438085014756478  8.5882533927940923  6.9180111630802728   T   T   T
 13.3056022813197217  0.6778644256708687  3.3467530930036067   T   T   T
 13.1749764075311688  3.4222048771743525  0.2847565099753233   T   T   T
 10.6748997761640751  8.5100764159677471  8.4473935239604536   T   T   T
 11.7849821347110701 -3.7666059773914253  5.6775590028350829   T   T   T
 18.2323569920404225  9.2943110120257906  4.5670380673899116   T   T   T
 10.8532026651001683  2.2750039094141385 14.3315208836572197   T   T   T
 12.7205745904275176  5.3018840542235264 17.5434364238116451   T   T   T
 20.3198571697232993  7.0245044453379757 14.0783328390727611   T   T   T
 19.0666481735146327 -0.2783682786746858 18.3498044588950222   T   T   T
 10.9190582305013937  8.0227092417430939 18.0815847509094318   T   T   T
 12.5046560547952641  3.2086407154929395 10.3622389354813578   T   T   T
 17.7399813653172806  1.6847318911077607 15.8271304716490882   T   T   T
  9.6004385521170601 11.7856096944674533  8.0426052164227020   T   T   T
 22.7275115733031896  5.8061921372614238 17.9924767144994995   T   T   T
 16.6464882271273744  7.4195210287253843 14.4924870780277821   T   T   T
  8.5808271132377261  1.5110209963734440 10.2302372662107537   T   T   T
 18.5505483613626687  1.6094841557620858 20.5243270832482878   T   T   T
 12.6597075582264544  9.8914824856986154  8.9506816309166712   T   T   T
 15.8814067056074322  0.5950977259820113 18.0090761669286898   T   T   T
 12.6005498387609123  4.7505475700178339 13.2858483345000185   T   T   T
 13.1541642940539294  7.4622764209763135 20.1449635206397097   T   T   T
 16.3575472415014005  3.7561120220528887 18.7166150668013067   T   T   T
 23.1414378403698642  5.6241062176220531  6.4150045035549397   T   T   T
 13.5567085972216184  8.2974486126358897 15.7344638380167705   T   T   T
 13.6318264255275885  1.2786000630825129 14.4384569076736913   T   T   T
 12.1963733139520052  0.0830609266708501 11.1099104245356521   T   T   T
 15.9739784376994542  7.5399175135907033 17.7044672027137118   T   T   T
 19.9546110138774786  3.3377401965478311 17.6847004048697656   T   T   T
 17.3189724341910178  9.5809264244731960 12.9456819280337214   T   T   T
 15.1620932398542134 12.2548064860547559  3.7337118148153996   T   T   T
 13.1817883179977589 15.4328908238576510  7.6527389088686890   T   T   T
 19.7512643009650581 18.3601988843385300  1.8765996572810204   T   T   T
 18.3302380433661369 12.7346472178927428  9.8909350339388400   T   T   T
  7.4165361012489486 17.1640748660506901 10.2883667218006494   T   T   T
 11.0154674267444097 13.2014049771200597  4.5986660577149134   T   T   T
 20.4583238660585458 13.4439218116217454  6.7785356055264856   T   T   T
 17.7623625439227233 20.1512117247192393  2.4708622217412426   T   T   T
 18.1961680500478380  4.4556593957081070 13.6080885008340537   T   T   T
 16.6490546574980947 19.3003618292353991  4.6706299927132529   T   T   T
 13.5393134644100979 13.3836070995588372  0.6907782488332975   T   T   T
 13.0396279855397363 17.4003281783174870 10.0684430372482741   T   T   T
 15.8407061271191587 23.8294447980953592  8.8907636180861243   T   T   T
 16.2133437269766141 12.6734885216970383  7.9564475308361535   T   T   T
 11.0102867739263477 12.3008228043788286  0.9379687136322691   T   T   T
 15.3785245079210107 17.6639672046570695  7.8750407861281735   T   T   T
 19.9223093324752121 11.0225821761453275  7.8588415838825716   T   T   T
 18.4742141841196492 16.2064827680187875  5.0792405944659960   T   T   T
 10.8129580926049833 17.9708079961442877  8.0658082239811932   T   T   T
 11.7068665680010593 14.8821829525283640  2.5083692358707128   T   T   T
  6.5538698385917291 12.1305552245225829  5.2286609672855899   T   T   T
 13.1700525748233730 19.8451781377175251  7.2570767898676323   T   T   T
 17.4689976593398022 15.5273430547211415  8.6575753025057232   T   T   T
 15.3330465941965564 17.5821531230799906  2.4446557712346553   T   T   T
 11.7963540330766605 15.3641889951501032 13.3985614954722188   T   T   T
 12.6514927023491808 15.2582161176234656 17.7409257552692736   T   T   T
 19.1973836301502843 20.1258431702398752 12.1577715735333829   T   T   T
 17.5587825793442818 14.9540417733285373 17.6182173924286829   T   T   T
 10.4886704645418884 17.1872095214365643 17.9954913839557946   T   T   T
 13.3274456731985005 13.0913734702487847 15.1386532514366703   T   T   T
 20.4194103151914668 13.1084605801111369 17.7259925660012350   T   T   T
 17.3337836178626574 18.4940826214770837 15.1026398202568828   T   T   T
 18.1497038801485822 13.3738712947685272 15.4535647179429638   T   T   T
 18.4684021160750866 15.6390496610728196 13.1687066269551085   T   T   T
 12.2109076746508709 12.5639148045931179 10.5273058004166238   T   T   T
 15.2492904537523408 17.9121353761681021 18.6118245170962986   T   T   T
 20.5179869949486502 18.2638625554194931  7.1199837465155751   T   T   T
 16.6926814711436755 13.7384898828974933 20.2549577407144490   T   T   T
 15.0225443579734925 10.6823877758151369 13.1844927845863591   T   T   T
 13.1387454690816998 17.0211002830393028 20.5970144324051034   T   T   T
 18.7632271672034285 11.9065662402530723 19.7159194015445713   T   T   T
 15.7758683446564483 18.0437776347629111 12.8909494289679465   T   T   T
 11.8771053686536519 19.6863150258519113 19.5879906725384849   T   T   T
 11.9972692005378558  6.4110848016667443  5.2054787064058479   T   T   T
 15.0621490201167436 14.2290502501198564 11.9516654322693459   T   T   T
 12.7710092277388458 19.2176885909052899 16.4378906372838713   T   T   T
 16.9102156178220362 10.9843831293892098 16.8851218484606527   T   T   T
 17.9017335823487862 17.7322473765311059 10.6527359125886534   T   T   T
 -0.4716343326350885 -0.0439840510453782  5.1231540030407139   T   T   T
  4.9343301577638439 -0.0959204765851337  0.0903832274052403   T   T   T
  0.1467224970336077  4.8734730642714643  0.0037858921028960   T   T   T
  5.7626399764649756  5.3263002555880972  4.9597837904845772   T   T   T
  0.0489989480306299  0.0658346911668360 15.3450320249820820   T   T   T
  5.6034924405535733  0.0748869263068063 10.7155557745825742   T   T   T
  0.0342623310758745  5.4458911777279688  9.9702023845457468   T   T   T
  5.3256723842777927  5.4847238641259235 15.5327974709029668   T   T   T
  0.1245612194337762 10.1364861889336009  5.3984416728596933   T   T   T
  4.5904298998348319 10.7572716051106152  0.2710588180425446   T   T   T
 -0.4340732013048773 15.8647568519744393 -0.3286485505563781   T   T   T
  4.8900768692420646 15.4915372544538190  5.2859103782715335   T   T   T
 -0.2846061477030486 10.1387024943940585 15.5040901316895798   T   T   T
  4.9809820863355991 10.3107438834442871  9.9935446033906423   T   T   T
 -0.0574685730993368 15.5384030843460117 10.3617200440579964   T   T   T
  5.2882467768252592 15.0173072506444409 15.4079569068659197   T   T   T
 10.4957849016560303 -0.3584690616415669  5.1027618768168255   T   T   T
 15.0346567597030365 -0.0019246458175938  0.3658003370280173   T   T   T
 10.3313719353682121  5.5096000563600764 -0.2064517102369467   T   T   T
 15.3628826829329928  5.3108703329250400  5.2152058029109956   T   T   T
 10.2075652890897608 -0.3437880371268471 15.5537027944138906   T   T   T
 15.2957687935793132  0.0927442353422946 10.3227797784223441   T   T   T
 10.5750500854064313  5.7197544448816959 10.1795643451337465   T   T   T
 15.4863687091762721  4.7956182069267514 15.6473824484763355   T   T   T
 10.2659732838907036 10.4012313491313950  5.1934937914142809   T   T   T
 15.5223394072598566 10.6428979987713674  0.0642290559987431   T   T   T
 10.1214322618940500 14.9525694448628848  0.0506671691171276   T   T   T
 15.4614520182924640 15.3087947473036330  5.3186235298079545   T   T   T
 10.2438243237249473 10.0437949139838469 15.3251773665316406   T   T   T
 15.6309927436677150 10.4949640869507359 10.6576889302283906   T   T   T
 10.2768768521294529 15.2005689645540443 10.0256709397476929   T   T   T
 15.3665214324296908 15.5266155855045209 15.2655779874617892   T   T   T
  0.2697714130825296  1.0220354428475200  6.5738258360292559   T   T   T
  1.2960464948140760  9.1502561259409632  3.9456372211984667   T   T   T
  9.0983485194195257  9.3846952605891563  6.5717321752785907   T   T   T
  9.1116022535853549  0.9100742823451773  4.2570973578624196   T   T   T
  6.0774119774912592  1.0911447937418852  1.4892056732986976   T   T   T
  4.3466249344841250  1.3940864311992249  9.5814032919223386   T   T   T
  6.2166823210351971  8.5619689831623322  9.0857584634330166   T   T   T
  3.4685309899641044  9.4348078181248027  1.2227354925140568   T   T   T
  1.3789436298651010  6.1096075144775241  1.2099911960194352   T   T   T
  8.8899153057079712  4.5277839918462481  1.1766011640217087   T   T   T
  9.2020103472142374  6.9201736513844789  9.4919803018166462   T   T   T
  1.4742456393302703  4.5711411057658138  8.8290426970249563   T   T   T
  7.0421292008051708  6.0622178484403513  6.4682353992586741   T   T   T
  6.8110064643001387  4.1690635221972920  3.6631822512192209   T   T   T
  4.5480727522985180  3.7990217691780308  5.8408417200427731   T   T   T
  4.4661354838961982  6.4482059691210454  3.8456885813094872   T   T   T
  2.6974822513697849  2.5307375719993077  2.5242084803368399   T   T   T
  2.6051560661240525  7.8489187874127033  7.2664987054033467   T   T   T
  7.9527044182191471  7.7942384534566171  2.5001299360227627   T   T   T
  7.7492780663682170  2.4592017299417668  7.8007279961542757   T   T   T
  0.9345046977843403  1.2164232485328155 16.8851240842052484   T   T   T
  0.9388256449428967  9.1695615012688645 14.2225911619150089   T   T   T
  8.9737052723826807  9.3586101630877749 16.9056611339263050   T   T   T
  8.9949834269446143  1.0656994337497736 14.5478617736300251   T   T   T
  6.3210982831432370  1.0778020619192714 12.4036128680505549   T   T   T
  3.9456808622151565  1.2477687304093865 19.4071860600537534   T   T   T
  6.2651670707079576  9.6275005914121934 19.9674308407011729   T   T   T
  3.6255309122748338  9.2881324193738379 11.1788410906483904   T   T   T
  1.1847384301976933  6.8523492734443954 11.2597956360316154   T   T   T
  9.5084896394470828  4.1160629326235538 10.9927560285927566   T   T   T
  9.2041342644601549  6.8276641227650670 19.2626709633023943   T   T   T
  1.2123333557954197  3.9531550643095628 18.9623149031920768   T   T   T
  6.5168886374882398  6.6598451831044105 16.8485798653933116   T   T   T
  6.5505967671832712  4.3008809616919619 14.6176664060816215   T   T   T
  3.9751793879041664  4.3513669559011179 16.7235138692293113   T   T   T
  4.2466711583208578  6.5144632182564965 14.0840806071644771   T   T   T
  2.7672391068891131  2.6672774290247521 13.1214446948664527   T   T   T
  2.4635039154923981  8.0895769569109213 18.1299618149094073   T   T   T
  7.9394466493549078  7.5879269496700035 12.6993371079652366   T   T   T
  7.7053501651459895  2.9154837388070467 18.4146994111139328   T   T   T
  1.4622017148881028 11.4854424360091745  6.1679061243016848   T   T   T
  0.9842019748480842 19.4721836418046905  4.0245548728866840   T   T   T
  9.3375920802701895 18.8265092232844253  6.5590533936118831   T   T   T
  8.9076878510619242 11.5192740821440243  4.2946923958028993   T   T   T
  5.4010929641097443 12.1609697196740623  1.5275881666224771   T   T   T
  4.0903569916648346 11.7025541051344870  8.6138230213875602   T   T   T
  6.8812370317492526 19.8944715907359395  9.2390933516105562   T   T   T
  3.6588848160915162 19.3259257134554687  1.2181831389764637   T   T   T
  0.7253386842129205 16.8646568956485368  0.9014465091542256   T   T   T
  8.9888238358231334 13.8729467722395992  1.2996553409213334   T   T   T
  9.2055251140385472 16.6343064091752169  8.7062035697567985   T   T   T
  1.4103223314543747 14.3151680083106978  9.4367354575582976   T   T   T
  6.1527837769398390 16.5561917445718976  6.4338135498522639   T   T   T
  5.8143552170836719 14.0698229059717583  4.2163309754842162   T   T   T
  3.5589647251927063 14.5783109583676538  6.5380846218283697   T   T   T
  3.9053603632014235 16.8388949556402778  3.9971695159052461   T   T   T
  2.0202920430028026 13.4302681033873768  2.4126567150874041   T   T   T
  2.2758973699993859 18.0376590207062506  7.9505775790992930   T   T   T
  7.6166543306577266 17.8873780200102459  2.5105724569020320   T   T   T
  7.2247195388277152 12.7230102087742889  7.6076502429859092   T   T   T
  1.0795224336882401 11.3814413664492680 16.6163323846957702   T   T   T
  1.1457958224786819 19.4287870184746509 14.0278545411189910   T   T   T
  8.9895054538466077 18.8718458177308577 16.5965291316090742   T   T   T
  8.9830011329436701 11.0640954759673686 14.1537071519768354   T   T   T
  6.1936759526200573 11.3195281719460361 11.1103472516565596   T   T   T
  3.4370835881247173 11.8321573856612599 19.2210144729814623   T   T   T
  6.3443616734151469 19.3902738845328741 19.3728922026043087   T   T   T
  3.9890945582103732 19.2220013757783335 11.1982546003776413   T   T   T
  1.0394419048798440 16.7939210156031962 11.6117621638710844   T   T   T
  8.9594538038012814 14.2619996457997260 11.1557192109214594   T   T   T
  8.6701886635635113 15.9229437964865639 19.2254534589962631   T   T   T
  0.9959511529779658 14.6631958161607123 19.1510489103909052   T   T   T
  6.5903347735042663 16.3493945141944792 16.4969256943399287   T   T   T
  6.5902186960718980 14.0090323821092824 14.1832008309401338   T   T   T
  4.1192542529128646 13.9351673189685208 16.6641128231542233   T   T   T
  4.1310897975910406 16.2902015031269158 14.2322767457840094   T   T   T
  2.8879631175519411 12.8385551245683480 12.4535070765190916   T   T   T
  2.8062794248110166 18.0086216020856469 17.8553165299711942   T   T   T
  7.5626084957101227 17.9075656822177223 12.6143679993436635   T   T   T
  7.7758120592351929 12.5430652718862170 17.8851370841503119   T   T   T
 11.6857734430755755  0.8584228011187056  6.3698235606269371   T   T   T
 11.2719156255991226  9.0543613878633842  4.0638420729559330   T   T   T
 19.6152137637838138  9.0737308600431348  6.6560881956851414   T   T   T
 19.0651173908183758  1.3447556061891262  3.6247105955971772   T   T   T
 16.0729892908497014  1.2369442342932044  1.7320701065013235   T   T   T
 14.1519818651177847  1.2618691151211070  9.0007648350583302   T   T   T
 17.0520185380898930  9.4087510012722628  9.7130309898029541   T   T   T
 14.6392441189606419  9.2530065677077467  1.4301870364349853   T   T   T
 11.3705601438972224  6.5752563677515647  1.1791165542454369   T   T   T
 19.6619305796525943  3.4259851221913795  0.9987061974986907   T   T   T
 19.2975354979220732  6.4061616095766594  8.7730757462185878   T   T   T
 11.8299889598436785  4.8782723941920416  8.6645915950492771   T   T   T
 16.6540121604422566  6.7623521868253214  5.6525526866662990   T   T   T
 16.4405674994745112  3.9154516244959314  4.1960144415452714   T   T   T
 14.4147608032557883  4.5181500486363442  6.6709937066553060   T   T   T
 13.9945830663925008  6.3915844366793655  3.8117009229585581   T   T   T
 12.3968824614409616  2.6081318400062035  2.1422768899045308   T   T   T
 13.1294225067686199  8.1938285851294310  7.5019742651833541   T   T   T
 18.6886525091504900  7.5263856096083979  2.6732615333290539   T   T   T
 17.7051725253017302  2.6105522765704818  7.7542631212431674   T   T   T
 11.5469038793348648  0.6565992178882720 16.7802625429541408   T   T   T
 11.2969844429736597  8.8090498870490688 14.1099520277138044   T   T   T
 18.9773660768735333  9.1741248525306780 16.8514115155253812   T   T   T
 19.5481057049575604  1.3449540467516705 14.2346503918556042   T   T   T
 16.5690263453565443  1.3056437579145277 11.3385926425455530   T   T   T
 13.9711556034534592  1.0544525313238970 19.5633718899395888   T   T   T
 16.7499504218439768  9.4047020525013227 19.3177008727442789   T   T   T
 14.4436876105543330  9.0799149697382511 11.5859273689595366   T   T   T
 12.1824114592189510  6.4319484826156685 11.7625480182760214   T   T   T
 19.6111656455161985  4.0276803135025299 11.2029818634640304   T   T   T
 19.6607075036466554  6.3161819146644929 19.4093396203730464   T   T   T
 11.3877772146240215  4.0555727302617521 19.2867637578245770   T   T   T
 17.1536708482369846  5.8016858869889036 16.4799192681851956   T   T   T
 16.4544201874546481  3.1066308309974668 14.4543534890425480   T   T   T
 14.5112099935789658  3.6912250317295197 17.0503980389253762   T   T   T
 14.4399927820910001  5.8877388392184109 14.3278394344504605   T   T   T
 12.7291745973411601  2.3814452159304254 12.6224344191654758   T   T   T
 13.2163570837257751  7.5816797697386500 17.8469367316874923   T   T   T
 18.2816135741287411  7.4155185984087977 13.0385696004668716   T   T   T
 18.0603596357654972  2.1286738951004121 18.1737075152718752   T   T   T
 11.4467880456564473 11.4637222697553351  6.4511880660347201   T   T   T
 11.7010016019847178 19.0342702986512577  3.9783209528223074   T   T   T
 18.6835899333645266 19.1902879482014015  5.8202362175734645   T   T   T
 19.4403731529036001 11.3506588607048347  4.2501429074946913   T   T   T
 16.6818978416577473 11.7043102462206416  1.1540057040468961   T   T   T
 14.4288136676283827 11.5484134196460229  9.3822485794071220   T   T   T
 16.4537466480568000 19.4680636183060258  8.9581082079756928   T   T   T
 13.4890538861053937 19.2623574801359965  1.1566378727631339   T   T   T
 11.0459030689417599 16.4597325002206318  1.1280769186859219   T   T   T
 18.7412524348645526 14.7011656147242284  0.7079967715251528   T   T   T
 19.4450555223652373 16.7354072635583506  9.0748190008524716   T   T   T
 11.3133089634755475 13.8860686224268814  8.7986802624532956   T   T   T
 16.6763903800130535 16.7121106261752814  6.2761364286864891   T   T   T
 16.7796326723353140 14.1267950552256778  4.1561760661017475   T   T   T
 14.7655805137831955 13.8593509619521580  6.6703900560566964   T   T   T
 13.9009116513500377 16.2982687472979464  4.3975586124358035   T   T   T
 12.4873269886984968 12.6231651582289395  2.6767622758440477   T   T   T
 12.9811226441512257 17.6511319249146155  7.8495289725626867   T   T   T
 17.3952166237949051 17.7542581745926782  2.8216035368336745   T   T   T
 18.5773051875394906 12.7058845307193167  7.4157427088098071   T   T   T
 11.5930695189656614 11.1847986893263442 16.2431203670496132   T   T   T
 11.3159259539218127 19.2215337718389563 14.0062694595080526   T   T   T
 19.3721515146971655 19.3156866007390278 16.2076915603362828   T   T   T
 19.3069432491721393 11.5554278913919468 14.2149424583245434   T   T   T
 16.7589062537252360 11.5611966559408135 11.9824397876590485   T   T   T
 14.0378004962150609 11.5445754958487363 19.5081863768831916   T   T   T
 16.5750809760258910 19.6919934476860874 19.8999500998723633   T   T   T
 14.1159068964342964 19.3027170982308647 11.4121199663561725   T   T   T
 11.2240202877456312 16.4500760802292305 11.3240543106947076   T   T   T
 19.5301124847398384 14.1275923715634146 11.3802558490093695   T   T   T
 19.0102596012727751 16.9445488284284309 18.9282165894752588   T   T   T
 11.3148000236425066 13.9339691775482297 19.3035585927973088   T   T   T
 16.6965226563391909 16.8101043392268892 16.3905370969285968   T   T   T
 16.4338080403881044 14.2285628016789421 14.0332304522343705   T   T   T
 14.5497922045443033 14.4052408625970205 16.7499025119217997   T   T   T
 13.9921400628438466 16.7969414267175026 14.3953008390416475   T   T   T
 12.9876286482226657 13.2195093275938564 12.5284062804168297   T   T   T
 12.7752141317816807 17.9446061807345245 18.2294887390203471   T   T   T
 18.2063018580999199 17.8950635628670867 12.9681726704276432   T   T   T
 17.9454436068628986 12.9410100456723303 17.9401945537917662   T   T   T
 -0.3483042145983484 -0.4509074803435993  0.2441504115579388   T   T   T
  4.8500645403904477  5.2104529083250801  0.4329462438410389   T   T   T
  4.0535204884894513  0.3272400116793245  6.3993779217807738   T   T   T
  0.3692245009223187  5.1766244579387966  5.1966437833422194   T   T   T
 -0.5413236224242058  0.5926498349311845  9.9035382506388618   T   T   T
  5.1752239563590638  4.7391344387311882 10.1198246509694343   T   T   T
  5.4088584083613194  0.4804686463776181 15.7561412490096338   T   T   T
 -0.0350576191007483  4.9510906752523418 15.2300865792818243   T   T   T
 -0.4262388567817446  9.6241423239878259 -0.1493311548224787   T   T   T
  4.2442877780395003 15.5462533827148732  0.3842827041725577   T   T   T
  5.1763269926999476 10.0437041290776765  4.8724177876072687   T   T   T
 -0.0059811520943988 15.2123812771691753  5.2468733725775243   T   T   T
  0.1969671793917429 10.4668350845044689  9.8731677953165864   T   T   T
  5.3624049627571893 15.9437016252534054 10.6080678888900746   T   T   T
  5.1624760336032098  9.9874186302163004 15.8370157497156541   T   T   T
 -0.4744723344051474 15.1190058679671999 15.3193959357398466   T   T   T
  9.9277759484393862  0.1232388113483191  0.0783924092675918   T   T   T
 15.1119234174348840  4.2831680005547597  0.0621692357220855   T   T   T
 14.7741074152872365  0.6525815518201989  5.0038235161441218   T   T   T
 10.5534157662754993  4.5732440492698032  4.4885914218386835   T   T   T
 10.0176551395301274 -0.2802650222039623 10.2955477056302378   T   T   T
 15.7348125251489321  5.3431092257862849 10.4365975931282069   T   T   T