Li190 P32 S160 Cl32
1.0
  20.5609999999999999    0.0000000000000000    0.0000000000000013
   0.0000000000000033   20.5609999999999999    0.0000000000000013
   0.0000000000000000    0.0000000000000000   20.5609999999999999
Li P S Cl
190 32 160 32
direct
   0.0115753100000000    0.1249939200000000    0.1249939200000000 Li
   0.1249939200000000    0.4884003700000000    0.3749817600000000 Li
   0.4884003700000000    0.3749817600000000    0.1249939200000000 Li
   0.3749817600000000    0.0115753100000000    0.3749817600000000 Li
   0.0115753100000000    0.3749817600000000    0.3749817600000000 Li
   0.1249939200000000    0.0115753100000000    0.1249939200000000 Li
   0.4884003700000000    0.1249939200000000    0.3749817600000000 Li
   0.3749817600000000    0.4884003700000000    0.1249939200000000 Li
   0.3749817600000000    0.1249939200000000    0.4884003699999999 Li
   0.3749817599999999    0.3749817600000000    0.0115753100000000 Li
   0.1249939200000000    0.1249939200000000    0.0115753100000000 Li
   0.1249939200000000    0.3749817600000000    0.4884003699999999 Li
   0.2615631500000000    0.3749817600000000    0.1249939200000000 Li
   0.3749817599999999    0.2384125300000000    0.3749817600000000 Li
   0.2384125300000000    0.1249939200000000    0.1249939200000000 Li
   0.1249939200000000    0.2615631500000000    0.3749817600000000 Li
   0.2615631500000000    0.1249939200000000    0.3749817600000000 Li
   0.3749817599999999    0.2615631500000000    0.1249939200000000 Li
   0.2384125300000000    0.3749817600000000    0.3749817600000000 Li
   0.1249939200000000    0.2384125300000000    0.1249939200000000 Li
   0.1249939200000000    0.1249939200000000    0.2384125300000000 Li
   0.1249939200000000    0.3749817600000000    0.2615631500000000 Li
   0.3749817600000000    0.1249939200000000    0.2615631500000000 Li
   0.3749817599999999    0.3749817600000000    0.2384125300000000 Li
   0.0115753100000000    0.1249939200000000    0.6249696000000000 Li
   0.1249939200000000    0.4884003700000000    0.8750060799999999 Li
   0.4884003700000000    0.3749817600000000    0.6249695999999999 Li
   0.3749817600000000    0.0115753100000000    0.8750060799999999 Li
   0.0115753100000000    0.3749817600000000    0.8750060799999999 Li
   0.1249939200000000    0.0115753100000000    0.6249696000000000 Li
   0.4884003700000000    0.1249939200000000    0.8750060799999999 Li
   0.3749817600000000    0.4884003700000000    0.6249695999999999 Li
   0.3749817600000000    0.1249939200000000    0.9884246900000000 Li
   0.3749817599999999    0.3749817600000000    0.5115509899999999 Li
   0.1249939200000000    0.1249939200000000    0.5115509900000000 Li
   0.1249939200000000    0.3749817600000000    0.9884246900000000 Li
   0.2615631500000000    0.3749817600000000    0.6249695999999999 Li
   0.3749817599999999    0.2384125300000000    0.8750060799999999 Li
   0.2384125300000000    0.1249939200000000    0.6249696000000000 Li
   0.1249939200000000    0.2615631500000000    0.8750060799999999 Li
   0.2615631500000000    0.1249939200000000    0.8750060799999999 Li
   0.3749817599999999    0.2615631500000000    0.6249695999999999 Li
   0.2384125300000000    0.3749817600000000    0.8750060799999999 Li
   0.1249939200000000    0.2384125300000000    0.6249696000000000 Li
   0.1249939200000000    0.1249939200000000    0.7384368500000000 Li
   0.1249939200000000    0.3749817600000000    0.7615388400000001 Li
   0.3749817600000000    0.1249939200000000    0.7615388400000001 Li
   0.3749817599999999    0.3749817600000000    0.7384368500000000 Li
   0.0115753100000000    0.6249696000000000    0.1249939200000000 Li
   0.1249939200000000    0.9884246899999999    0.3749817600000000 Li
   0.4884003700000000    0.8750060800000000    0.1249939200000000 Li
   0.3749817600000000    0.5115509900000000    0.3749817599999999 Li
   0.0115753100000000    0.8750060800000000    0.3749817599999999 Li
   0.1249939200000000    0.5115509900000000    0.1249939200000000 Li
   0.4884003699999999    0.6249696000000000    0.3749817600000000 Li
   0.3749817600000000    0.9884246899999999    0.1249939200000000 Li
   0.3749817599999999    0.6249696000000000    0.4884003700000000 Li
   0.3749817599999999    0.8750060800000000    0.0115753100000000 Li
   0.1249939200000000    0.6249696000000000    0.0115753100000000 Li
   0.1249939200000000    0.8750060800000000    0.4884003700000000 Li
   0.2615631500000000    0.8750060800000000    0.1249939200000000 Li
   0.3749817600000000    0.7384368500000000    0.3749817600000000 Li
   0.2384125300000000    0.6249696000000000    0.1249939200000000 Li
   0.1249939200000000    0.7615388400000001    0.3749817599999999 Li
   0.2615631500000000    0.6249696000000000    0.3749817599999999 Li
   0.3749817600000000    0.7615388400000001    0.1249939200000000 Li
   0.2384125300000000    0.8750060800000000    0.3749817600000000 Li
   0.1249939200000000    0.7384368500000000    0.1249939200000000 Li
   0.1249939200000000    0.6249696000000000    0.2384125300000000 Li
   0.1249939200000000    0.8750060800000000    0.2615631500000000 Li
   0.3749817599999999    0.6249696000000000    0.2615631500000000 Li
   0.3749817599999999    0.8750060800000000    0.2384125300000000 Li
   0.0115753100000000    0.6249696000000000    0.6249695999999999 Li
   0.1249939200000000    0.9884246899999999    0.8750060799999999 Li
   0.4884003700000000    0.8750060800000000    0.6249696000000000 Li
   0.3749817600000000    0.5115509900000000    0.8750060799999999 Li
   0.0115753100000000    0.8750060800000000    0.8750060799999999 Li
   0.1249939200000000    0.5115509900000000    0.6249695999999999 Li
   0.4884003699999999    0.6249696000000000    0.8750060799999999 Li
   0.3749817600000000    0.9884246899999999    0.6249696000000000 Li
   0.3749817599999999    0.6249696000000000    0.9884246900000000 Li
   0.3749817599999999    0.8750060800000000    0.5115509900000000 Li
   0.1249939200000000    0.6249696000000000    0.5115509899999999 Li
   0.1249939200000000    0.8750060800000000    0.9884246900000000 Li
   0.2615631500000000    0.8750060800000000    0.6249696000000000 Li
   0.3749817600000000    0.7384368500000000    0.8750060799999999 Li
   0.2384125300000000    0.6249696000000000    0.6249695999999999 Li
   0.1249939200000000    0.7615388400000001    0.8750060799999999 Li
   0.2615631500000000    0.6249696000000000    0.8750060799999999 Li
   0.2384125300000000    0.8750060800000000    0.8750060799999999 Li
   0.1249939200000000    0.7384368500000000    0.6249695999999999 Li
   0.1249939200000000    0.6249696000000000    0.7384368500000000 Li
   0.1249939200000000    0.8750060800000000    0.7615388399999999 Li
   0.3749817599999999    0.6249696000000000    0.7615388399999999 Li
   0.3749817599999999    0.8750060800000000    0.7384368499999999 Li
   0.5115509900000000    0.1249939200000000    0.1249939200000000 Li
   0.6249696000000000    0.4884003700000000    0.3749817600000000 Li
   0.9884246899999998    0.3749817600000000    0.1249939200000000 Li
   0.8750060800000000    0.0115753100000000    0.3749817599999999 Li
   0.5115509900000000    0.3749817600000000    0.3749817599999999 Li
   0.6249696000000000    0.0115753100000000    0.1249939200000000 Li
   0.9884246899999999    0.1249939200000000    0.3749817600000000 Li
   0.8750060799999999    0.4884003700000000    0.1249939200000000 Li
   0.8750060800000000    0.1249939200000000    0.4884003700000000 Li
   0.8750060799999999    0.3749817600000000    0.0115753100000000 Li
   0.6249696000000000    0.1249939200000000    0.0115753100000000 Li
   0.6249696000000000    0.3749817600000000    0.4884003700000000 Li
   0.7615388400000001    0.3749817600000000    0.1249939200000000 Li
   0.8750060800000000    0.2384125300000000    0.3749817600000000 Li
   0.7384368500000000    0.1249939200000000    0.1249939200000000 Li
   0.6249696000000000    0.2615631500000000    0.3749817599999999 Li
   0.7615388400000001    0.1249939200000000    0.3749817599999999 Li
   0.7384368500000000    0.3749817600000000    0.3749817600000000 Li
   0.6249696000000000    0.2384125300000000    0.1249939200000000 Li
   0.6249696000000000    0.1249939200000000    0.2384125300000000 Li
   0.6249696000000000    0.3749817600000000    0.2615631500000000 Li
   0.8750060800000000    0.1249939200000000    0.2615631500000000 Li
   0.8750060799999999    0.3749817600000000    0.2384125300000000 Li
   0.5115509900000000    0.1249939200000000    0.6249695999999999 Li
   0.6249696000000000    0.4884003700000000    0.8750060799999999 Li
   0.9884246899999998    0.3749817600000000    0.6249696000000000 Li
   0.8750060800000000    0.0115753100000000    0.8750060799999999 Li
   0.5115509900000000    0.3749817600000000    0.8750060799999999 Li
   0.6249696000000000    0.0115753100000000    0.6249695999999999 Li
   0.9884246899999999    0.1249939200000000    0.8750060799999999 Li
   0.8750060799999999    0.4884003700000000    0.6249696000000000 Li
   0.8750060800000000    0.1249939200000000    0.9884246900000000 Li
   0.8750060799999999    0.3749817600000000    0.5115509900000000 Li
   0.6249696000000000    0.1249939200000000    0.5115509899999999 Li
   0.6249696000000000    0.3749817600000000    0.9884246900000000 Li
   0.7615388400000001    0.3749817600000000    0.6249696000000000 Li
   0.8750060800000000    0.2384125300000000    0.8750060799999999 Li
   0.7384368500000000    0.1249939200000000    0.6249695999999999 Li
   0.6249696000000000    0.2615631500000000    0.8750060799999999 Li
   0.7615388400000001    0.1249939200000000    0.8750060799999999 Li
   0.8750060800000000    0.2615631500000000    0.6249696000000000 Li
   0.7384368500000000    0.3749817600000000    0.8750060799999999 Li
   0.6249696000000000    0.2384125300000000    0.6249695999999999 Li
   0.6249696000000000    0.1249939200000000    0.7384368500000000 Li
   0.6249696000000000    0.3749817600000000    0.7615388399999999 Li
   0.8750060800000000    0.1249939200000000    0.7615388399999999 Li
   0.8750060799999999    0.3749817600000000    0.7384368499999999 Li
   0.5115509900000000    0.6249696000000000    0.1249939200000000 Li
   0.6249696000000000    0.9884246899999999    0.3749817599999999 Li
   0.9884246899999999    0.8750060800000000    0.1249939200000000 Li
   0.8750060799999999    0.5115509900000000    0.3749817600000000 Li
   0.5115509900000000    0.8750060800000000    0.3749817600000000 Li
   0.6249696000000000    0.5115509900000000    0.1249939200000000 Li
   0.9884246899999999    0.6249696000000000    0.3749817599999999 Li
   0.8750060800000000    0.9884246899999999    0.1249939200000000 Li
   0.8750060800000000    0.6249696000000000    0.4884003700000000 Li
   0.8750060800000000    0.8750060800000000    0.0115753100000000 Li
   0.6249696000000000    0.6249696000000000    0.0115753100000000 Li
   0.6249696000000000    0.8750060800000000    0.4884003700000000 Li
   0.7615388400000001    0.8750060800000000    0.1249939200000000 Li
   0.8750060800000000    0.7384368500000000    0.3749817599999999 Li
   0.7384368500000000    0.6249696000000000    0.1249939200000000 Li
   0.6249696000000000    0.7615388400000001    0.3749817600000000 Li
   0.7615388400000001    0.6249696000000000    0.3749817600000000 Li
   0.8750060800000000    0.7615388400000001    0.1249939200000000 Li
   0.7384368500000001    0.8750060800000000    0.3749817599999999 Li
   0.6249696000000000    0.7384368500000000    0.1249939200000000 Li
   0.6249696000000000    0.6249696000000000    0.2384125300000000 Li
   0.6249696000000000    0.8750060800000000    0.2615631500000000 Li
   0.8750060800000000    0.6249696000000000    0.2615631500000000 Li
   0.8750060800000000    0.8750060800000000    0.2384125300000000 Li
   0.5115509900000000    0.6249696000000000    0.6249696000000000 Li
   0.6249696000000000    0.9884246899999999    0.8750060800000000 Li
   0.9884246899999999    0.8750060800000000    0.6249696000000000 Li
   0.8750060799999999    0.5115509900000000    0.8750060799999999 Li
   0.5115509900000000    0.8750060800000000    0.8750060799999999 Li
   0.6249696000000000    0.5115509900000000    0.6249696000000000 Li
   0.9884246899999999    0.6249696000000000    0.8750060800000000 Li
   0.8750060800000000    0.9884246899999999    0.6249696000000000 Li
   0.8750060800000000    0.6249696000000000    0.9884246900000000 Li
   0.8750060800000000    0.8750060800000000    0.5115509900000000 Li
   0.6249696000000000    0.6249696000000000    0.5115509900000000 Li
   0.6249696000000000    0.8750060800000000    0.9884246900000000 Li
   0.7615388400000001    0.8750060800000000    0.6249696000000000 Li
   0.8750060800000000    0.7384368500000000    0.8750060800000000 Li
   0.7384368500000000    0.6249696000000000    0.6249696000000000 Li
   0.6249696000000000    0.7615388400000001    0.8750060799999999 Li
   0.7615388400000001    0.6249696000000000    0.8750060799999999 Li
   0.8750060800000000    0.7615388400000001    0.6249696000000000 Li
   0.7384368500000001    0.8750060800000000    0.8750060800000000 Li
   0.6249696000000000    0.7384368500000000    0.6249696000000000 Li
   0.6249696000000000    0.6249696000000000    0.7384368499999999 Li
   0.6249696000000000    0.8750060800000000    0.7615388400000001 Li
   0.8750060800000000    0.6249696000000000    0.7615388400000001 Li
   0.8750060800000000    0.8750060800000000    0.7384368500000000 Li
   0.0000000000000000    0.0000000000000000    0.2499878400000000 P
   0.2499878400000000    0.0000000000000000    0.0000000000000000 P
   0.0000000000000000    0.2499878400000000    0.0000000000000000 P
   0.2499878400000000    0.2499878400000000    0.2499878400000000 P
   0.0000000000000000    0.0000000000000000    0.7499635200000000 P
   0.2499878400000000    0.0000000000000000    0.4999756799999999 P
   0.0000000000000000    0.2499878400000000    0.4999756799999999 P
   0.2499878400000000    0.2499878400000000    0.7499635199999999 P
   0.0000000000000000    0.4999756799999999    0.2499878400000000 P
   0.2499878400000000    0.4999756799999999    0.0000000000000000 P
   0.0000000000000000    0.7499635200000000    0.0000000000000000 P
   0.2499878400000000    0.7499635200000000    0.2499878400000000 P
   0.0000000000000000    0.4999756799999999    0.7499635199999999 P
   0.2499878400000000    0.4999756799999999    0.4999756800000000 P
   0.0000000000000000    0.7499635200000000    0.4999756800000000 P
   0.2499878400000000    0.7499635200000000    0.7499635200000000 P
   0.4999756799999999    0.0000000000000000    0.2499878400000000 P
   0.7499635200000000    0.0000000000000000    0.0000000000000000 P
   0.4999756799999999    0.2499878400000000    0.0000000000000000 P
   0.7499635200000000    0.2499878400000000    0.2499878400000000 P
   0.4999756799999999    0.0000000000000000    0.7499635199999999 P
   0.7499635200000000    0.0000000000000000    0.4999756800000000 P
   0.4999756799999999    0.2499878400000000    0.4999756800000000 P
   0.7499635200000000    0.2499878400000000    0.7499635200000000 P
   0.4999756800000000    0.4999756799999999    0.2499878400000000 P
   0.7499635199999999    0.4999756799999999    0.0000000000000000 P
   0.4999756799999999    0.7499635200000000    0.0000000000000000 P
   0.7499635199999999    0.7499635200000000    0.2499878400000000 P
   0.4999756800000000    0.4999756799999999    0.7499635200000000 P
   0.7499635199999999    0.4999756799999999    0.4999756800000000 P
   0.4999756799999999    0.7499635200000000    0.4999756800000000 P
   0.7499635199999999    0.7499635200000000    0.7499635200000000 P
   0.0577792900000000    0.0577792900000000    0.3078157700000000 S
   0.0577792900000000    0.4421963899999999    0.1922085500000000 S
   0.4421963900000000    0.4421963899999999    0.3078157700000000 S
   0.4421963899999999    0.0577792900000000    0.1922085500000000 S
   0.3078157700000000    0.0577792900000000    0.0577792900000000 S
   0.1922085500000000    0.0577792900000000    0.4421963899999999 S
   0.3078157700000000    0.4421963899999999    0.4421963900000000 S
   0.1922085500000000    0.4421963899999999    0.0577792900000000 S
   0.0577792900000000    0.3078157700000000    0.0577792900000000 S
   0.4421963899999999    0.1922085500000000    0.0577792900000000 S
   0.4421963900000000    0.3078157700000000    0.4421963900000000 S
   0.0577792900000000    0.1922085500000000    0.4421963899999999 S
   0.3078157700000000    0.3078157700000000    0.3078157700000000 S
   0.3078157700000000    0.1922085500000000    0.1922085500000000 S
   0.1922085500000000    0.1922085500000000    0.3078157700000000 S
   0.1922085500000000    0.3078157700000000    0.1922085500000000 S
   0.1249939200000000    0.1249939200000000    0.1249939200000000 S
   0.1249939200000000    0.3749817600000000    0.3749817600000000 S
   0.3749817599999999    0.3749817600000000    0.1249939200000000 S
   0.3749817600000000    0.1249939200000000    0.3749817600000000 S
   0.0577792900000000    0.0577792900000000    0.8077914500000000 S
   0.0577792900000000    0.4421963899999999    0.6921842300000000 S
   0.4421963900000000    0.4421963899999999    0.8077914499999999 S
   0.4421963899999999    0.0577792900000000    0.6921842300000000 S
   0.3078157700000000    0.0577792900000000    0.5578036100000000 S
   0.1922085500000000    0.0577792900000000    0.9421720699999999 S
   0.3078157700000000    0.4421963899999999    0.9421720699999999 S
   0.1922085500000000    0.4421963899999999    0.5578036100000000 S
   0.0577792900000000    0.3078157700000000    0.5578036100000000 S
   0.4421963899999999    0.1922085500000000    0.5578036100000000 S
   0.4421963900000000    0.3078157700000000    0.9421720699999999 S
   0.0577792900000000    0.1922085500000000    0.9421720699999999 S
   0.3078157700000000    0.3078157700000000    0.8077914499999999 S
   0.3078157700000000    0.1922085500000000    0.6921842300000000 S
   0.1922085500000000    0.1922085500000000    0.8077914499999999 S
   0.1922085500000000    0.3078157700000000    0.6921842300000000 S
   0.1249939200000000    0.1249939200000000    0.6249696000000000 S
   0.1249939200000000    0.3749817600000000    0.8750060799999999 S
   0.3749817599999999    0.3749817600000000    0.6249695999999999 S
   0.3749817600000000    0.1249939200000000    0.8750060799999999 S
   0.0577792900000000    0.5578036100000000    0.3078157700000000 S
   0.0577792900000000    0.9421720700000000    0.1922085500000000 S
   0.4421963899999999    0.9421720700000000    0.3078157700000000 S
   0.4421963899999999    0.5578036100000000    0.1922085500000000 S
   0.3078157700000000    0.5578036100000000    0.0577792900000000 S
   0.1922085500000000    0.5578036100000000    0.4421963900000000 S
   0.3078157700000000    0.9421720700000000    0.4421963899999999 S
   0.1922085500000000    0.9421720700000000    0.0577792900000000 S
   0.0577792900000000    0.8077914500000000    0.0577792900000000 S
   0.4421963899999999    0.6921842300000000    0.0577792900000000 S
   0.4421963900000000    0.8077914500000000    0.4421963899999999 S
   0.0577792900000000    0.6921842300000000    0.4421963900000000 S
   0.3078157700000000    0.8077914500000000    0.3078157700000000 S
   0.3078157700000000    0.6921842300000000    0.1922085500000000 S
   0.1922085500000000    0.6921842300000000    0.3078157700000000 S
   0.1922085500000000    0.8077914500000000    0.1922085500000000 S
   0.1249939200000000    0.6249696000000000    0.1249939200000000 S
   0.1249939200000000    0.8750060800000000    0.3749817599999999 S
   0.3749817599999999    0.8750060800000000    0.1249939200000000 S
   0.3749817599999999    0.6249696000000000    0.3749817599999999 S
   0.0577792900000000    0.5578036100000000    0.8077914499999999 S
   0.0577792900000000    0.9421720700000000    0.6921842299999998 S
   0.4421963899999999    0.9421720700000000    0.8077914499999999 S
   0.4421963899999999    0.5578036100000000    0.6921842299999998 S
   0.3078157700000000    0.5578036100000000    0.5578036099999999 S
   0.1922085500000000    0.5578036100000000    0.9421720699999999 S
   0.3078157700000000    0.9421720700000000    0.9421720699999999 S
   0.1922085500000000    0.9421720700000000    0.5578036100000000 S
   0.0577792900000000    0.8077914500000000    0.5578036099999999 S
   0.4421963899999999    0.6921842300000000    0.5578036100000000 S
   0.4421963900000000    0.8077914500000000    0.9421720699999999 S
   0.0577792900000000    0.6921842300000000    0.9421720699999999 S
   0.3078157700000000    0.8077914500000000    0.8077914499999999 S
   0.3078157700000000    0.6921842300000000    0.6921842299999998 S
   0.1922085500000000    0.6921842300000000    0.8077914499999999 S
   0.1922085500000000    0.8077914500000000    0.6921842299999998 S
   0.1249939200000000    0.6249696000000000    0.6249695999999999 S
   0.1249939200000000    0.8750060800000000    0.8750060799999999 S
   0.3749817599999999    0.8750060800000000    0.6249696000000000 S
   0.3749817599999999    0.6249696000000000    0.8750060799999999 S
   0.5578036100000000    0.0577792900000000    0.3078157700000000 S
   0.5578036100000000    0.4421963899999999    0.1922085500000000 S
   0.9421720699999999    0.4421963899999999    0.3078157700000000 S
   0.9421720700000000    0.0577792900000000    0.1922085500000000 S
   0.8077914500000000    0.0577792900000000    0.0577792900000000 S
   0.6921842300000000    0.0577792900000000    0.4421963900000000 S
   0.8077914499999999    0.4421963899999999    0.4421963899999999 S
   0.6921842300000000    0.4421963899999999    0.0577792900000000 S
   0.5578036100000001    0.3078157700000000    0.0577792900000000 S
   0.9421720700000000    0.1922085500000000    0.0577792900000000 S
   0.9421720700000000    0.3078157700000000    0.4421963899999999 S
   0.5578036100000000    0.1922085500000000    0.4421963900000000 S
   0.8077914500000000    0.3078157700000000    0.3078157700000000 S
   0.8077914500000000    0.1922085500000000    0.1922085500000000 S
   0.6921842300000000    0.1922085500000000    0.3078157700000000 S
   0.6921842300000001    0.3078157700000000    0.1922085500000000 S
   0.6249696000000000    0.1249939200000000    0.1249939200000000 S
   0.6249696000000000    0.3749817600000000    0.3749817599999999 S
   0.8750060799999999    0.3749817600000000    0.1249939200000000 S
   0.8750060800000000    0.1249939200000000    0.3749817599999999 S
   0.5578036100000000    0.0577792900000000    0.8077914499999999 S
   0.5578036100000000    0.4421963899999999    0.6921842299999998 S
   0.9421720699999999    0.4421963899999999    0.8077914499999999 S
   0.9421720700000000    0.0577792900000000    0.6921842299999998 S
   0.8077914500000000    0.0577792900000000    0.5578036099999999 S
   0.6921842300000000    0.0577792900000000    0.9421720699999999 S
   0.8077914499999999    0.4421963899999999    0.9421720699999999 S
   0.6921842300000000    0.4421963899999999    0.5578036100000000 S
   0.5578036100000001    0.3078157700000000    0.5578036099999999 S
   0.9421720700000000    0.1922085500000000    0.5578036100000000 S
   0.9421720700000000    0.3078157700000000    0.9421720699999999 S
   0.5578036100000000    0.1922085500000000    0.9421720699999999 S
   0.8077914500000000    0.3078157700000000    0.8077914499999999 S
   0.8077914500000000    0.1922085500000000    0.6921842299999998 S
   0.6921842300000000    0.1922085500000000    0.8077914499999999 S
   0.6921842300000001    0.3078157700000000    0.6921842299999998 S
   0.6249696000000000    0.1249939200000000    0.6249695999999999 S
   0.6249696000000000    0.3749817600000000    0.8750060799999999 S
   0.8750060799999999    0.3749817600000000    0.6249696000000000 S
   0.8750060800000000    0.1249939200000000    0.8750060799999999 S
   0.5578036100000000    0.5578036100000000    0.3078157700000000 S
   0.5578036100000001    0.9421720700000000    0.1922085500000000 S
   0.9421720700000000    0.9421720700000000    0.3078157699999999 S
   0.9421720700000000    0.5578036100000000    0.1922085500000000 S
   0.8077914500000000    0.5578036100000000    0.0577792900000000 S
   0.6921842300000000    0.5578036100000000    0.4421963899999999 S
   0.8077914500000000    0.9421720700000000    0.4421963900000000 S
   0.6921842300000001    0.9421720700000000    0.0577792900000000 S
   0.5578036100000001    0.8077914500000000    0.0577792900000000 S
   0.9421720700000000    0.6921842300000000    0.0577792900000000 S
   0.9421720700000000    0.8077914500000000    0.4421963900000000 S
   0.5578036100000000    0.6921842300000000    0.4421963899999999 S
   0.8077914500000000    0.8077914500000000    0.3078157700000000 S
   0.8077914500000000    0.6921842300000000    0.1922085500000000 S
   0.6921842300000000    0.6921842300000000    0.3078157700000000 S
   0.6921842300000001    0.8077914500000000    0.1922085500000000 S
   0.6249696000000000    0.6249696000000000    0.1249939200000000 S
   0.6249696000000000    0.8750060800000000    0.3749817600000000 S
   0.8750060800000000    0.8750060800000000    0.1249939200000000 S
   0.8750060800000000    0.6249696000000000    0.3749817600000000 S
   0.5578036100000000    0.5578036100000000    0.8077914499999999 S
   0.5578036100000001    0.9421720700000000    0.6921842300000000 S
   0.9421720700000000    0.9421720700000000    0.8077914500000000 S
   0.9421720700000000    0.5578036100000000    0.6921842300000000 S
   0.8077914500000000    0.5578036100000000    0.5578036100000000 S
   0.6921842300000000    0.5578036100000000    0.9421720699999999 S
   0.8077914500000000    0.9421720700000000    0.9421720700000000 S
   0.6921842300000001    0.9421720700000000    0.5578036100000000 S
   0.5578036100000001    0.8077914500000000    0.5578036100000000 S
   0.9421720700000000    0.6921842300000000    0.5578036100000000 S
   0.9421720700000000    0.8077914500000000    0.9421720700000000 S
   0.5578036100000000    0.6921842300000000    0.9421720699999999 S
   0.8077914500000000    0.8077914500000000    0.8077914500000000 S
   0.8077914500000000    0.6921842300000000    0.6921842300000000 S
   0.6921842300000000    0.6921842300000000    0.8077914499999999 S
   0.6921842300000001    0.8077914500000000    0.6921842300000000 S
   0.6249696000000000    0.6249696000000000    0.6249696000000000 S
   0.6249696000000000    0.8750060800000000    0.8750060799999999 S
   0.8750060800000000    0.8750060800000000    0.6249696000000000 S
   0.8750060800000000    0.6249696000000000    0.8750060799999999 S
   0.0000000000000000    0.0000000000000000    0.0000000000000000 Cl
   0.2499878400000000    0.2499878400000000    0.0000000000000000 Cl
   0.2499878400000000    0.0000000000000000    0.2499878400000000 Cl
   0.0000000000000000    0.2499878400000000    0.2499878400000000 Cl
   0.0000000000000000    0.0000000000000000    0.4999756799999999 Cl
   0.2499878400000000    0.2499878400000000    0.4999756799999999 Cl
   0.2499878400000000    0.0000000000000000    0.7499635200000000 Cl
   0.0000000000000000    0.2499878400000000    0.7499635200000000 Cl
   0.0000000000000000    0.4999756799999999    0.0000000000000000 Cl
   0.2499878400000000    0.7499635200000000    0.0000000000000000 Cl
   0.2499878400000000    0.4999756799999999    0.2499878400000000 Cl
   0.0000000000000000    0.7499635200000000    0.2499878400000000 Cl
   0.0000000000000000    0.4999756799999999    0.4999756799999999 Cl
   0.2499878400000000    0.7499635200000000    0.4999756800000000 Cl
   0.2499878400000000    0.4999756799999999    0.7499635200000000 Cl
   0.0000000000000000    0.7499635200000000    0.7499635200000000 Cl
   0.4999756799999999    0.0000000000000000    0.0000000000000000 Cl
   0.7499635200000000    0.2499878400000000    0.0000000000000000 Cl
   0.7499635200000000    0.0000000000000000    0.2499878400000000 Cl
   0.4999756799999999    0.2499878400000000    0.2499878400000000 Cl
   0.4999756799999999    0.0000000000000000    0.4999756799999999 Cl
   0.7499635200000000    0.2499878400000000    0.4999756800000000 Cl
   0.7499635200000000    0.0000000000000000    0.7499635200000000 Cl
   0.4999756799999999    0.2499878400000000    0.7499635200000000 Cl
   0.4999756800000000    0.4999756799999999    0.0000000000000000 Cl
   0.7499635199999999    0.7499635200000000    0.0000000000000000 Cl
   0.7499635199999999    0.4999756799999999    0.2499878400000000 Cl
   0.4999756799999999    0.7499635200000000    0.2499878400000000 Cl
   0.4999756800000000    0.4999756799999999    0.4999756800000000 Cl
   0.7499635199999999    0.7499635200000000    0.4999756799999999 Cl
   0.7499635199999999    0.4999756799999999    0.7499635200000000 Cl
   0.4999756799999999    0.7499635200000000    0.7499635200000000 Cl
