Li P  S  Cl
 1.0000000000000000
    25.1819793006824639    0.0000000000000000    0.0000000000000015
    -0.0000000000000009   14.5388225279766061    0.0000000000000009
     0.0000000000000000    0.0000000000000000   37.2126966544236950
 Li  P   S   Cl 
 287  48 240  48
Selective dynamics
Cartesian
  0.1509752530102682  5.2568326417924514  9.1730176044324683   T   T   T
 13.0208054326325851 11.0409528089818387  9.0500143915257230   T   T   T
 19.2939424025006474  2.8087386348832060 15.0104889618892283   T   T   T
  5.1686610812464835  6.3852936201971682 13.4849737978842246   T   T   T
  6.5030729913572518  1.0142160075195514 -3.3197444346947802   T   T   T
 23.0752836146779643  6.9948903956882900  3.0447310303724415   T   T   T
  3.3159707025626397  4.3742253478779025  9.3157405160668212   T   T   T
 15.6294242858891241 13.5195834706663245  8.8650462696949930   T   T   T
 22.2299818858030775  2.8900777995851641 15.2661975969534236   T   T   T
  5.6475664031408703 14.3449969474696530 13.9534816308548972   T   T   T
  6.3197777007672533  9.7299945012110118  8.9739925965235585   T   T   T
 11.7589523926336863 13.2416275498658731 -2.9353490660879795   T   T   T
  9.0930214236796250  4.4346257072917883 12.1894074286661613   T   T   T
 23.9082589644617869  6.4876994605989760 -0.2138361620629370   T   T   T
 25.8501482097469903  4.8121445309741375 25.2172960107135218   T   T   T
  4.5504970497585848  4.5170203398565887 17.7886342774755200   T   T   T
  5.9941787127333477 16.4332168933053211  2.5868981140312033   T   T   T
 30.7777048941606211  8.0697099631464706  3.1554028696275251   T   T   T
  0.7468443250157387  3.5566870051402732  6.3461888433442857   T   T   T
 12.4320043394601143 13.5177899144659932  7.3933920025970181   T   T   T
 16.9405239523029323  3.8245154266352066 13.4092479676060368   T   T   T
 -1.5526107880628650 15.0819979121933336 14.9710861661658274   T   T   T
  9.8001271202835465  2.7661716190234547  2.8458133355593804   T   T   T
 19.4379926199933806 12.4735018134782774 -0.2563177392830867   T   T   T
  1.3832243539460527  1.2503844085065869 15.8901710023485929   T   T   T
 18.3231333035814927 14.5029014906083855 14.1520680969014112   T   T   T
 11.9727441339186100  3.0771343530415933 13.1906992669613583   T   T   T
  8.0801551597959005 12.2059101340696436 12.1612439446023988   T   T   T
  8.5280551168781482  1.3001399159438161 -7.9099630488721946   T   T   T
 25.9609776437643234  6.6902807758739131  6.6331095995060325   T   T   T
 -4.9018500628998876  7.3524708032096697  4.9805226737551891   T   T   T
 16.2746513563774258 10.4669883198774318  8.4183932185921933   T   T   T
 17.7337361535634983  7.1259172612098638 12.9761552714423107   T   T   T
  5.2388708888977797 13.1409705761739808 11.0335563259814808   T   T   T
  3.9436860057224750  3.3825714027633893 -0.1667927106451083   T   T   T
 17.5984128888484292  6.1040525565026815  2.7098960797702785   T   T   T
 24.3682829148094982 17.6476522264253504 12.8033191922708536   T   T   T
 14.5846906838910080  8.9064000925640521 12.5095988712004047   T   T   T
 22.1137904023438523 11.4353701068764337 -1.0390086512996766   T   T   T
  3.5448934615636860  4.4293509989773510  6.1156677634452929   T   T   T
  7.0045928202839196 16.7350804770381139  9.2244569971383381   T   T   T
 19.0054910426552510  6.6621269920454065  7.5505567616160656   T   T   T
 23.9468394335353807 -2.1745356754820624 17.0231039944082347   T   T   T
 11.7315776227567152  7.0172681696255506 11.3289665617975803   T   T   T
 13.5836335008023905  4.4124460422791811 -2.8683983087932683   T   T   T
  3.9320163481666639 12.2138554529822247  6.6228451837760502   T   T   T
  5.8724730703965040 -0.0881217095946168  7.6723881914843801   T   T   T
 22.3109137730092328  7.1918417523270479  8.9532551048659439   T   T   T
 -1.3246947880158426 10.0522006077377064 11.7404562329924609   T   T   T
 18.8234434770182872 10.1309344249234261 13.0017569743107160   T   T   T
 18.2877471205677935 -4.9677285793216432  2.9644588575334372   T   T   T
 -5.4842888106848138 10.0151026256438236  6.3788327380042356   T   T   T
  7.1241371637707402  1.7876157634811416  5.4279773999870571   T   T   T
 24.5942629869681895  7.1409047978973055 11.4855130130452512   T   T   T
 -1.6200369812259821  0.9690345593108337 18.9555883432146963   T   T   T
 14.8082131633153296  7.3687597130737057 14.5385255005783502   T   T   T
 17.2192948532049925 -1.7851219109315510  3.1996842110218884   T   T   T
  3.5376768294559007  0.8076844991234151 -5.7824038001007825   T   T   T
 10.2680037497855334  2.0437377188634533  7.4413457130022254   T   T   T
 19.9216675927304649 17.6610325884402286  6.8673940293290290   T   T   T
 -0.3461165155692276 13.2115271535655374 13.1231843860187283   T   T   T
 11.8921638213176859 10.6695666098444608 12.5239058554285858   T   T   T
 15.6569609883666399 17.1298296492578501  3.3339936556385310   T   T   T
  3.6849786015996653 -1.1516961722303158  2.9617742537388096   T   T   T
 10.9977370045727678  9.9401937216352945  2.8965743375223392   T   T   T
 22.5613157596845966  8.7396564129022618  6.3388630137015163   T   T   T
 25.5552378265338902  9.8206882730461640 14.9370000628592603   T   T   T
 11.8062057543281966  6.7504046706291634 14.9296935803181334   T   T   T
 23.2065752326057293  2.9869554123647513  0.6195859899819730   T   T   T
 -4.8180481612615536 12.5479611214859741  2.8838236334774607   T   T   T
  8.8518144364670519 -0.0225022653222725  5.6175385597886089   T   T   T
 20.3647953627441964 10.1871487607829838  9.0143454218090291   T   T   T
  0.7272461683198703 13.8723475266469976  5.8631942700842856   T   T   T
 12.3058507958874710  4.4511268014517746  8.8580325999072027   T   T   T
 22.0701944989123362 10.7749838031541536 17.7862984001008009   T   T   T
  6.6855696017040529  5.7520424395535441 11.2086242289864320   T   T   T
 15.9910188088687377 12.0468610767858628  5.6118917039663838   T   T   T
 19.8624138822899212  5.1098145870738447 -2.4130556387842841   T   T   T
  1.8928289788042181 14.4939262223848022  8.3366125542711309   T   T   T
 14.4004114869915476  2.3058371501278043 15.2910475974967284   T   T   T
 21.0136004357993471 17.1148378264760055 18.7152742841341357   T   T   T
  8.3158195391809588  6.0598710141101826 14.1671081076956398   T   T   T
 13.4234723610179412  9.6497635369663062  6.5408265227263644   T   T   T
 19.6894604323063831 -4.9088122409362560  1.2295994352223409   T   T   T
 -4.6197858385548622 20.3595033895223949 14.9403175832660171   T   T   T
 16.1359576703129477  3.6262912497467652  9.1015290602429602   T   T   T
 22.1656125396965464 12.0500563526364868 23.0687199036345625   T   T   T
  4.7457790664513215  0.6976555112786533 17.3609335265280116   T   T   T
 18.8704150571145917 16.5388800353098127  2.8124431060501580   T   T   T
 22.6090447344883785  4.7212457582022695 -3.2219180723668428   T   T   T
 -0.7739572921119918 14.7541255505533861 11.3850230066150004   T   T   T
 16.5486287117290303  4.6528429845659751  6.0042306267781029   T   T   T
 25.4568994215961553 18.6249383100617578 16.4779945374427399   T   T   T
  6.6865869405666016  2.6917773991276843 14.7897001670150114   T   T   T
  7.6272524073797010  9.5667310487844084  5.1875498846510615   T   T   T
 27.6395839001040855  9.1778913314280359  3.0972286554460409   T   T   T
  6.8204344280660703 10.2520533682279247 14.6389820655266192   T   T   T
 13.9057952853971667  2.1479622916907504  7.5959156841696291   T   T   T
 17.7484735203897799 12.5026774990114227 11.5537463899441430   T   T   T
 11.5537282577960543 -0.4748425798829297 12.7770585410860811   T   T   T
  8.5903778108127167  6.5291804025269000  8.6242088371593848   T   T   T
 25.1384649702192462 -2.2611401366732515  8.5905117914957518   T   T   T
  2.0124447409586854 13.1979015337838490 -2.9235695646619320   T   T   T
 13.5873196490527519  5.8225125810460208  5.7772835120872559   T   T   T
 21.3518096372954105 12.2982594137393306 12.7637815904471665   T   T   T
  5.2406202289959349  3.1789415685908669 12.0571772959609227   T   T   T
  5.5541991285100751 14.4061192078575822  0.6794331578802750   T   T   T
 24.8129360140753334  4.2177080511247036  2.5674645197720181   T   T   T
 20.7016742361215407 19.4859717297819124 12.0097252403082759   T   T   T
  7.9601634430118020  6.7426282365313019  5.7053082926798027   T   T   T
  4.6879184346840228  9.7646333383858437 12.0088069455895727   T   T   T
 24.7239540070565269  6.2553561537008679 13.7239345205312961   T   T   T
  5.7894157354375055  7.2397651607257618  8.3172518213997026   T   T   T
 12.3842912757007451  5.3889323947484229  2.7041611635781670   T   T   T
 21.6400233906319741  2.3764295334189942  9.2926248917085204   T   T   T
  2.1190106333133287  7.2702325750628329  8.9611777229887206   T   T   T
 13.2032039956720855 -1.1088077069433246 15.4188524923448718   T   T   T
 27.4119154509480509  8.1651686522861073 13.0896942108191023   T   T   T
  5.5757877583278157 -7.9143523152662567 -0.3495094043661233   T   T   T
 14.4237965384560347  6.8571922869853204  8.6828834335176737   T   T   T
 18.4128458411784450  3.4873816454218329 11.3858536041216407   T   T   T
 15.0379954072380073  1.0304921164018621 12.9192702520055640   T   T   T
 -2.2291431151483887 23.0257658278309449 14.3750759412676565   T   T   T
  9.3674697138998404  6.1784716906480437  2.9991125158499230   T   T   T
 15.4335326036773779  9.2732303107284419  2.6516317482879259   T   T   T
 18.5405152633518355  0.3219678824384201  7.8970150573490123   T   T   T
  4.4581076019770531  8.4216355368277220 16.7469693802298778   T   T   T
 16.4519974912593341 -3.4245181320310212 14.9646422824393568   T   T   T
  3.3680363984261663 11.1308866891240807  8.7144329319516221   T   T   T
 -0.9060169442372097 -4.0259665448130280  3.0897936267391142   T   T   T
 17.4809711936658587  9.7626216136558135 -0.0599025073918416   T   T   T
 20.6546220707982329 14.0949745977087471  5.1102535284590207   T   T   T
  9.2159117597444844  9.8932172569522674  8.3093871951064262   T   T   T
 10.7017065241759202  9.6276353288581298 14.8257580041200274   T   T   T
  2.1272087105097737  1.1412029014354126 12.8432543056280046   T   T   T
  7.4613313028572268 11.8841335465753470  0.0378943985349562   T   T   T
 12.9707709060655638 12.0347521025363235  4.0828881472941321   T   T   T
 20.7263750522417212 -0.8666485320197068  9.0112317371959616   T   T   T
  9.6846090519565884 14.0563313913227894  8.9343474118119275   T   T   T
 15.5821214243127510  4.9751482267903899 17.7737471103515432   T   T   T
 28.9394285330288596  9.1023078329675009 22.7491901110400718   T   T   T
  1.9762718930703489  2.4220099431293103  2.7414950350270191   T   T   T
  6.9761176687170323  7.9832525674928361 -2.8065196354182742   T   T   T
 18.0260055511537445  4.2746999763449098 21.6435855719570220   T   T   T
 22.6763099820537022 12.4769694881377582 29.6352282798072650   T   T   T
  2.3990322530149157  4.4511171538400154 22.6686309531913572   T   T   T
 15.1388709514875277  7.8648968838468525 23.4993971441244405   T   T   T
 15.7297645182570314  7.1835450567800931 36.3162842763794060   T   T   T
 10.1398460743077532  7.5882124986891482 30.0937161438712941   T   T   T
  2.8664181853615833  8.0743579339753069 29.0563071941342059   T   T   T
 26.4708506920993898  9.1399305212189574 25.0534331151258769   T   T   T
  0.2544455425028028  2.0598844638613256 23.3934745413778167   T   T   T
 16.0266179013036876  9.3132170478363872 26.2691035519817078   T   T   T
 17.1932250367667052 10.7177684912711939 23.9054487160681965   T   T   T
  4.5262583715856328 15.8086588703342823 28.1601461129877819   T   T   T
  9.6918337356824100  3.3151505172207538 31.8970169445416261   T   T   T
 15.6575383584120900  4.7211499617439641 23.7865922795852924   T   T   T
  9.9539156064024112  5.3790099335502477 22.3583970937761407   T   T   T
 16.5375144376899641 15.0485465978046626 17.7126817834460795   T   T   T
 14.9682443592507060  3.4287597601160638 37.3552064432105198   T   T   T
  3.4334669123084303  8.7377888149981260 36.2067027167872908   T   T   T
 11.4085524374380203  1.3982425232458540 31.6060592200994321   T   T   T
 22.3900162478088731  8.1842800629446533 30.8727222459625743   T   T   T
  1.7229506627667659  1.9002757415133842 26.4537559746747029   T   T   T
 13.8116890359116127 11.1843689524596321 26.5206730691775689   T   T   T
 16.7397886449721227  3.5577600264081828 34.7980261203858774   T   T   T
 10.3517243075399055  5.7315594007272619 36.4362903936392613   T   T   T
 12.8609445596126566  3.2433453079518038 29.2626673930591643   T   T   T
 25.7271403444198086 10.4103256907792723 21.7694752528174362   T   T   T
  8.4001667513520122  2.9505557694442008 19.0914226357023722   T   T   T
 19.8642456151587297 11.7361345168588045 24.8690539117682157   T   T   T
 21.2173389339769543  6.0441126960054170 37.6977654797938726   T   T   T
  3.7534616572008024 12.5557012483879102 31.6274396377676048   T   T   T
 10.1937407327272691  4.8354968650516463 28.9761419209685869   T   T   T
 31.7392516685906401  6.7131790581602235 31.0311385474978394   T   T   T
  2.6977983661562672  0.6942418393278730 23.8588950164960707   T   T   T
 18.5069218457101741 -2.2077763867725304 28.5202663966295340   T   T   T
 25.1887876082735858 10.4682679490504142 28.0812884027183678   T   T   T
  4.6824974443379874 12.2225733181020324 35.5162708276775945   T   T   T
  4.3690696999826297  3.0391235739975646 24.9104784359518838   T   T   T
 20.3863431417529029  0.5521810904892447 26.0079972594477340   T   T   T
 34.6135216139985644  9.1102041310969106 36.3443961071900574   T   T   T
 13.2126808418690214 -3.0477156198847370 36.8777447791961634   T   T   T
 15.7824622339364318  6.6218177029850178 32.1654347831662974   T   T   T
  5.7505042308368575 -1.9505764990929930 28.7851164003630338   T   T   T
 10.3642109516684329  6.3564193300947691 25.0665645144237281   T   T   T
 18.0078006129388868 15.4208871055184993 20.0530766197552843   T   T   T
 18.8136690242422588  0.7094698217634358 34.3932774777252988   T   T   T
 19.0231111845009053 -8.4698782475794303 31.0601250726923688   T   T   T
 11.2753209929696343 14.0476131519004603 24.4824274163459741   T   T   T
  1.6639319348340988 14.5642045873100212 19.8237324324625739   T   T   T
  8.6126858455706063 13.6226659397503944 15.4519022301519922   T   T   T
 20.5483877813793043 12.2055063558159897 15.7643053152745267   T   T   T
  0.0846960340658330 10.9627561589850107 35.7112995948184277   T   T   T
 15.2691533189409601 12.6847653362843200 33.9774797838716438   T   T   T
 16.1687895133514559  2.7639386010268727 26.2407152258719449   T   T   T
  4.2096974457219334 16.5477414237423552 21.0244633635719502   T   T   T
  7.1156861689141344  4.3146947952588173 24.4820660689013465   T   T   T
 23.1409496232683196 13.7616168950470588 25.2271340738730565   T   T   T
  1.8887995718528934  7.0411254010283768 38.3327474405301700   T   T   T
 21.9365772311106397  3.6506986256711245 40.6798551116477043   T   T   T
 23.1381491764037079 11.1058332383838891 32.2357367538823709   T   T   T
  6.2674299421795707 13.8224782913804365 31.3481315382463563   T   T   T
  7.9422875981788827  7.7335824620756064 25.6054443945303696   T   T   T
 20.7190047045756032  1.1560615745012197 23.2379589487121585   T   T   T
 -4.3234934207468783  9.0835588790714397 23.6436381941009408   T   T   T
 11.9821116210459166 -0.5313717757402162 37.1009394764675804   T   T   T
 18.5424423133041145  7.5787501916393225 28.3580412971727789   T   T   T
  8.8547016567769159  0.2007103123844848 26.3331515037144470   T   T   T
  6.5825546383852815  7.2974826537128186 22.7084936830305573   T   T   T
 20.1459936808564635 19.1262339104994119 25.1053479723436190   T   T   T
 15.1579700374065247 -0.0066726694032478 28.5368977088762925   T   T   T
 13.2238399914845761  1.2202567867419196 34.0421928394096298   T   T   T
 16.5557781386905560  4.2831599495630908 30.1347181717447725   T   T   T
  4.7713432831060745  9.9630523037157932 34.1147649928604437   T   T   T
  9.3136072288920939 10.1546350276180704 31.4215689160566960   T   T   T
 24.4691689126503746  1.2933745073920540 28.7167270588589538   T   T   T
  9.3968680837305207 16.0296646741037421 22.6385632132130326   T   T   T
 14.0244517708747445  5.5944935954190838 20.7900288277920922   T   T   T
 18.4473885822650132  9.1402305993543322 33.8690723275732992   T   T   T
  7.6466694637285961  5.2124071507863823 34.6837869720330332   T   T   T
 12.2983322266708992 10.5687861807236381 31.8881735618849653   T   T   T
 25.7702794081763074  3.5821786041667871 30.1340959128981645   T   T   T
  3.5261906622349133 10.5140443365812342 25.9468177145119654   T   T   T
 10.4993091106988263  6.3546567385870976 18.0315903297866953   T   T   T
 21.0994437763097267  8.5053873761534113 34.8615090218576071   T   T   T
 14.4534752171391734  6.5856552961861006 38.7593627873203772   T   T   T
 11.4125536290764682 11.8488327569113139 28.6232691600652878   T   T   T
 21.6948638852822526  1.8521760735750876 28.6811196034882343   T   T   T
  1.1353661643788362 12.2167528051138348 24.9884687888016970   T   T   T
  6.8289888739595570  0.8878643127580663 23.9554629610727332   T   T   T
 21.0407749075676875 15.8338538498632122 36.7114816333609326   T   T   T
  9.5894403689680292  0.7848070052250270 35.8188655669747007   T   T   T
 24.1420830061940421  7.5090674165473663 33.9897210953510651   T   T   T
 21.3367889001438513  4.6285435625806812 30.1904917521948519   T   T   T
 -12.4109871254081803  8.3442129051868577 24.1941000161734934   T   T   T
 13.0304565358069020  0.4157820301552761 20.2333827353364732   T   T   T
 23.1159631883797019 14.3049716484528258 35.0990331433205327   T   T   T
  5.9020432493680968  9.6229184619876182 37.7678778543025189   T   T   T
 12.7916386408855356  9.0570158850682621 28.9864134284955561   T   T   T
 23.6018960432115676  5.1547407594255743 28.5587867949026091   T   T   T
  3.2985047031405315 12.2120602791174289 18.4038968703078503   T   T   T
 13.2563441659900807  2.2230855009899466 22.9169599049004802   T   T   T
 25.6543426395449785  9.8150870252829758 31.2556369835557852   T   T   T
  2.4189836343546349  5.3041223443252692 34.2857083112263723   T   T   T
  9.1401018993618166  9.6440969420021645 27.9760508598362598   T   T   T
 21.7492344637560606 -4.9187275223829898 28.6812909335707609   T   T   T
  1.4168177041564249  6.6435797801109198 20.7122588101020426   T   T   T
 13.3411861163741641  4.5909981389182670 24.8963122663481435   T   T   T
 22.9128422208220002 15.4135811569639021 43.6043199659759324   T   T   T
  7.5883386125093688 -1.5175622380881475 39.8954081008315526   T   T   T
  5.5006247620016078  8.1736061137129941 28.6476661963265649   T   T   T
 19.3167802459856972 -1.3781276206545003 22.6058560854534072   T   T   T
 14.4681420157063911  9.4078819030976639 18.4819528165007050   T   T   T
  9.7064364557223772 -1.7840789945968094 21.9769118742809866   T   T   T
 10.3666105173408987  7.8233901297646211 33.9318886153661836   T   T   T
 26.3383196889282729 -3.7889875884395554 43.1778530158768277   T   T   T
  2.7203933097439714  4.8987541882254995 27.9877277807914950   T   T   T
 16.5421618920553968 15.9663338578710317 30.8742470282749757   T   T   T
 14.3980071554189344 11.9322140149337770 22.8786437373664739   T   T   T
  3.9036305792822965 11.9845923507936174 14.0981020739485103   T   T   T
 15.3445226488154010  0.6776356490334399 36.2643489647979038   T   T   T
 26.7691633671074456 -1.8000261304157654 37.1078129261170915   T   T   T
  3.5058551651431205  5.1008553909273111 31.1753849767628175   T   T   T
 14.0878165432266407 15.4496341997552946 25.6210762870610260   T   T   T
 18.3971827831354915 -3.7987250864525617 19.3122994951925158   T   T   T
  6.7943322862996496 13.3342234945797884 19.1330554829934627   T   T   T
 15.4805267888110567  6.2944346848741750 28.0750321967227912   T   T   T
 -5.4927582993122073 11.6614453798113260 34.3024939507069391   T   T   T
 -2.4326389548169733  1.6425339934446146 31.5746205246925200   T   T   T
 18.3194166897666264 -1.4497621161916243 31.6450013573482956   T   T   T
 24.0101389436670090  4.0948363580327927 20.5629957564481138   T   T   T
  6.4787591808383871 10.0750551578931784 19.3935753840376996   T   T   T
 11.1522987576863102 15.0563925861164147 28.4943110735980305   T   T   T
  7.9380842944981929 -4.0903121268956601 33.8731255468058166   T   T   T
  6.0604662105965499  5.2611044862059844 28.3320518427927652   T   T   T
 15.8417775266560614 -2.5724980934501160 29.7730323206086176   T   T   T
 23.3690081021909819  6.3973633237015965 23.0017567533218710   T   T   T
  7.7521454512368413 -2.2437412645346786 25.1238285119454545   T   T   T
 16.0274964396904025  8.8209767936427035 29.9862115400120679   T   T   T
  1.4575450088811339  1.0382087727017326 37.4556960511802544   T   T   T
  2.5862892732371998 13.3278089634751602 28.6360400401797008   T   T   T
 18.9103226852689659 15.2362978865570433 28.5554194706064735   T   T   T
 16.2737704140327892  1.4754950363731787 23.1136654904133252   T   T   T
  2.6127300663195343 12.5539118289548792 22.2125837896305462   T   T   T
  3.9538639332850938 11.0862091771113533 37.9364514267427779   T   T   T
 25.3731095260715520 15.9335841196265484 34.3876914749012386   T   T   T
 -1.1369239492311056 -5.5279105204386569  0.7313869984589912   T   T   T
 12.7918461727262507  7.8505148195484074 -0.3746142916974842   T   T   T
 16.6239519464150973  1.0153160450061796  5.8266912740492032   T   T   T
  3.8309721776569967  8.4681152854205450  5.9932793842177601   T   T   T
  8.1637761328900886  1.0368738281425232 11.8211385410368575   T   T   T
 20.7361137006070493  8.4610607438065379 11.7894896235694180   T   T   T
 22.6176507980348376 11.8640124049755933  6.0922597286541045   T   T   T
 10.1118817311394746  4.3164908106853099  5.5772666648362641   T   T   T
 14.4363895493911478 12.3596059814607599 11.9433097826162111   T   T   T
  2.3110096672723950  4.7307490539528079 12.1722631037792670   T   T   T
 10.0260946366648707 12.2428457442985916  0.9417519864042680   T   T   T
 17.6906326326060110  3.2490790483252923  0.2275113142294273   T   T   T
  3.6744561575213051  1.3401450011103395  5.6921930322011818   T   T   T
 16.5415483155069083  8.2588087797868148  5.9848407501393162   T   T   T
 20.8805632216507888  1.1511094945851754 12.1407652529004757   T   T   T
  8.1202971712153129  8.4271185633575332 11.5018759173244671   T   T   T
  9.7725356613625713  3.2819763897500742  0.0519824850199391   T   T   T
  0.7117864708924528  4.6153967691760673 -0.4993968580021717   T   T   T
 22.7534963718975121  5.0627537245473846  6.1280314837790746   T   T   T
 10.3817666321449948 11.9558157439232158  5.6604581266183578   T   T   T
 14.5486829458988733  4.9729135116686827 11.8347614316501186   T   T   T
  1.8887488664132741 11.9644601004225706 11.8289940103480262   T   T   T
  7.5871647300308807  2.6719080077504636  0.4518508986213442   T   T   T
 23.4242622627580914 10.8886783624251109  0.7925841763542347   T   T   T
  7.0903051414807781  6.7584571857418423 18.4613067115016705   T   T   T
 21.0318634348873914 -1.1552106127115143 19.6133782769578140   T   T   T
 25.6897669690602655  6.2487800775397888 31.4135577732119735   T   T   T
 13.1055309648367473 13.5525103799294513 31.0943164719220952   T   T   T
 17.1790171407749312  6.2212078849847625 25.2675615734251728   T   T   T
  4.5894633232382764 13.9599774098720086 25.5431925548234133   T   T   T
  6.5843163888078715 10.4285662819538594 31.2048977386414634   T   T   T
 19.4548917070145109  2.7622139147753701 31.7053683953058147   T   T   T
 23.5686400527719329 10.2844373520583314 25.3306551863682010   T   T   T
 10.6916333540738986  2.9754847447898141 25.4271911434108731   T   T   T
 14.5736743775051405 12.6570067091777627 18.9202987242583980   T   T   T
  1.5998208027710150  3.8107208357539459 19.1599403722532351   T   T   T
 12.7321815071141238  6.2767426123649841 31.2160440324231914   T   T   T
 25.4918271316647065 13.8679984546319339 31.2709181221445824   T   T   T
  4.1307225913748455  6.6175362183985511 25.4593269721947593   T   T   T
 16.8107256300513939 -1.1568202858769889 25.6416888768218634   T   T   T
 20.3795055443830080  5.8128472497383221 21.4193696173644241   T   T   T
  9.9197750884123312 -2.2725438775417031 18.8163082163389497   T   T   T
  6.4504991828080547  2.8839463068310613 31.3926917342285954   T   T   T
 19.3956630831384302 10.0661435461062130 31.2411031071291490   T   T   T
 22.9700404384838421  2.8282838368620027 25.5243075820331207   T   T   T
 10.5113281470483955 10.1405849310553702 25.1904077252283329   T   T   T
 14.9400793757621209  2.7953481253767705 19.6451115232381390   T   T   T
  1.1632149134587069  9.9277309934086180 18.6283339620124728   T   T   T
  3.9746199388379089  1.4785995956912679  7.7557021537173929   T   T   T
 16.7221348654713182  8.1650205857926714  8.1449312325722687   T   T   T
 20.6775425471936387  0.8015145287060113 14.1425667218645632   T   T   T
  8.4558926550290607  8.5809142672347321 13.6062206450124012   T   T   T
 10.8670679859721329  1.5697511175122463  0.7516255503856025   T   T   T
  1.8251223048835135  4.8204292258623047  1.5972089224914328   T   T   T
 22.0909625639351148  2.8158390948715466 11.8122455384956648   T   T   T
  8.7417066929075169 10.1209689006943222 10.6422375002869494   T   T   T
 15.3353937096057518  2.7547684198236588 17.6132496466669650   T   T   T
 -1.2867690501129994 10.0955690345242175 16.4597715498958408   T   T   T
  4.8988468198170390  2.7336870977352743  5.0014429695989877   T   T   T
 17.6423744969564424  9.8649690013090261  5.1906678704384266   T   T   T
 21.8286615370086849  6.8523203820993830 11.2136482978897849   T   T   T
  9.4482652947211854 14.0709638834578001 11.2244976562964105   T   T   T
 14.5467332917278629  7.0273357874920306 18.3464231646364340   T   T   T
 -1.5839714487162053 16.5513159803331682 16.8975569569352082   T   T   T
  4.7967445016912258  6.7867554313559548  5.3986296940541436   T   T   T
 17.8291968183188558 13.8571869462932096  5.4523594439264116   T   T   T
  5.9904909215840707  0.8399541540697664 11.4225623376422263   T   T   T
 18.7603578455841671  8.4447882912791012 11.1457653649287316   T   T   T
 25.6343333118975778  2.2092075948154646 20.2279624662722775   T   T   T
  9.8419411289204550  4.9893893361338284 19.8302538509087221   T   T   T
 14.6943186173453917  1.0170968355697856  5.1649670328823074   T   T   T
  1.9031703270818718  8.6149420378334352  5.4760838292794318   T   T   T
  1.7129324986848391  5.0514490352461099  7.5220872713708253   T   T   T
 14.5314866937541787 11.8292833025884363  7.3164363542508646   T   T   T
 18.9852154531260595  4.5761671433764874 13.3700086289523536   T   T   T
  5.9591042910714878 11.9761045047798724 12.9924998883145637   T   T   T
 10.3070907486131027  4.7966063767970963  1.3782399844580524   T   T   T
 25.0818100144124045  8.3083952684194298  2.3057983197391905   T   T   T
 22.7258390533352355  4.7697460458124743  8.2155709389510889   T   T   T
 10.3613596342659129 11.6981957246678459  7.7402972698193340   T   T   T
 14.6140599434285523  4.8713879027309392 13.9430884071537697   T   T   T
  1.5591519162083376 11.7898232016759472 13.8602573750470857   T   T   T
  6.5643479584008393  4.3924935882090921 -0.4006677779396834   T   T   T
 18.6187134915467638 11.6268719745123281  1.7481832419144705   T   T   T
  2.9662049384911313 13.7953837433543640 11.4001034443758353   T   T   T
 15.1434182498805718  6.7643888993521362 11.1501133949967208   T   T   T
 21.5239443984947201 13.5277908625667713 17.6389758883444010   T   T   T
  7.7093032664177201  5.4661768109184097 16.9005551933645179   T   T   T
 11.2615043739576119 13.7562305955323900  5.1468412460691582   T   T   T
 23.4671116739254515  6.9205769992275092  5.5902123281527158   T   T   T
  2.8372495801178026  2.8650965086133380 11.3674782884658434   T   T   T
 15.4254511246910049 10.6976022425929003 10.8407892649614048   T   T   T
 18.5104089996558940  3.5701307358185046 17.1645741974003805   T   T   T
  2.2330261653016645  9.8304100273764874 16.9722865502788416   T   T   T
 11.0647217068374992  2.5678134371586405  5.0920367695149178   T   T   T
 23.6769937274781839 10.3368281334483783  5.2926055046620979   T   T   T
  0.2844328526298328  4.8400710508872011 11.6875915912815316   T   T   T
 12.7141006318477459 12.4715669499105832 10.8314090150425262   T   T   T
 18.8063490085911056  1.6434159282772334 17.8690418861553511   T   T   T
  6.0204257394243408 10.3088990429213965 16.8278985736417610   T   T   T
  8.3251770253244484  4.1570045368558954  4.5595587893010388   T   T   T
 20.7571718194286916 11.7618472498157107  5.0746087536553013   T   T   T
  0.0434799278219438  0.9920680946871148 13.3322154226353877   T   T   T
 12.2651815055647884  8.2778436823170054 13.1061485503373465   T   T   T
 16.9104882046389235  1.6114807541577421  1.2518643227619726   T   T   T
  4.1856766808047849  8.2021461378415452  1.1715930555353091   T   T   T
  7.9799726857763265  0.9170454827487134  7.5167989132875013   T   T   T
 20.5660396694678766  8.2978735505753711  7.6630686735941511   T   T   T
 27.6845830337718226 -3.5746237298119556 -1.4137608749380182   T   T   T
 12.5629552922332941  7.6886876414659548  1.7652714971129340   T   T   T
 16.3693769992693774  1.0091014244388274  8.0156956624294278   T   T   T
  4.0836658636852752  8.5796471170631357  8.0989621309077560   T   T   T
  8.4287011538329715  1.3387649457285729 13.8076095916761101   T   T   T
 20.5629087127324937  8.6778407967969056 13.9649430827304855   T   T   T
 21.7074613353369017 10.0953624815305023 11.1681062845633985   T   T   T
  8.9459665645990025  2.5681243957789079 10.8684342401024718   T   T   T
 13.6691748356771186  7.9115027727020300 16.6850987916485956   T   T   T
  0.9003622296966611 -2.5686408778631415 18.9926519571091674   T   T   T
  4.8920410889054819  9.9564608120760951  5.1458225498916654   T   T   T