Li P  S  Cl
 1.0000000000000000
    25.1819793006824639    0.0000000000000000    0.0000000000000015
    -0.0000000000000009   14.5388225279766061    0.0000000000000009
     0.0000000000000000    0.0000000000000000   37.2126966544236950
 Li  P   S   Cl 
 287  48 240  48
Cartesian
  0.9635085008170491  1.7096445516206358  7.3417158443514250
 13.3117772322746237  9.3021478555328194  6.9538843840656579
 17.2465211406555738  2.2724709067307680 13.2169463798515210
  4.7350376969647998  9.2006269403066838 13.0953372154530534
  9.1138700957438772  2.7488269335919213  0.6316600720841484
 22.8532845630415160  9.7372542586735538 -0.0690724770160438
  0.0214189832602415  4.7391911253281602  9.2291150001663365
 12.2170246440241215  9.9140948561144349  9.2933349728635477
 16.8278858431843439  5.0793019425333759 14.9083399735782436
  4.4499205827509529 11.1392913074574160 15.5911294355741727
  8.6674464616649320  4.8610329777943191  3.4647444173498934
 21.1178220968301567 11.5502361899829111  2.8510140363525425
  2.7002027885406252  5.7467553690568023  9.1252335492472092
 13.5452143699724346 12.3843822107452421  9.7873363033690701
 20.2281763770607625  5.0101107802488887 15.4365988891781480
  7.7895870193885886 12.2369673922805369 15.0273175823264928
 11.4887204104147180  5.9267839382559062  3.3267490660132362
 24.3852083530743862 12.9199919399558105  3.5258894333387638
  4.2474311811724323  4.0192280276327343  6.8990633715518417
 16.4408495905976189 12.1699208456429862  7.7931580968377050
 20.3364799379770531  3.0492397909157405 13.3570487376693645
  7.5184049013257521 11.2227375804718577 12.3268386308816051
 12.2921032747791692  2.8510005381245120  1.4992702567961160
 25.5100033725371418 10.2118425732704186  1.5206785889806000
  3.6004171159611786  3.2919638506864177  9.8062702089541851
 15.7020112636857334  9.7424830948444328  9.1445222970604654
 18.8112395166509039  2.5005429931754342 15.9718306246902202
  7.1515596427553270  9.4997632146367863 15.5941377009460798
 10.3881857082153086  2.0972314431468426  3.6939133965038931
 23.4838027024135592  9.2482776590233176  2.8392837982860297
  1.1376956355280123  5.7267622252408596  6.3959840520598767
 13.2901316269466978 12.9181905218657356  6.5019997088369408
 18.5375008500881719  6.2491110204811990 13.0711391492710316
  4.7215318540139419 13.2097426059932239 13.2728997467506513
 10.0787080233392761  5.8942589543708328  0.2080625684871061
 22.3021095543779886 15.3959850841560044  0.7164159515446300
 23.4357609211636237 12.5353110496885645 13.0787887279357129
 10.7863011194091509  5.4630502566483070 12.8226650756607441
 14.5887647218301755 14.5291971512703597  0.0768351584028933
  1.9285782646631628  7.4310619241940081  0.8094688203104882
  7.2922829924455845 12.9121499854357982  6.6209115628223536
 18.8583106612659854  5.9849488160732669  7.3588036682624152
 22.9915795326888208  0.9347177123703388 15.2628411875930272
 10.2422726855114110  9.6246215534373487 17.3738046427506525
 14.8360196271936591  1.4851118062577278  2.9180998632457551
  2.9636284465945226  9.0158003766318906  3.3935210223350283
  5.9749494068532112  0.6985484800316392  9.0482382277062552
 19.4279128085197534  8.7153938636203545  9.1946666187021773
  1.8065716720556761  1.1434193063571469 14.0477784375528110
 13.6514925320686284  8.5488897849431353 14.9831125918368713
 18.0368569383581274  2.0760599722835797  2.7646230247844326
  6.2255234507812771  8.8045195152484954  2.8820041711333340
  8.6521006500737592  2.2771558616986147  9.3181882493140673
 22.7728502310663892  8.7291493573765795  8.9208895121943765
  0.4782092810914692 -0.2372002584811866 11.4023169025137250
 13.2575035520961002  7.0511856291422932 11.9804891004851015
 18.3820897251863649 -0.9204969732640454  1.3985870520467190
  6.1703652337597168  6.2178711704280127  1.6469169609858214
 10.3026667685160760  0.6790557391684059  6.8319889334762642
 23.1687319717516438  7.3547128555663290  6.4245978311509928
  0.3455937722512765 13.1118058764087859 15.3005476125072413
 10.9457746553401183  6.2491849754302251 15.6898016088666523
 15.7738940481683656 13.6040948953290179  3.6430249009678284
  3.6446736951731760  6.0168225038197214  3.0710701096331778
  8.7573920420578411 13.1686686842567688  9.1042617803440926
 21.7831223845109783  5.9440166866350443  8.7164746350667919
 23.9545178071981262  2.2114077852708314 12.7107742246189996
 10.8230290345341480  8.9627194897737894 13.6693307872378469
 16.0994241392627764  2.4983926939495942  0.2021636156750334
  4.2614584179019168 10.1366840424245623  0.4122095833072173
  6.9764166427736098  1.7383739466124448  6.6134583503492976
 19.7705876732642665  9.4661873452485974  6.2410961110934986
  0.5297683564693224  9.0644957992190740  7.1524112295698616
 13.3374835446267497  2.0825243484880378  6.2511177060400804
 17.5227435971324539  9.1628646901552759 12.3700069174777365
  4.7091242374588402  1.8098459215117817 12.8949590342267815
 10.2698209043642716  9.8402528918322449 -0.0057564628418958
 20.5905566772716959  3.6844009570830174  0.9436673921181733
 -0.3016663468610416 12.0241505593769240  8.8409792260812115
 12.4013626877964391  4.0888802327992924  9.2019620195374401
 16.7318126818061685 12.1208717993416979 13.5785095656278063
  3.9226138670616115  3.1650777772776468 15.1772903279178610
  8.4909222052527689 12.7251894956538933  3.2415967804934600
 21.6899941880398934  4.8537225718806694  3.2325234098823463
  2.5683893489274259 12.9279712652641656  9.2754462441957894
 15.4769720453850184  5.5002107069740882  9.4183116322154330
 19.1173176207053750 13.0844148803911224 14.5298055229225529
  7.5660805967613358  5.3464115236110876 15.2526523867404187
 11.4443477410439609 13.4975371504989710  2.7841821325425573
 24.6985090991865661  5.4274146091449982  2.4679688804782569
  4.2158888939422665 11.1713618960086141  7.0205193494368565
 16.8042170060727010  3.3832391949796383  7.2694101733670653
 20.8090790757596693 10.4058868876133008 13.3193557787409400
  7.9953246726935276  3.8038324118201392 12.9287650909725844
 12.3236565806461265 10.2460641420421972  2.0487843409371438
 24.8296343071529435  2.9417004702127478  0.1014193677299749
  2.5105574175717105  9.3523559488804757  9.4204080262145400
 14.5357382487328195  1.8146307294202786  9.1476872250906194
 18.1000842212147504  9.5100194229662129 15.3132177960139284
  6.1638624126835415  1.6636130232981874 15.4679008734033356
  9.7365187247525480  9.8356527950973796  3.5716802120171658
 24.4672434540628529  2.5155624975957642  3.1460369697515027
  1.2575534730852853 12.8555491297378719  6.7984482416075966
 13.5832906609070463  5.6150615022590618  6.8149552881617961
 18.9003775059655688 12.2786820127414131 11.4654709741384000
  5.2044093554034454  6.0653721851656250 13.3978692523410601
 10.0795827851869380 14.0757958290087224  0.8760295863807208
 22.7791298358953114  6.6928899890913138  0.3576802088294020
 19.6536297340094990 13.7936500388591146  6.0523953244537214
  6.8301346221746746  6.1574708530396576  6.9508908045708271
 10.7770324882074835 13.0008637647054872 13.3525899187151822
 24.0835694001523990  5.4284001251690404 13.1006386639778043
  2.5086854345514671 13.1753230900794058  0.3724215108840261
 15.9465861752327402  5.9842967878641087  0.3399495382238463
 18.9104489373949853  0.6624987458641703  9.3332450658805577
 11.9600191829567635  2.4202709671627951 14.4163906981337799
 22.8109405394252107  8.5004676440804356 14.7208630551349131
  2.3935291500686970  1.1454683969281680  3.1159883818267384
 14.7515667915174511  7.1206474665192889  3.4373982013411930
 21.1946303745806404  2.4691095629825686  9.1299766254423460
  6.5141435286307079  8.6357867825485997  9.2793738372970349
 14.5291747360003765  1.0020919869508094 14.5200330907811459
  0.2125000952061041  9.8062183893130204 14.9378092594930241
  5.7344912128600196  1.0906344203999814  2.9741263983235400
 17.4979278018913789  9.5242889024560036  3.2421337974383078
 23.0894045771634353  0.1558446490775166  7.0130923662260800
 10.3180670909864318  8.1134786715102241  6.8073081294939088
 14.1625866826957676 -1.5147868935303881 13.7404764204306709
  1.8540935253445301  7.1078462278058261 12.4972360120750228
  5.7150289176001010 -1.3877726367370118  0.9256207480878463
 19.0685001950535060  6.7793113869359836  1.1678820242818018
 20.9747811731007268 12.6610520966936715  8.7673342562551397
  9.4079993757092240  6.6596653573114439  9.4594924726110445
 11.8699126655350859 12.8486005992996706 15.9590472974380297
  1.1903359149219603  6.4391619439686281 14.9223633490396814
  3.8463880055369226 12.8171442104834039  3.2663630564482085
 17.2138127922525079  5.7189608659143802  2.8289601745294846
 20.0011556531368058  1.9984693189535154  6.5186437990379389
  7.5365134049000364  9.8542698534289652  6.9889022029487586
 12.9297100920299730  0.4064999745267726 11.7948174729084130
 24.0230621064689807  9.4041443871959540 12.0834524311774931
  3.6126850865494959  4.6316131547315491 -0.2098249934633809
 16.4859730486309459 10.6515097401349426  0.5825707650904269
  5.3782961064896382  1.3100928054218073 30.2515419952688589
 18.4482760405521553  8.8120682326482900 30.0982125721153153
 22.0991020378537151  1.3632325187270973 23.7479046418917470
  9.4433997213115326  8.6600764268721235 24.7422956990535212
 12.5779057369302638  1.0744224308871888 35.6081455720876505
  0.2630826515658520  7.9303999276782422 35.2711927930471703
  4.5254592856917171 14.5585766379011705 28.0358557276169300
 18.0518954969550727  7.8958540880973542 27.6159172151460197
 22.7249006994695115 14.0476320408543049 20.8832537309387050
  9.8591469329617638  5.4362289793264269 22.1315142040563622
 12.3615090029828281 13.1445572925407603 33.9582828274267996
  0.5806377960349551  5.7393304996020600 34.2619884925207785
  6.2407078222556978 11.6283299933202748 28.0789307958364169
 18.9457699146696541  4.5641686156198977 27.9730064237462344
 24.9803303546081672 12.7652018481967300 22.2679858952721794
 12.6911220026501574  5.5895877864106778 22.4778366627337611
 15.5016615022007365 11.9656663785518145 34.2927309336928019
  3.3161283147370884  4.5927419795041038 34.0579522280659504
  7.6032829976376437 -0.9453907821968508 31.2299501937995352
 21.1776533558035425  6.1043733129254214 30.0945914143231477
 25.6103580136624629 14.6872591513147892 23.9566215459479608
 12.8425401440545066  7.2642126367378088 24.6524789028869620
 16.7599965120569365 14.4982024395309530 33.8312121131169548
  4.3260054152727667  7.9459624079951876 36.0956351093285619
  8.0103255588438262  0.4753393198909813 28.3285693736372437
 20.6679889957413501  7.0232462449425732 27.5732376404518895
 23.3592656933045433  2.3972037809590931 21.4100275501123107
 11.4692384000286882  8.6122439484438438 22.1589601779898366
 14.8055904792751676  1.8282073899849072 34.2403534234060842
  2.7947643530084969  8.9554460095367272 34.0157135795386338
  5.0800555576470376 11.8636216063204269 30.7853860389087828
 17.3720356217561616  5.7552618169690488 30.5271094271640813
 22.5560832939198157 12.6917785037820572 24.3497068714473528
  9.6506303899099635  4.8503635466609234 24.7921526374946595
 12.1882283624376306 12.6144498562324898 37.0909343563934257
  0.2271872750801794  6.0502256327183668 36.7159395205106591
  3.0503243995298384  4.6874573984168819 24.3817555936440336
 15.8164557703938549 12.2514527457942108 24.0249481723784015
 18.8588164175220854  4.6173839344888217 35.5140768493789025
  6.4916867791812694 11.3838239858842805 35.6489659943874955
 12.6549191870136486  5.5861526275567055 28.4390848244877326
 24.3362112212435306 12.1293986778930911 30.4840454345579168
  3.0918963032786655  1.7327481507847406 21.2449324906040076
 15.2180683206610130  9.4265192030817033 22.2397423892663859
 18.5659561591340285  2.4264800239560396 33.8440472441177818
  6.3931152029136227  8.8813276040882503 34.5695460417040010
 10.5584630149080496  4.0883966878480544 28.7740348131756889
 24.0146432971701280 11.5668477056141974 27.7556978977308404
  5.5267569224556361  1.6971254352084104 22.0462695810361744
 18.7658078160802120  9.3292009024503439 21.7197320353973709
 21.5501556299897246  1.1076980496721820 34.4934868960606451
  9.5080009536836290  8.0418444252561638 34.5069812112309862
 12.8199638390464514  1.3803106444007711 28.4549459641156730
  0.5793902629760518  8.4287708345811883 28.1575493724381687
  6.6883531688919522  3.9309925110673891 23.6998330081222619
 18.9821969637370103 10.8441624684663367 24.8347406045672159
 23.1553917102202540  4.1180819918304357 35.7493841045885148
  9.4315093912717671 12.2861794301391889 36.8334623040606317
 13.7886782909956978  2.6381678733324327 31.6103825571087036
  2.5150175326211590 10.5084592675752866 30.4238966497591967
  3.3785040047356638  5.3036460321776113 21.4615741334508101
 18.6252577350128270 12.2400565050688197 22.5577039702454663
 21.6240108562911217  5.5882571736143793 33.8813260858499916
  9.6094946613099914 11.6041016599490092 34.1338276787510608
 15.0309215539686143  3.9741565491259037 27.9704961136767061
  1.6911515578837890 11.3981544981841960 27.8723223763559425
  3.3237971623523843  1.6295054700115619 24.6020292959869131
 16.2392060196375247  9.1272077132022851 25.5961321637361330
 18.9989379875715159  2.4670479771673448 36.5696806873369127
  7.3268611803884776  8.7688920083314503 37.3342506219126591
 10.9075368046200882  1.3423884251646900 29.9848696867943687
 24.2191924745185538  9.1832701533942291 31.4138978254766528
  5.3836692992263080  8.6216812948544614 29.8862647588081529
 17.7114701373251897  1.4247204151266695 30.0451306580549300
 21.7158525494410455  8.4233778823723195 23.9972509396051379
  9.4982972717218850 -0.2003774384602631 26.1221892303167387
 14.5442616829861660  8.5809197852942933 37.7791957814787267
 -0.3065321779891763  0.6554451450053490 34.4905644652864325
  4.2335595932916537  7.0477025187546110 27.9805950658866571
 18.2109573009880314 13.3642371532254511 27.3528230896532705
 21.7935986912779214  5.7238277748091742 21.5578323839417330
  9.5576952459685582 14.4215403215547244 22.0393136965328544
 13.0624529525077495  7.0128809430705923 33.8250890231575596
  0.9452254099516124 12.4355892802180374 33.7317264375638644
  6.2521444515644191  4.4290560178076914 27.9979787054256448
 21.2989885882611318 12.6597914513106424 29.2391117300124499
 24.6030378465560524  5.5375823967848286 21.6977945321860766
 12.7288789806826088 12.8573236931856911 22.3301704534033938
 15.6545103399868459  5.2478614454468033 34.5391305502318602
  3.6796044083756239 12.7696942820435808 34.7311655728924862
  8.0708173099967127  6.5648661043376224 31.0730752229564864
 20.4002612306767617 14.0803501324696594 31.6422157744875889
 25.2780583081386467  6.9087245642968815 24.0458671649891684
 12.9735236025164760 14.4520361419863335 24.7728020159113989
 16.9400899540060372  8.3074887816652225 36.3658162762269299
  2.6067063942716380 15.6203672245203666 37.2232747739914061
  8.0904811620206516  7.5051906282555967 28.3785825649421994
 20.5624405756841000  0.7897793532901138 28.5034612800727807
 23.1563848277319906  8.8390048851713043 21.6996811755261980
 10.7321743393554687  1.9575820608615710 24.0113896583973130
 14.9830286502706524  9.3201906272822033 34.3907998285204783
  3.1166574227485513  1.1178987625899528 34.3663998548177503
  4.8769065415146056  4.5710998556981988 30.4359756909438524
 18.0483701247529957 12.5576862060051120 31.2838251249526103
 22.5879211797717900  5.1295559209374932 24.5945524518505572
  9.6899137106889928 12.1452636716678253 24.2556742282991564
 13.0014840628961590  6.0140389708205602 36.6389911549910536
 -0.2822496911437832 13.7129725372736146 36.8492200863425552
 24.8015923819533803  5.3108372173454077 30.4561231461765232
 11.0178076752277025 12.2704268485866468 30.3149916652951994
 15.7286643279040756  5.0967098211803945 24.6010232516081402
  3.3956165420524149 12.1878752315816534 24.4109689722507746
  6.5714770774046061  4.6069806090007557 35.9207400863746642
 19.3311336895114714 11.2472508930343942 34.4697849535292775
 23.2812237133985285  3.2759316031893553 28.1181070248632281
 11.7019827242572720  9.1216294708437449 27.7568083305143958
 15.0485861615855363  2.0894490948358651 22.9100524876685832
  2.6554569505678858  8.8490289496878436 22.0809702950782700
  6.4561626703870427  2.0771777452068552 34.0563750746142873
 18.3008007840075422  8.8304814673316141 33.8677879732756324
 -0.0010369290548941  1.1211135413585120 27.7980903058000415
 15.0374965653031776  9.4373298468695133 29.3260141141965853
 17.9473358377912326  1.6482049036602708 22.5303444643316588
  6.1737688891345481  8.6120956090179597 22.5805293696833509
  9.2139286664224880  1.2422223450973073 34.2011481821679837
 21.7660922528484022  8.5453738666962682 34.2523529799750719
  2.0547454253910096  1.9751511260185044 29.9141797005551417
 13.5877052504632569 10.7977637499478369 31.6353357306035861
 19.4097819545529724  2.9996212914373870 24.1583980263245230
  6.4295826917825831 10.1273854525012688 25.0118715994344960
 11.4131766051440966  4.8239051307735661 33.1164474770089328
 21.9372105094299634 12.2538879532586638 37.0965359847767360
  1.5387042482022633  4.5841608741875062 28.1897452429628501
 13.2106859531263101 12.2182663964420417 28.2918847628698202
 17.1937870348086541  5.0951110965916184 22.3518027574091818
  6.0511874943172046 11.5568699893704760 22.5552957417192701
  9.7479295605852698  4.3089871401992923 34.9818073657346531
 22.5011096112284683 12.1208217804129976 34.3564535359731096
 23.5885891433250343  1.1717200700054793 30.1769076310343038
 11.7110318559793942  8.1323039680351457 30.6986846492974763
 16.4458635718883990  1.8151182783423447 25.6046523953639849
  3.3505246600956746  8.5507654159197770 24.9723838950197283
  5.8279085497329701  1.5641360107549114 36.5607027934858877
 19.8115270219721786  9.7101575464180225 36.9039516254908762
 -0.3742234769494866  0.3883192356988903  1.8173572709984693
 11.7063327900629037  7.8555073975854723  0.8092915016809025
 16.6032444997692572  0.4879368187135564  6.1235829407825753
  3.9643373920917129  7.9026924709141957  6.1887158205152701
  7.9167492408609084  0.3704911935531146 12.2823643680324999
 21.0576204244987224  7.2528217155468111 11.8255222416235135
 23.0250944548822112 11.2379957834278770  6.2557060895383660
 10.0530628389974641  4.1062511855785049  6.6078389234983295
 14.4139422381032301 10.7657066131028021 12.1211460132004802
  1.9293585382882656  3.6206981147393038 12.0867729046459793
  7.3396169657093306 11.2337507960254293  0.9855138705100239
 17.9184017229190573  4.1837105792644635  0.9145045120036881
  4.1163368369331303  0.0806695881124062  5.9352118343140274
 16.4298602810081569  7.7492399462372346  6.3010741322673534
 20.7916827456891333  0.2796153598243492 12.1589730283157813
  7.9212811418022149  7.7850243674983011 12.3984290548718352
 12.3158970629265845  0.7021223944150126  0.7950125994580823
 -0.4071569904381526  7.9820245333759932  0.5829950866801339
 23.2545022308066294  3.8868652455984800  5.9197419684206727
 10.2902440527025583 11.5608222606355291  6.1288076288429636
 14.3103483123332911  3.8151175471581067 12.3272786767619813
  1.8185061719453572 11.4497225591447460 12.1876520172419873
  6.1941538927719213  3.5819379853687301  0.9454121825093497
 19.4246552198378097 11.7120706949540327  0.8719295847873411
  4.9655450127074552  2.8845947767344398 19.1521873673519671
 17.3912667440526185 10.7132580342673869 18.8821215712657029
 21.1384482891057672  2.9325957600450412 31.1480942281834743
  8.3056125236084082  9.8790739725709003 31.1091821514566504
 12.8284732154295718  3.3913728452455065 25.6263655552748695
 25.4454193627474723 10.5526410980100902 24.7158871857447160
  2.0890264300610570  6.8981550881502454 30.9799033840455884
 14.7836195999499189 14.0109920659855831 30.7964033134325632
 19.1665753511874613  6.6703327166783968 24.8650323210412871
  6.4818122327637555 14.2704630762364832 25.1784587986565995
 11.4589455831180693  7.3408306380458148 19.2382836133062582
 24.0962145237872107 13.9549794665995357 18.5689642863697379
  8.2016776315867634  2.9354769699819308 31.0564532082081044
 20.9947486223581947 10.2356872193715986 31.2121108848006514
 25.3115654970088038  3.2565942838479294 24.8270542992235015
 12.9455864946790005 10.5073778000348934 25.0883282811386898
 16.4854598287350420  2.5253904748766645 19.1619988398205656
  4.5429613740032053  9.5382920144324181 19.1363157082587030
  2.0125226814858554 -0.5979490986448137 31.4160950135480412
 14.5279519052611388  6.5247748915791473 31.1441256541592786
 19.3639082454491280 14.2450781442137675 24.9043184968429259
  6.5481473059348971  6.5013263279872309 25.2610060272250259
 10.8842150509361257 14.2099090852060126 19.0227418724686039
 22.6700572488099148  6.6713441171149919 18.5560898257904832
  3.9276795158769575  0.2306445397061500  7.9300391055476602
 16.4461976125703977  7.6175910768520367  8.4024095111823858
 20.8828280546727605  0.3032990451666444 14.2331005704896345
  7.6918652653660340  7.4631280407575549 14.4368357819367930
 12.5080405659760068  1.0538236644264558  3.0018076906865825
  0.4794506847818301  8.0575652226053105  2.5362565534691432
 21.7293442719555614  2.1326655184033410 11.5475357800739058
  9.0680907396061112  9.3869895475485450 11.9409909587311702
 13.8141185000498901 -1.1059046686512177 18.2488958195856412
  0.6206969643101299  7.2843038050975615 18.6520938941468657
  4.9766734169952578  1.7808380114258950  5.2141449329872902
 17.3179061831106189  9.4427059255570640  5.6486702292939936
 22.0171935793277136  5.7234759748667186 11.0941589799526596
  8.8952610226116349 13.2609082614384715 11.5497097636646231
 13.6868138009063145  4.4702962592622209 18.1283280644232683
  1.8305568769388865 10.7034629533349772 17.6907110063921920
  4.5538272170850531  6.0737229214438697  5.3411597811359082
 17.3928756962743165 13.0558457250977078  5.4491157222564857
  6.1027726237828785  0.3320759504373863 11.3952023315846507
 19.0923045988248106  7.3460898958268279 11.1255688619876221
 23.6400289799247716 -0.9109319216458932 16.6074358802541227
  9.9689822298390016  7.1068325400184547 17.8793931050783925
 14.7236638004603275  0.3171760947142978  5.2582411221673961
  1.9985322630936027  7.7988936963754529  5.4646524137641750
  1.9996617345123688  3.9638144610398345  7.7682979084555459
 14.2442383978866527 11.1248976707237635  7.9425629780497200
 18.5395945150190009  3.9708216514293659 14.1288098869937482
  5.9511756751178027 11.2572741567520449 14.1144850237948205
 10.1534710509097810  4.0107120824099267  2.1301980855389098
 23.2945471444410863 11.5627404706003141  1.7496028969823683
 23.1420299140832277  4.1877712062746353  7.9130716671142078
  9.9627487993722657 11.1345507084874793  8.1099407915238046
 14.3324996344072026  3.2849529828213724 14.3703808846500003
  1.8030199980923607 11.4227338649923986 14.4634177679021523
  5.7611408852425727  4.3350042969812712  2.8525136564274081
 18.2648576898118478 11.8228599386797715  2.7375620060406227
  2.6162942970533725 13.2045400654250553 11.6768045635345192
 15.4770738162797379  5.4211483955902970 11.8146483112048610
 20.8390481940874253 10.9165596648704248 18.1329242484343958
  8.2301909641716122  4.0519368833332683 19.2263249173873483
 11.2239119086941876 13.3792689342733180  5.5334169908440156
 24.0145506510190430  5.7232840554743287  4.9407088774807200
  2.7248439107201317  1.8375898326492768 11.5366306183118592
 15.2888150841462487  8.9540224599290070 11.3272088774580073
 20.2216966402318690  3.5404068780535902 17.4627318730139720
  8.2707631622669631 10.9719813559352506 17.3594520222551800
 11.0859528608209796  2.5692733533179481  5.8061059153201224
 23.9489154875391890  9.4696705828835981  5.4587137996196011
  0.0676978415076235  3.9934146342733308 11.3899348464015286
 12.3608383854254171 10.9795010080086080 11.4496005870179260
 16.6588634715527846  2.2495080829018463 17.1827750374842907
  4.8257968133198474  9.1095233694059452 17.1781732574751338
  8.2833760246002566  4.0680966773102396  5.7013551435434939
 21.0246040762727375 11.3729297902753110  5.5250026019950109
 -0.5022226882281997  0.1463593729188675 13.5494854076181053
 12.1201459598688697  7.1936778632537273 14.1718167394538082
 16.4909240070998599  0.4885797368276009  1.5449676686447902
  4.4765601749466599  8.0405600092129337  1.5184519953361448
  8.0948076357861556  0.2599323651501615  7.6591049336233850
 20.9024545899527965  7.7674452721823659  7.4807032177179087
 26.2238822407051195  2.1593492168150155  1.6971386055039941
 12.5527875921395466  7.8632184648287753  2.7433139037833452
 16.7994174972617607  0.9751815710450750  8.2082203041644419
  4.0133478233623254  7.6353870550597209  8.3286297346929175
  7.9983825421498596  0.2868761068075951 14.4004232930686307
 20.7763608673632696  7.2883555304967960 13.9002023697297155
 21.8356448623769133  9.0497184471106120 11.1606075739765274
  8.9388761040490774  2.0970710723162775 11.6330063810622182
 14.4327145762700297  6.3161292788056214 17.6894385041522710
  1.9389651941473962 -1.7390875197066793 17.3487926829179067
  5.1405047746551036  9.3430045576365188  5.4581201608466330
 17.6412112763964863  2.0848285859744493  5.2223509650493050
 21.4394066160915315 12.9219252040572083 11.3793730017553756
  8.8138951219605506  6.0601809452179962 11.6562593239689747
 14.2463992615899446 12.0097506057010026 19.5471023877091277
  1.4080242478263609  8.0539598744845211 16.8791395350798830
  4.9947782829462994 12.8555584598783756  5.4453631854548608
 17.2576000848915108  6.0926321451550711  5.4607575547627780
  2.2310697137466984 -0.1997385272677054  5.2007056747479190
 14.4321623836108248  7.6170094689952004  5.7567889882236090
 18.8733835782249706  0.6335236754075940 11.6229399201276831
  6.1153340976993897  7.8041494044551971 11.4560315968930393
 10.1502251031877506 -0.1528478311671913 17.1710761936894869
 22.7190934024872568  6.5739429336810771 16.5636395804829384
  1.6128311630147003 11.1089214202752551  7.9763231112060806
 14.6004764650770849  4.0189918285918855  7.9828550465328645
 18.5699617369755963 10.9571546347728095 13.5741396862224537
  5.8306373307680754  3.7439524137293816 13.9801675285334888
 10.3416243168064668 11.7262141162495599  1.6050460023788307
 23.0506874574805281  4.1655748468189984  1.1414242402569101
 22.8496796110774376 11.0400339168152239  8.2846901648508204
  9.8840471377120682  4.2344936267848743  8.6937147424930732
 14.4597759443213150 10.8363497182454331 14.1730171041169175
  1.8420826107567625  3.8197891577759111 14.2102083964562205
  6.0900027543769060 11.2755748974772310  2.8572211330589354
 19.2282992807437516  4.6760204295484593  2.7855401492599747
 24.1310445590837901 12.9180292401786563  5.8111572610420570
 11.1003935621837826  5.8030853831881206  5.9987048272673835
 15.3413646724308403 12.5454466701148259 11.5165217650152343
  3.0856238736112540  5.1781787980896823 11.3192777753776479
  7.7772031327915929 10.3628589744072830 19.3407598895452040
 19.1716433219299880  4.8305636048441194 18.6140241772369883
 24.3375993867982032  2.2344964615646878  5.5766718167492355
 11.5164646008878595 10.0496050723146233  5.2421720606094233
 15.0892598070417403  2.0810410382847353 11.3853535434114903
  2.9994276822676800  9.9053319625856098 11.4924427500200803
  8.9240266181474261  2.2758240684059934 18.5870145054880709
 20.5233606818027958  8.8747995694719766 17.6503783852752143
 -0.0696213132422459 11.3781992261104659 11.4274522113951011
 12.2842506046045177  4.2340757954109929 11.8364491264624121
 16.5671536952086242 10.9956063988373582 16.9669351279380756
  5.4713290980600107  3.1243909335676086 17.1722084292955408
  8.4891282961115468 11.3813335321940770  5.2021852990555146
 21.4095285153059578  3.5050923307954900  5.1036347875890025
 20.7910659944003839  0.2266113141317766  7.8575544587704718
  8.2611753411969850  7.8399181526948691  7.8381417077105624
 12.4718734203755233 -0.1472157582583014 14.1641502666780781
 24.9604696176364378  7.6055105296157262 13.5255421927974098
  4.0685741576031136 -0.1005027035683788  1.6176493016461471
 16.7231000777566585  7.9747138085325737  1.3706150978885010
  8.1887840741452607  3.0939477846002421 28.9393003619764926
 21.3817876361528505 10.0866780608204216 29.2162254807326889
 25.5059801760768785  3.3858931748290289 22.8084298688461864
 13.1550276711348548 10.6999371861296382 22.9595834436365394
 16.7336470162153148  3.0466071060051485 35.2097099898355239
  4.6133499045475483 10.1244629541583944 35.3632698085183463
  1.1917932274916727  1.5408269015258766 25.6788840276342896
 13.8716370129730908  8.9618557572704578 26.1228768244154033
 16.7120366829470726  0.9823745797535468 20.3689409114567752
  4.8239737226373505  8.1134260708080070 20.6143030040906226
  9.1462834801032837  1.1884025315301197 31.6061394521527603
 21.3997840404333743  8.4516985447353470 32.0626880533035958
  1.3171990158831035 12.2208083526244771 25.5805526551762235
 13.7409491317156665  5.1288307117215339 26.2406745142931399
 19.3012657810510042 11.2786567640790185 19.5040760642935211
  6.5158201703474656  3.9400269512015216 20.3422427451553069
  9.4567009891622789 11.6108137986653581 31.6209149260220777
 22.0798514137011672  4.6647634345080791 31.6482494538468551
 10.8907090639450796  3.2865778885576256 26.2176175960657005
 23.4517735322653245 10.5627601516113625 25.4606511418991452
  3.1816303478915855  3.5317294657622882 19.7362581256950058
 16.2863438182227469 12.1500450839487186 20.0790983330549260
 19.1304525150592326  2.9437736113581270 31.5450154016966096
  6.5894459984589746  9.7981706407468625 32.0265656583030704
  6.1546695101322717 -0.9933432886831105 29.5658349794745980
 19.0195157753213664  6.7892716322257174 29.2986712357886603
 23.6048963561572656 14.2991760332203519 23.0558246071241584
 10.8242029768981585  6.7879592302137848 23.8232504000523591
 14.3976205594517790 14.1105251604449009 35.1438204782196522
  2.5332280959769280  6.7221760726315001 35.2034753403247649
  1.8613322166513264 14.1248653387320164 29.4749178684896336
 14.7342218834099352  6.6173170615751413 29.1537247513693920