Li P  S  Cl
 1.0000000000000000
    25.1819793006824639    0.0000000000000000    0.0000000000000015
    -0.0000000000000009   14.5388225279766061    0.0000000000000009
     0.0000000000000000    0.0000000000000000   37.2126966544236950
 Li  P   S   Cl 
 288  48 240  48
Cartesian
  1.2479165402229815  1.9729015095871181  6.3790513604808714
 14.2796527865681409  8.8874964116352686  7.1081843973051342
 18.0036084335877042  1.8747694745202830 12.2034450929154108
  4.9728601535161197  8.6319282981484040 11.9820353669032702
 10.5499402657875976  2.0336725263669848  0.6097027616922028
 23.6327854435961058  6.8220564114039304  1.1459402348663590
  0.1096175833084239  2.9008651493575126  9.3889484244098504
 14.6411847231737902 13.2749022648225719  9.1498640299767349
 16.4737018473154073  4.1554319660334400 15.0387283697757255
  6.9224710358070531 12.9404767873180351 13.5556188745431641
  8.4662213494243286  3.3726432011053329  2.6495991401790664
 20.7250796127239774 10.0260825319117952  1.9485213765603915
  3.6307092788880291  4.5451092469752234  9.5299128467329943
 16.0261818907632936 10.7923368512870042  9.7645614890669066
 20.2635719304508761  2.6716328039098611 15.8577975623236451
  8.0618570839791097 10.3209569839206843 13.8788422185099627
 10.6497561537017962  5.8350993416559751  2.8371097841791291
 23.7399164277056798 13.0810911316649960  2.8097180166971292
  4.5939231368102158  3.0531661398787184  7.2873379048128077
 17.0510194705180780 11.0835914760389294  7.0745908858748878
 20.6602237344323711  3.1368843317817898 13.0601557128406807
  7.9465350881224621 11.2067345819573845 10.8512225118370917
 12.1593388061020526  3.1893629334614650  3.0482300045074218
 26.4412690613496082 12.0759117290566671  1.5876906814305718
  2.7011361953808444  1.7624701181493450  9.3885803245412873
 13.1183315487729075 10.6395156943069455  9.6213989325748770
 18.4002148407742716  0.8190201644381263 15.4837615430303561
  5.0298733927884225 10.8250742595204184 14.6079184228697816
 10.5502677142512677  0.3463414173996981  3.7714976413327079
 24.4240134642924787  9.3655260210691367  3.1930286856294008
  1.2577891736777729  5.7697781056730628  7.6142496451228041
 13.4977394578505674 12.4607281246474972  6.1755543180128791
 18.4093515052775878  6.3030830653062848 14.2251592006001193
  4.9142175560359860 12.6323168568096307 11.9602863160086699
  9.3725236646212391  4.9498599102379073  0.0477464835989508
 22.8395530122429484 13.7074183327566193 -0.4589132892400010
 25.2764815777773322 12.2515266600623303 13.9474190376875420
 10.9654012928908795  5.9387681602835363 12.7103648959733988
 15.7580538713690164 13.8892200838341111 -0.8740246221382820
  5.1576961401008763  5.7496885674816172  0.4797330532213422
  6.9866374263667046 12.7128932317482732  6.8593570103444890
 21.4630798948684784  5.0713024696362483  9.2466778300804648
 22.2184479820917105 -0.7146346386618273 18.0917530523191452
 11.5247466896678130 11.4421442650842682 19.3481121152299380
 14.6042542360514389  0.4836097986885409  2.4445152508849763
  1.8543435224957876  5.8615516004460702  2.0065572981911424
  7.1907194464398954  1.3484189394498018  9.3315689318742709
 18.8255919961852562  7.1390022063707077  9.3676401238835751
 -0.0793616550240082  2.7141581994516155 13.6044501661575143
 12.5623196645059529  9.5226504648576480 15.2370976650531844
 16.8527491815102763  1.9698318825800498  3.1125917878266702
  2.5657565061659104  7.9526218671759024  3.4992550554513668
  9.9780720264108727  1.2156437991813667  8.9291583613769134
 20.0081033228088643  9.4273398590560120  7.7070189083378704
  1.3898191462641394  0.2479361833223011 11.8821004034273070
 14.1722490090123898  7.6098113778113357 12.6415773039843415
 19.1583202740445095  0.8438689983801462  1.9573691658536265
  7.6096865952228709  9.0116834821631890  4.7636458071167835
 10.7924932418918527 -0.7656642598083786  7.2488517356832984
 23.2750539053376677  6.7595575202504250  7.2958022103225382
  2.2337765123830158 13.6997339234607161 14.8053727410714053
 13.7544593786545910  5.7593680755801460 15.2236639184215150
 17.1128446045595481 13.0011467470541682  2.6610625586061167
  5.2531881902515511  6.4382744722672882  3.2349637650886729
  8.5837800415397449 12.7391377600939624  8.8105624117149990
 22.8971161800767398  8.8165471664721675  8.9078292487448092
 23.1350070427382200  1.1188240885041407 13.5710121124064749
 10.3969991160439523  8.4195142679226969 13.5255103542857409
 18.4793295163971720  1.5076307353310714 -0.5098720218470202
  5.3436857692864406  9.2968623787120173  2.5344181188452342
  7.8300493856497901  1.4288920827148757  6.0662952117868745
 21.1782293172526401  8.2383732104049212  5.1781962776702004
  0.9261627763638622  8.9406251979490445  6.0997269472350339
 13.5033200477909450  1.6843090337816433  7.0751696995447091
 17.0589392541438620  9.4960671816264455 13.5760318943339282
  4.8186874110525570  1.8341399771148450 12.8505235494028938
  7.8680855985045710  7.8612621442880650  0.6057175018905174
 21.6199442844921315  2.0438234167880927  0.4883579025220344
 -1.0182272696187551 13.2475417153150197 10.7140218128142486
 12.0494353139840822  3.4079502993764454  9.4244970963165571
 17.0609959378811631 12.1365254658857893 15.4486670300808875
  4.0960247968005783  5.0915140627343929 14.7118122133355680
  8.6542662098507428 11.8643353890034078  2.6315396242859350
 21.2581780480071778  3.1235358366706558  3.1015333106294407
  2.0856196755155012 12.9250588562343456  8.2486011818231990
 14.9210333131301969  5.6132438449996087  9.4606165368778736
 21.0204564991690610 12.2415004513980463 14.0189720975779153
  7.2354313765018503  5.1005389925872766 14.8810518770752083
 12.6496477933766780 13.0136581691620119  2.1146875149347890
 23.8312575204977932  4.7488104141777665  3.6887394045908901
  3.5385817487957838 10.9560919827060328  5.3320272017112940
 16.0803825736123081  4.0281056882544597  6.6779257820458131
 19.7647568733180776 10.4185191473474177 11.7612531444906292
  7.9064081062576195  2.7109658791892794 13.6994326455151523
 13.0175846808674365 10.4154608427061888  1.1973950121909982
 26.5428955563501425  5.1935813724448101  4.2381409729119879
  2.4784040786377379  9.7074032716077205  8.6800618326347685
 14.9611278829552123  1.8105499709168080  9.4981719574791192
 20.6517470127041491  9.4468785338798202 14.8420070645982687
  5.8062564685327089  0.2178841342797406 15.9319323311167569
 10.7220451056724713 10.3965846194610076  3.3960242921201824
 24.7020141516480116  1.8761668272347662  3.0588639123922823
 -0.5339689716673979 11.9340392420434593  7.5646376218778801
 13.6949626475463280  5.3421904661953663  6.4540641031097303
 17.6066225180105498 12.7160781256014630 12.5145377648486402
  6.4945428753985528  5.6538930105789191 12.3303001952154681
 10.5130212560828706 13.8026387179066319 -0.1030669611141949
 24.5449657083258401  3.7047237039570198  0.0714677059705227
 19.9247603104491375 13.2154033003263489  5.8603304275110997
  7.6701431390891788  6.1226010882153217  5.1985525121163318
 10.9392403430789624 13.0747032072586329 13.1310479005196505
 23.3690640328942507  5.6806341098998381 14.1428036864841484
  2.4596328884244478 14.3020017997300997  0.5497111514968327
 17.0404027465945305  4.7977413198702026  3.1313838658655047
 18.6318515164792124  0.6398221881443850  8.9262351076712694
  6.5405968866892863  8.2529189889702756  8.3021065656489412
 11.9382150187969742  1.4600444459158355 13.0805091085793510
 23.9910919396117386  9.2162314353818164 15.7729855988521930
  0.9868744530822090 -2.0288459257250939  4.8334253431742003
 14.4856391647188563  7.1274071817054994  3.0043919812269504
 21.9686283755059293  1.0451831579041069  9.2765122170230807
  9.9201024696062685  7.4625136340173883  8.7676263869037054
 12.9981126109885192 -0.0842233259721944 17.2396534592947859
  1.7350030841424811  8.8251359072371010 13.6852218480512686
  4.8093764832342725  2.4082692966455337  2.9133410799657913
 17.7831886794625298  7.8145742044805777  3.4140462923361996
 23.1859373400123694 -0.2494135119631554  6.9807020287847807
 10.9796193246899705  7.6719727378488338  6.5538999577172872
 14.6261671206165431  1.2723136425534578 14.3142467607003141
  0.3715825392078501  6.5961803411959066 11.9096946669109585
  6.9242583010680878  1.1717534233924762  0.9474255867594633
 19.4171210260589007  5.4584232337913861  2.4844939207323598
 19.9251570919905596 12.8135340229002139  9.4509835167832374
  7.6789749756615411  5.5693849098619710  8.8888985742251556
 13.5539159507332485 12.3686991667222426 14.8211234216372603
  1.0810342974748750  6.6327306261348946 15.0854600583389562
  5.6138363389110628 13.6179322768690536  3.0890730434273586
 19.8706733573275223  5.4845152105311650  6.8859355062302852
 19.9274176660564315  2.4053253224105222  6.6548909846692288
  8.9553706238185597  9.9245394913106662  7.5763377317286196
 11.3059738550243747  3.6780942183581793 16.0807929291271989
 23.5676471568733135  9.1131359896411777 12.6965605236069550
  2.4059488881387998  0.9869234489431480  3.0323578728695972
 16.0582452998127536 10.7191400451960810  0.0395982242026284
  9.4636525929851203 12.1635768159247544 31.1627312512996646
 22.6905566830544743  4.5314167540258463 31.3528511662281346
  0.0052767371686748 11.9721279211358240 23.1788724923216769
 13.1395575154656701  5.2963887192594257 24.1989217859429111
 19.7217024041597639 12.7674761131689500 37.2929077019884474
  8.0408482396082412  4.0660500503087658 34.7155210643125756
  9.0424744592376936 11.3888659595760924 28.0559979329027271
 21.0128717525298008  2.4932407070870468 28.1849630579035910
  1.5984462239084616  8.2577339230783107 24.0285317620074110
 12.1798140649275179  2.0572060636676830 23.1643693383188172
 17.2165062950153214 11.3585298037790849 34.6249888077165764
  3.7623541128387319  3.3483076867697825 34.2826558196155986
 11.2749243792700256  8.7804561591973300 28.9599546081026880
 24.5212154281092936  3.5220222398824372 27.3235329164814651
  3.4217363981717823  9.3162165342467649 22.5513282553618524
 16.2705601719974560  4.3357747682706176 22.8510873885437462
 19.4169175886815921  8.7129986898533254 34.5139335066499129
  3.9066369052402323  0.5911551468778936 31.5371383439779649
 11.9080451108191916  9.8670414489153604 31.8039931761525239
 25.6230125260206627  3.1996622823728962 29.8558563401524708
  2.9218749014624263 12.8718087236684458 24.5006249498127353
 13.5235876705237068  1.9498364904050760 25.8401994847470213
 22.1323398268497300  8.8666052429514046 36.4331970936283511
  6.6919636811493595  0.4115977174621419 35.1051727568085283
 12.2147125608460883 11.6676772054085731 28.6821904629904481
 23.2749029089223853  5.9600429673439965 29.0288526759513630
  0.0966980970323779  8.8991354712556525 20.9788297171040554
 16.0538418019658522  3.5322115787784769 25.5808828919555182
 21.1799892127589580 11.5965243408790659 34.4232226819680989
  9.2954552546630964  0.6373051380864376 33.9308235958034885
  8.4693505644817595  8.9031994339641667 29.7480467860080360
 22.5474380002570101  1.4838440446350365 30.1881595357412280
  4.9386452060561306 11.8184804923526166 23.1464650117886670
 14.8472463328025892  0.7861018645140323 23.4880183353838632
 19.3872731147755566  7.4086521665177134 37.8725522506652652
  4.2973363295871954  2.2082603385772912 36.9593249338711374
  8.8016052295128162  1.2057904890563635 25.8862109793500643
 19.9729912798916018  8.4680158854841636 24.8956835727280215
 25.0454058787032245  1.3396795285363376 35.8878359321727061
 10.4819814970937397  7.6526555590076022 34.7748518171879013
 16.2665224282065424  2.1949073867978357 29.6776293078265141
  3.1259260566964508  8.7222513444242740 30.2235747476835073
  7.5411453183588826  2.2985761716206481 19.7978226453931114
 18.4314457286216467  6.6363557833133306 22.2820383855566675
 24.7603546872866751 -2.7744447237170311 33.1450723701569672
 11.0796624100702914  4.8328245587011720 32.2905506526722661
 14.8990071967339528 -0.2408956665124625 28.4273607350001640
  2.3371526826767979  6.0737535894109671 28.0874475680255813
  7.3921475412980220 13.6840122533784818 22.2566970265674584
 22.6267174189549891  5.8500640188596780 22.5208939930483538
  1.7623315311957466 11.9096321835673660 35.0885469987931984
 14.1226412425842245  5.1769956855405743 34.4468792468561134
 17.3834449865462197 12.0582956231670479 28.1585346104688128
  5.7293014783582157  5.7036388455228337 27.7840091386586820
 10.7082812861782415 -0.2824573497402363 24.7545517710757572
 21.4883903777125020  5.8399537009631706 26.2141588616667107
  2.2868211303494190  0.8113551174153227 33.6904884684281143
 15.1746913959786518  6.5180953125036218 37.4072760231215611
 19.3703236875808891 -0.7356062765396986 30.0846240798608804
  6.0604865609371279  7.0625743871328774 31.2466389853250206
  8.9435319703725327  2.0521278844796500 23.0861118128202705
 21.0905902124449796  8.8272234480727239 22.2173503779609192
 -1.7701011205408013 -0.1080093180602793 33.7189252003673303
 13.2018414225544642  9.9200547669598720 34.2740626872034895
 18.4536908729349562  0.7751197914167728 27.8893834795294602
  4.8499140118133397  8.6632995981136336 27.9035029106406398
  7.8039180859588280 12.6571576240925712 25.1884691317428526
 19.3561823360874889  4.6904759313686588 24.2001088405972276
 24.8112139969249732 10.9240361623198048 37.0513310318642510
 13.2689332716798827  4.5030332787530751 37.9508855741477547
 16.1465895896289027 13.2096947240413929 31.1964084815085805
  3.7467800195598886  4.9376161510165959 30.3838246953019997
  8.4732176999081190  4.8650547718309980 30.2638369558512714
 22.4859812298003483 12.2055208402258160 31.0659645553645198
  0.4632453562911900  5.1237162229195796 24.5122612955636612
 13.0470005389162562 11.8549414357667739 24.1206277439088588
 17.4015797087905959  4.4607331350085326 37.5028549069085813
  6.0610898664625914 12.3427659080970038 36.9080697362237800
  9.2054855951074153  2.3986939451229237 28.7046646735762110
 21.3626175162715271  9.9571332647501123 28.6887285939989169
  0.6853138092135567  2.3140466654449270 22.0441748815022756
 12.5082515182726528  9.4759118998700433 22.5620730738784943
 17.2056030798230353  4.1487459725562656 34.7173949750428648
  4.9779040608150273 11.3858268162780760 33.4440089974115651
 12.7485758946280754  1.7717810012870703 28.7829405547553030
 24.0581345814196439  8.8830685968667051 28.3418960003191422
  0.9916169472300248  1.2902180558147573 24.7951644902839519
 15.7786005252418757  9.3729203378659705 21.6830730965275578
 19.4036907890912573 -0.3146682289134848 33.5032917802022112
  6.7865934081474792  8.0726434460130054 34.5672311323830428
 12.6628663284242240  4.9564653810436567 29.2035570997825751
 25.6191200461307069 10.4300673170652800 30.2100455385011948
  3.8716979264447744  2.9573294855784300 22.8250923863024866
 15.8274921480412782 10.8932713471062534 25.1904464537855333
 20.5217723840301893  4.7105745901139251 36.6087352902272940
  8.9172180258329590 11.3861609353326898 36.7731491326035780
  9.9860303927142873  5.5151531276957959 28.0479319334483890
 23.3910916696180315 12.3917288885952548 27.8713579246085992
  2.1014026815771878  5.5835848080186787 22.1811430923318795
 15.1140175179671736 12.7744029657382523 21.9820744195234781
 19.6507695368118540  5.3503292324662066 34.2197649819746132
  7.5251742842885143 11.6395558761353275 34.2886867814340945
 10.0765789224745266  2.1320152959452234 31.3300060188117691
 22.4127595854994688  8.6619259103507815 30.9448355899760905
  2.7369043793839767  4.1192422674909084 25.3535506382302813
 13.4614578866283683  8.5043358894739018 24.8470178140275522
 20.9405403935878560  2.1655096122544979 34.2458316643009653
  4.1552088179292186  9.6584975444663534 36.6611607011942837
  3.5459121046856734  1.3566341426738742 28.1081060186920659
 16.0963546258056880  8.7787336057092453 31.2172181559798894
 19.4567012422341001  1.4860304586416180 23.9099076821509833
  6.9129714417565289  9.0057145041322535 24.1026479306770902
 12.3761506412478663  1.4835754203863420 33.7131418628140835
 25.6740194772520987  8.2826973380188846 38.4039286946099736
  2.3125660574133966 -1.5938615919950860 28.8127219487457857
 14.9375664957252887  8.2896127886775517 28.3140151251566934
 18.3138285887847658 -2.8435755039315307 21.8733280475704781
  6.2487978026522262  6.3653798631058347 22.1054924113957547
 10.3474597431180921 -1.8388689755057315 34.1550852550819428
 23.2736848271646117  5.5319050061473627 35.4121537916269631
  1.3422500858753670 10.3038636899207976 25.6470137810570549
 16.1145923488890688  5.6585546960581459 27.9320079459700921
 21.8212610953926465 12.7205103811562079 22.0321950336402068
  9.7073512058315270  5.9734883503756109 22.3484068115793377
 14.1735881628978007 12.8446525036576755 33.9471264096230385
  2.1949965395110791  6.6612770783615405 33.2135475523152479
  6.7511939785548352  0.1915458215469402 30.1456369090179912
 18.5975946966866417  7.0808881921625435 30.6849109867308201
 23.0614269310956566  0.3803647492235080 23.9863462559682468
 10.3095103920712052  7.0824509681719547 24.7110404568572442
 14.2859902519862541  1.9298743026952374 36.5317313582222454
  2.3661654448866813  7.1290866197411722 36.7112899028555191
  6.3005961704491238 -0.4593225665580661 27.5759952763709464
 17.6257548170953093  8.5504184623419430 28.2105548517972196
 21.2253768744458213  1.4420000873407661 21.7172338352687007
  8.6725785957657600  9.4520853737850690 22.6768085615787882
 15.3849319042276260  1.2447957212691554 33.3268947086038594
  0.1805007909039953  8.7881936163154748 34.9118542151157882
  5.0958567934097703 11.8318764825458373 29.5601742465607309
 16.1784533106716495  5.4653864401856760 31.7004022108622650
 20.1808071827444238 11.8340502669277665 24.6771031461255390
  7.5933979588701686  5.0242549013385034 24.1798893808239086
 13.0273832169774106 12.7793218416190193 36.4015516475116456
 26.6831657365914765  4.2268822312823326 35.1592805010980243
 -0.0544287522763348 -1.1694315708778049 -0.3139062584615712
 12.2213469663384018  6.7688522146084074 -0.1806137846666511
 16.4863164130013899  0.2293440019655718  6.0730764097756511
  4.2414068108152074  7.1142935777856735  6.1520328390160692
  8.2828267402794378  0.0982498599671907 11.6767153055818973
 20.4469169550134424  7.1504404518149940 12.2179332862247350
 22.6666714053275342 10.8795069667624595  5.6702245802483393
 10.4155717705081603  3.7612305333330887  5.8882414730716146
 14.4469050887885757 11.1498115620710418 12.1740640146903072
  1.9719035672548124  4.3614305652293934 12.0033298123611658
  6.8410545822115685 10.2812999071484086  1.0629886883972404
 19.3894214536796561  3.2835341126831237  0.9146702998540609
  4.2634038805972043 -0.1923663509495951  6.1777599810190909
 16.6319105324590915  7.2508712439719991  6.1338777930853352
 20.7114110959133768 -0.0742405066615609 12.0601943824623810
  8.4998455948041212  7.4663890180636949 11.2625811063202157
 12.5326779210864210  0.4791615507057322  0.3794653938291682
  0.2199139059703330  5.9446638022783889 -0.3627659568277806
 23.3208877642862511  3.4391511625076356  6.2722473621844843
 10.8512070993599217 11.2826864033298513  5.8725409003574489
 14.0762697532837038  3.6864185231681277 12.3622125564115972
  1.9879460684264525 11.2517612859247880 11.7712602230516588
  7.6376524205155425  3.3044072132752231  0.4460254284682221
 18.4207321307883412  9.9930334619682544  0.5437841128399385
  7.1627397756605191 -1.0155730988140079 18.8862285928386804
 18.3603919447613393  5.8732592052225518 18.1533476571160790
 25.2494026793342030 -0.3444548583130549 30.9071813098881236
 12.8515456991212744  7.1658333101220100 31.7859838188155557
 16.7359918693240033 -0.4169003383133427 25.1157826408645519
  4.3007591921130226  6.7314219192863449 24.8527066201249127
  6.4033737599623874  3.1131338093221226 31.4841983484790937
 19.1603128674572751 10.7072738217498564 31.5540947484053227
 22.7065892576172317  3.3398579692581896 24.9181789766602115
 10.4059187461711122 10.6529141632984334 25.3356329867279051
 13.2933834759425142  3.5605907793913256 18.3921078501079336
  1.2411717757411445  8.8079333422799078 18.4378393736946684
 12.5762676418098511 -0.3801502969961473 31.0811720372864109
 25.4644976563469143  6.8022509449135615 30.9017658055104114
  4.4589607039915373  0.0336158137611471 25.7102093973908481
 16.4266124668208100  6.9996596975229926 25.2497743380055404
 20.5478214769538532  1.3726999878436617 18.6782084898419711
  7.6522602072609072  7.7704770065556756 18.2059776373997160
  6.5173256334403220 10.1458775345618673 31.3791545687125826
 19.1544736907379622  3.0649697330719530 31.0514564254258012
 23.2122346061694458 10.2323586634943009 25.3376148557819825
 10.6365288683386492  3.6381578136687116 26.0216240418782476
 14.3633679808269044 11.7920028597282514 18.2384382665284335
  2.9898604372676951  2.9918427251449820 19.0754215758809629
  4.2640536566579348 -0.0945595931679580  8.2278642602043828
 16.3030888933932125  7.4629992833745744  8.2612181924052859
 20.5255928518153326 -0.1334940959498086 14.0598791003590335
  8.3136282486402191  7.3154909462882163 13.2755743844054237
 12.3175858528577020  0.9787037384559297  2.3605747165297744
  0.1690608855447859  7.0030420335339691  3.2116021303423725
 21.9475976256363445  1.4032717577463119 11.5666544205768798
  9.3414465585523310  9.0845769817590138 10.5334490741665974
 12.3083525306917103  1.9224804118595176 17.7207141265140002
  2.1987401461171969  7.4877851510851778 17.2268850325205918
  5.2451101081738853  1.4731397509824142  5.6447001062998092
 17.6370993718793052  9.0319117678910068  5.6510502289093214
 21.4057009264773015  5.2355132501618282 11.5817314491400083
  9.4673227408623450 13.0311329948588028 11.1138653992987262
 12.5205805955545717  5.2095264801125447 17.3812032500638267
  1.0302009927763571 10.8585030726000191 17.1066806974220924
  5.2954164091635336  5.4195651646035614  5.3891690505631811
 17.5079446018384886 13.0853443525612150  5.3255210216435032
  6.3531412400545140 -0.0002541080861096 10.8523136894171657
 18.5050350876059433  7.1094884793261146 11.7981589165818690
 25.1147830111037962 -0.4969757870760253 17.6273801800150416
 10.3655924391542875  8.9888674057450828 18.8088588475088443
 14.4797773938528671 -0.0251796277304838  5.6702948692970718
  2.2479315030599092  6.8939841727833704  5.6700505136107875
  2.2881038616419755  3.4273378280374942  8.1462205030579966
 14.7354237323605357 10.9564418002835762  7.7644760004115332
 18.5237559467841635  3.2240475443432239 14.1759798870999152
  6.1817009802939635 10.9065555903087859 12.5671731688569892
 11.0257046267389782  4.1251453752737079  1.3614791251359499
 23.5287062893183609  9.4289520382715253  1.1564878209514227
 23.2676096051363466  3.2663203184235936  8.4633855711169836
 10.8386868799142526 11.4695426122074231  7.9808233908251056
 14.1359641597050700  3.5040649264967767 14.4989680510181103
  2.3987206263031942 11.2878146614412724 13.8799129570254216
  6.0699597918079240  4.1053769830099283  1.6517476434160310
 18.9507234016111141 11.2810605794694201  2.1496108763563146
  2.7153633433152646 12.9714700389540258 10.9206017840795688
 15.1436848660585834  5.3499276308002859 11.8843185636714814
 20.3554350553569492 14.7572249292485953 17.0259873926001539
  6.7256361521494208  4.5879131286245149 18.5701401020839860
 11.5656186001766610 13.2094903346723953  5.2657810110642007
 24.4674130690591873  5.2145088683200580  5.9118621474942969
  2.5461617505390266  2.4024928969977335 11.5935137281317306
 15.1074240336262466  9.3490498667415025 11.2983323522775052
 19.5450594784627185  3.0913723007689744 18.3045084049162234
  6.9846659929515127  7.4793884443648944 16.2302622322238825
 11.2835458055939224  1.9665409680425137  5.4762778059370802
 23.8060897234350755  9.2253873344088611  5.4959684290478794
 -0.0088265285652207  4.4928900442256339 11.4451995683934538
 12.5814989887088640 11.6846469450224237 11.7947907503322469
 15.5246327179779335  3.0565095368566015 18.4204750382195357
  5.7619345802609923 12.6956900325446593 15.9144771236690215
  8.5296197342832656  3.5751378892406969  5.0944357097193027
 21.0152657154825704 10.9407996608051228  4.6550865910183559
  0.0842031988316835  0.3335263474720604 13.6073241137143288
 12.3893246050052159  7.2608083966199644 13.9857609415643438
 17.0692444202360889  0.0508108316844789  1.0701362548853779
  3.9260292340361871  7.4986847742446558  1.6222006074542912
  8.4933287675945248  0.0024453581076866  7.4393972187816351
 21.0359769675732622  7.2846545531654865  7.9502946313047493
 25.6509228763908155 -0.3250825208207114  2.8257825601769300
 12.5215472267051471  7.5853870663480576  1.7659972149715517
 16.5723626025060327 -0.0411054128592408  8.1279426372610466
  4.1767229441907299  7.5659021716356394  8.1676505908022961
  8.4331488660173513  0.1765024147836946 13.6763847673465921
 20.6131049008751326  7.1225690549297855 14.3325187608738531
 21.6437156669553019  8.5653382693598026 11.2805980844107623
  9.0475710867353882  1.7287982263759358 11.1289692123349084
 12.7733416122064725 10.8561553920675067 17.1888194677068853
  1.3003428412805640  1.0221117056001658 16.3105745634384185
  5.1443094476427520  8.7360828669781796  5.1873351290227072
 17.2443968844954156  1.9288922108864930  5.4881135275019339
 21.5288154531710489 12.5478308582897071 11.4733329341154242
  9.3896031018695485  5.7716286846474487 10.5952238183479928
 15.6129414225529910 13.1133761736565990 17.3504364389052839
  3.3342218769516130  4.9034826200918848 18.5334099944740665
  5.0894366320611191 12.6389472056037455  5.4582319557400361
 17.6336839226734803  5.5554276517702021  5.5103188525401059
  2.3758835484616876 -0.0119874659863133  5.3240706286589985
 14.6852213051347018  7.2911723675086044  5.4104974611899950
 18.9572764973637078 -0.0983243959496642 11.0956959493300698
  6.4269163522505526  7.3719489851563749 10.5386193143033893
  9.8230517251635732  2.2471400066880522 20.8855449481665865
 19.2963042279205013  9.1904403120305531 17.9836733884328375
  1.5788802406799780 11.0426117540718991  6.9433665091067054
 14.1862177949850210  3.7854389671197004  8.0735824113724313
 18.9012751099566820 10.8653280557914691 13.8977223199581061
  5.8031222030200125  3.5819961686043924 13.9739924960382655
 10.7941608028770482 11.7240601880162796  1.2157491877849160
 23.3692504408236097  3.1116536906869103  1.9131325485776685
 22.4265992782160879 10.7798694910555302  7.8177390474715205
 10.0913810104313590  4.0968286314015412  7.9545081187686284
 14.8868719064669808 10.7490575594526536 14.0536604074212974
  2.1143773967352448  4.4118846738028488 14.1148394856244934
  6.6781091783403141 10.8455655636938033  3.2700070599560713
 18.9634774629722216  3.3431850562400376  3.4397643460010112
 23.7318158244451922 12.6223563109110035  5.3083977660048092
 11.6246083530132314  5.1352215767316798  4.9008058105602323
 15.5840493738999513 12.6982005667769506 11.2822157907848517
  2.6894361179306090  6.0204113852906866 11.1311902837610806
  7.0991487963597901 11.8760226565148344 17.2061208918473625
 20.1305520939007039  6.4519757508894511 19.3876264901268449
 24.4328548174858788  2.0447553369966927  5.3931514581804425
 12.0099161974565227  9.8408860893906915  5.1128597341251041
 15.1085542826973125  1.8614555344014390 11.7939250836765428
  2.7950034552862055  9.4837792547007300 11.1513762620226835
  7.0649687717486902  0.7645547049809813 17.8464889190517546
 17.8512698707560880  7.7871390801860416 17.4150718357857066
  0.0079487342714918 11.1556149383744678 11.4320874414727829
 12.1326584348459008  3.3149298949540489 11.8071536645063127
 16.5741930862435609 11.3855087782261872 20.5154221177217408
  5.0391945968911243  4.4658090283773300 17.4177409245663029
  8.8616227919916355 11.2429613790624803  5.1081102027473424
 21.4760103372613109  3.6422885033148900  5.4419915193427855
 20.5537382541164675 -0.0401489548851123  7.6738102189194430
  8.3877229206227337  7.6421564945192815  6.8967707740665123
 12.4712973198241812 -0.0906600267561937 14.6282933854942527
 24.6614281088542668  7.8903113829446498 14.0716117051491754
  4.3640118733993924  0.4635114028176041  1.5995292522869466
 17.1555291640914334  6.6356213862372089  1.4845196415405555
 12.6136587265382829 -0.4735394501036078 29.0294465453201447
 25.2616006827793385  7.0527218722366243 28.6332699351335513
  3.7455857300704083  0.5388545409792104 23.8390856766165236
 16.1874306554861498  6.8898057984362913 23.1719947961687929
 21.3969965086997504 -0.5451372754644475 34.9122537390018692
  8.2666369654107115  6.6681655563286082 35.7730032067473758
  5.2406557419084017 12.6693367264972760 25.6363364367516304
 17.4274410785334766  5.3294076312663954 25.7073615674623603
 26.4253422652651224 12.4658759477578194 18.2846265654301057
  9.6936363253996287  6.9555828217654527 18.6176142686891879
 13.5989727754195915 12.5188774279326687 31.6885839578667898
  1.4102728829995088  5.0715313875469423 31.4585953663246904
  4.9162164619425424  8.6655264264142637 25.4092943048142921
 17.6978497046486680  1.4018153132415767 25.8768393037959541
 19.6182226428014381  8.4850061764086817 20.0113964088222147
 10.6080845629486085  4.1431445689600643 20.5888229766415236
 13.8985095463461352  8.7329627605278510 32.5136092669636483
  1.2599368417414170  1.2927905190254023 31.5112915800911821
 14.8193548133841073 -0.6091552154645756 25.8745065022593046
  2.4269172084042578  6.6041115957589440 25.4103072764124995
  5.3986513248101273 -1.8951344818432052 19.7685348892123756
 16.6277450090815222  6.2873732459319385 19.0789429562091009
 23.3438133577746285 -0.2884953760195993 31.4575241680379527
 10.9083100381083380  7.2811127385724586 32.4257576715082507
 10.6673655487086005 10.8099885576982988 29.8969518467451429
 23.0610280751385588  3.6370313191246546 29.3977033448175256
  1.9641688173473066 10.7944400065718931 23.5405445667736046
 14.3900868111827780  3.0977057177740495 24.0182344686518014
 19.0890947423866244 10.7761464870037997 35.7537597317872340
  6.6781185781177923  2.6097149126423962 35.8643199888762609
  6.6971069278681989 10.2891827472413286 29.3211972330641295