Li P  S  Cl
 1.0000000000000000
    25.1819793006824639    0.0000000000000000    0.0000000000000015
    -0.0000000000000009   14.5388225279766061    0.0000000000000009
     0.0000000000000000    0.0000000000000000   37.2126966544236950
 Li  P   S   Cl 
 287  48 240  48
Cartesian
  2.4263369360515070  1.0918709777419910  7.7142383133377912
 14.4487698346148026  9.3924151778685996  6.3849604909473667
 17.9043171189984527  1.9972899051011597 12.3633056554671850
  5.8149280008082993  8.5801879964244936 13.0279149511140488
  9.5126805834815222  3.6994027231465627  1.4895755877253849
 23.7437633996661788  8.3863177000443088  2.5436921914235446
  0.6366721936188439  3.4328128556305328  9.0077681757564214
 13.6809754396739844  9.6249820604602139  9.5448201859586259
 18.3338834882965322  2.2865848675731657 15.2009773063728399
  4.1767116767154482  9.2364381986107773 15.3976711176347063
 10.2859940454470511  4.4751779568935257  4.0562774478444359
 22.5480122361491908 12.6760184590014973  4.1262995692420610
  2.7765716801041460  5.8602752316105953  8.6159046451903958
 16.2196376758540950 12.5354733152637667  9.4352551023321993
 18.9114756014589744  5.6838539382321276 15.3077301561111891
  6.9191984910531055 13.0074076511962406 14.5780509516120951
 12.8905471098452828  4.9849985314578689  1.9219169205110322
 25.0802312340424258 12.8379601711745632  2.0010296644718082
  4.3616547002973380  4.1655008255678911  5.6753080196990613
 17.4575371158962263 10.6833232072862963  6.9305901934284844
 20.0601643731366757  4.3062921404703047 11.1888313000669193
  8.5602151869339753 10.7522892217049453 13.0374258208033513
 14.1838911535472363  2.2930203169486538  1.7434992059148298
 24.6288227159788953 12.4827418714046221 -1.0976020870341197
  4.2889544300461164  3.2720690793934448  9.0450412332137535
 16.2945032684508924  8.9829801757202912  9.3580460063214996
 21.0741956537248498  2.7520104978278792 13.7436988138420269
  8.1973037531854818  9.6864141719587469 15.5313844635904026
 11.5941462832839317  1.7943319038527181  3.5798770255128001
 25.2606261720698484 10.3519946883997580  3.2055034105249685
  1.2024293593873385  5.3598285342190266  6.3531690646056935
 13.9849365101728260 12.7007879778147252  7.1288804616041723
 17.6659699974058420  5.8229248066218764 12.6049147896821214
  5.4138377955401520 12.0637222251022003 12.5737072342383147
  8.7401390109811459  5.6555828222445008 -0.8187454644173023
 22.5450543772453997 14.1546404808665134  0.8048133653145155
 22.8313262266277235 12.4083489200646451 15.4132186670840081
 11.9275071954820699  5.3971989929545749 13.0498340286623726
 16.6318069804107438 14.2861525109186900  0.4490622854099508
  2.8258286066123928  6.6858159951281886  1.8430391367923082
  6.7835289295922951 13.1974123625254123  6.9387401260064658
 20.3012135916927079  5.5339426528966476  6.9044494336761959
 23.4167754109712867  0.7907601037363016 15.0503722322985976
 10.8691626471055756  6.3432732005991985 15.1049122276952232
 15.8602472397958696  0.1256906244891399  3.7283685390210861
  3.2797313724517592  8.9333608544174297  3.3443494167014767
  7.2378634832177493  1.0307522864065961  9.1237119334376064
 19.8240116329323790  8.1769727562238064  9.2927306509853036
  0.6596097484564910  2.4862470803901129 13.6995915003480100
 13.7518916037978496  8.5656446100764345 15.7808134807033174
 19.0445910772729334  1.5954061644110569  3.3901000646202166
  6.1339953988710700  8.0447759891396231  3.2691097242457614
 10.6447917010984039  0.9160762023879978  8.9316242575177949
 22.9010075820996839  8.9407233490125932  9.1630802980880954
  2.5686679227030393 -1.4470277257317015 14.6710868186485559
 14.5252292210588472  7.1822476624147855 12.8065072939203013
 19.5648815803852294 -0.9265406035422707  1.4675506202722874
  5.8781917715979146  6.2113179770744855 -0.4901338467388044
 10.8603789476502754 -1.5874825117870381  7.5411340039946584
 22.9639660911554557  7.2369964774847002  5.8872593447713042
  0.9185401329320211 14.5372596587024070 16.8187477087714612
 14.7706599767575160  5.6196635488857458 14.9902901456809534
 18.0101538353262782 12.5300338503978423  3.4584694692916225
  6.0613865170842036  5.5882680800001765  2.3072062368932595
  9.0675977141676096 12.3976703853686399  9.1866875496953213
 23.5365952301269914  6.3304546262754675  8.7687378568782197
 27.6462262918812414  0.4069725820868676 12.5731232062686562
 11.6986494337138431  9.1355815713805679 13.5169081253004428
 17.3671615777478685  2.6436989728678144  1.7644168841523498
  1.1775930865854800 10.2901878823021793  0.4750701313533369
  8.1336422952387544  1.2941929558529648  6.3338441816144284
 20.7978151833261187  9.5506417421853715  6.8903067564664040
  1.3688870293523372  8.8345222034079871  6.8956185499765725
 14.3594110076781298  2.1342314628811474  5.9437597244690510
 18.1779350034218083  8.9433617855376202 13.1254526710940542
  5.5789606638339784  1.8151636387617458 12.5021134845434467
  7.4126731501661585  8.3979325685966479  0.1994190901042453
 21.0554697859673539  2.5895088788554559  1.5234932538689514
  1.8946500471199352  9.1182416183785993  9.7154287486031663
 13.6366870419984068  4.5240880936303967  9.5744620455103746
 17.3488189214148640  8.6293151279551328 16.9286378792288765
  4.2853035924616796  2.4825461977685075 15.2293490571857042
  9.2189369301423838 10.9069701067780223  2.9955832538907878
 21.7757983093743093  5.0453645319222131  3.0989236941569955
  1.8061125536722658 12.2544222537670198  9.7170305700101522
 17.1980482577944862  5.0403291100261853  9.2740964406657955
 19.4655407125005304 13.4204074459723657 15.1916678341710263
  6.7729888252748047  5.8972386361018474 15.0638154021154307
 12.6220082731576237  9.9088780191658294  3.2169887237532242
 25.2577760828722475  5.7132870947178418  2.3602810669306491
  4.6358392508898492 10.9855250972547687  6.7338564663983087
 17.6196366395057780  3.2641190014936328  7.0983925208464695
 21.5412882455741332 10.9272779355864795 12.5482794438409542
  8.4217491416004311  3.6268766288278975 12.6281954664850460
 12.8929743511303005  9.5031961187598117  0.1202573840515188
 25.9535585647069631  5.2856323723098617 -0.4720604348585240
  4.3208307617333759 10.0104748968781703  9.1303551941975520
 14.4517638636972432  1.3739013893526848  8.5349289393160976
 21.2664376616839412  9.3176408841760097 15.0016184641847090
  7.6872703318768920  2.4737641974958917 15.5061067570802269
 10.7078616526093260  8.2446987941888210  1.5090606403511571
 24.4214597709122678  2.4836822171184885  2.6293804650891723
  2.1112640161923317 12.7901460800706399  6.6400418281477780
 14.0809229108140865  5.5957621401023214  6.6729557537611601
 18.5437725997515024 12.0542701774769938 12.4470864101307388
  5.0378900539802256  5.2559611574839913 13.0855932292390680
 12.9913794342799314 12.9302159824925340  2.8497209706327662
 19.6675586896210888  6.2296039003726298  0.7690018473577843
 20.3665873863375211 12.5706521254285768  7.3843590080283636
  7.5382807272347119  5.4601047482054046  7.0481054225651656
 12.2427209550447849 13.0283422554805757 11.5447195320018388
 24.3772483865694838  4.8796745303866436 12.2675543603479724
  2.3768209555508228 14.0723919688067376  0.9584557590404419
 16.8002924675318290  5.6084331994880667  0.2246349408630862
 19.9462022509370165  0.6676105555489644  9.1798573707305113
  7.0978156555392795  8.2690120838162251  9.1048702795186482
 10.6740873835473806 -1.6168205687476731 13.9424434817664231
 23.1518387443825908  5.6125099982051019 14.7146763792438051
  2.9834119335262304  1.2878476407945252  2.7860722722935125
 15.2912678583179584  7.8874860457258942  1.9640947088080880
 22.9701788894157701  1.9444028908854485  9.1491277750046294
 10.3920718080441947  8.4112541981400337  9.0861069005435962
 13.8472675462831702  1.7228247940742396 14.6069252483103398
  0.5262759449698513  9.6848826539495274 15.4034334040722243
  7.0729635442568366  2.4004682263093602  2.9573930143257501
 17.2974531912966967  9.5304069212784768  2.6561178459402113
 23.7426625073827360  0.2550383411011535  6.4973520628394299
 11.1213590751308704  6.5968465005709938  7.1500317674169347
 14.7311561983076142  0.1884356687365553 12.0894408415043486
  2.1705829088362729  6.7997840280793813 13.1508444884369613
  7.9142378799955848 -0.4975985841505878  1.0793506035978360
 19.4845932196826936  8.0480128383072831  3.5334209102815293
 23.0087013597710381 12.9322400954278187  9.0030566398498468
  8.9918637690008882  5.2571282693272856  9.3438512873311446
 14.9361506496917755 13.1215546122454825 14.1285614265002035
  0.8391824901765803  6.4038322900635913 16.4979595241534547
  5.0795725815721768 13.3040128791219345  2.5132718803076926
 17.1956405497275284  5.4281095145998757  3.3576940146774099
 20.6766221114785438  1.4013882695599669  6.4132636801429141
  8.5826967358605710  8.6697584296062455  6.0256708505749437
 10.8706291753955533  1.6518037660773957 13.3309137131282753
 24.6680582441846603  8.4914469633051937 12.9569405575602428
  1.8211362137060476  2.6532779566554487  0.3164818143035595
 15.1740710923963320 11.2712683467483998  0.6537120634869383
  8.1969370084374287  5.2308163112089767 30.1158482709059179
 21.1212126644594491 12.3933992055193318 29.9859217216869283
  0.7892614766219263  5.7175787629976460 23.6909587423196548
 13.5409896040290274 12.9900232255360653 24.7237147298235449
 18.6062019604409521  5.7754629085913720 35.1920971963543323
  5.2138119167929942 14.0764673366660826 36.4750864776108159
  8.1944952164806573  2.7492281063024433 28.3517860433005175
 21.2856477150757435  9.4864655958496282 26.8944502399518299
  2.4066459385516694  1.1095555634166114 21.7971055667373328
 12.7035263676108201 10.7900689705404229 21.4064116098511370
 16.5298542212630295  3.0693713392390158 36.2495258749911713
  3.1313135584393126 10.2294317443362921 34.5396135154315331
 11.5331891977810130  1.9035039935562978 28.7723126979511967
 23.2925464363934438  8.3508049256306887 27.8030830234852502
  4.0903118936628493  3.6505267475170053 21.3018574846845219
 15.4637090660173442  9.7595519113926503 22.0961620976564035
 16.9328220134062057  1.8238616596276833 33.6949542991657012
  6.2203466296785415  9.2341466500872027 35.1950648405948101
 11.6231566423107449  3.3312158101513618 31.4226399605996782
 24.2718999062061442 10.6106714865926612 29.8990574471901382
  3.7402337505740815  4.0314079058673418 24.6213016770030215
 16.2109348705845520 10.7259877939144648 25.1386766008377762
 20.6832042876285946  4.2919307162875642 35.9818735438702575
  8.1784250085917520 12.7660199055700847 35.1016913396093813
 11.6678648661100368  4.3429177205073080 28.7017889219280811
 22.9637523839518067 12.3233232622122557 27.5685411161103566
  0.3503074291563951  2.8278557061775951 21.7490798042344586
 16.1219977500760798 12.2758166642631021 22.6872579249516306
 19.8708698976065712  3.4881309125715076 33.1118413270746288
  4.9190491016922087 12.8646276369238457 34.0190641576337853
  9.0178315233625419  1.2346376063924076 31.1041697146157645
 20.9757520967060920  9.2396499965616314 30.9697050343115343
  1.0218385570939363  1.9034111215820253 24.7401869832076748
 13.2953649305273789  9.0392226443694259 24.4611095547462973
 18.9767862818082982  1.4135738270491913 35.9718006952591622
  4.9633770638895545 10.2455643784814132 38.3234386111903902
  6.5542848981219031  9.1925213739858460 24.5861118365327442
 19.4486431051798228 -1.7984154705033861 23.9994693364437524
 23.9391999137062470  8.9471039865292195 36.4491763696535216
 10.5869139091563031  1.3200289778654906 37.8639618944299343
 15.1823990770089008  9.2382469125662237 30.9690585682228630
  2.6514638357541180  1.6513545563562677 30.6776624882363294
  6.2454492565595539  6.5945552805177394 22.2538840020444688
 19.3528339664884079 14.6814117577743311 21.0294901377547028
 22.3097434436858784  7.6746983758223166 34.3514356672579595
  9.8223681796741786  0.6290125919339292 34.3474026997803819
 15.1846341757355034  8.5706431976313997 28.2687892915671029
  1.6750433941441052 14.0241842202029421 27.8370325069615951
  9.5208270105166779  5.9862707813874767 22.6322516988929792
 22.3856088103167750 15.6494453215673470 20.9763329805750658
 -0.1582736149576351  4.7499047300746433 34.2368548969887101
 13.3027076702444766 12.7861228584787465 34.4589734219573032
 16.9067919293805922  5.4922181696358434 28.5368608447472774
  5.3744086821799453 13.9214898825018469 28.2555720316076417
  9.8082729188770781  7.9692151732443897 24.5310308387259788
 23.0520497511689015 14.6170467609854917 23.8532608366882712
  1.8365266465948362  8.1559651034173974 36.1693279887479875
 13.2691122600003339  1.4162540792817073 37.0562054039375255
 18.0708616192451892  7.2557231686436285 31.5320457338344298
  6.0483442393670348 14.5565693605261774 30.4498949756715263
  7.3565615577903554  8.9527264005085723 21.3144076715822486
 20.3456544069068777  1.8859094119727438 23.9339296179534102
  0.0335806796828939  8.6864348581485675 33.9005313536057358
 12.5229426003252371  2.0048832839566684 34.5975495136602973
 17.3209189262782033  9.2122844563412833 29.1392110631391148
  4.3737239661624567  2.0143921472629938 28.5070163760843158
  6.8410689803981990  5.6246083955187895 24.5836610215016123
 21.4323096974062857 12.5484353107688307 21.8899006648824184
 22.7498038095782853  6.0956044663836275 37.2743649833014885
 12.4814780250465258 12.6325223353039817 37.3666297810275694
 14.5961328068160263  5.8491930913053292 30.7209914153217802
  2.9921778631487976 12.5675153973575124 30.4743328500552089
  8.9079404234411612 11.5703583405841641 31.7271675666388191
 20.9584589308848876  4.4426784927935774 30.0302722849907937
  2.2500146929405989 13.2174833035908428 23.1159606212076518
 12.7226371387875030  5.1414383618072810 24.2565765854620956
 18.6448821192665370 12.6864218398511177 35.7166434240265005
  5.2241751308716058  7.1940354087342131 33.1306204887536708
  9.7926283759234813 12.3223262031702969 28.3905705991428974
  0.9501762616983869  8.8429634941407969 23.2452502777431071
 12.4790516429487042  1.7864122997026295 23.8092075519230981
 16.4749410778932521 11.4846364236356706 34.7591792663176804
  3.6266291710535552  3.6626840435532637 34.6394022965783961
  9.1097704884041608  9.3311188514632128 28.0966364473686774
 24.6683184259333075  2.1947079929337350 27.6700457578894792
  4.2968262786423681  9.7888770176360040 22.7753746724208952
 16.6274551659362828  2.3472655039632331 22.7733626404292941
 19.9008879820022351  8.9292568156070597 35.2459928067292765
  5.4492621899058538  1.6600368873690923 34.1654072539443092
 11.6180578469668578 10.3949669001199521 31.5490165257212389
 24.5988447412035605  4.1652122386909136 29.5269341762852946
  3.1349570270968865 11.8239301899137121 25.2345397041199853
 15.9795126433983672  5.4175776096923789 24.1000578100334337
 21.1118641074253759 11.3917583346075109 37.8873232512507911
  7.4355392253914845  2.5540238746550021 36.0116641542414371
 11.8114510945283975 10.4634365014581441 28.3902914156873649
 22.4729830862852822  5.0989950542606906 27.0087599835337997
 -0.1496289405900048 11.7592736262468502 23.6472517680026009
 13.5933693424756736  3.9789766569035963 21.3495639425137327
 21.5308790082923522 12.6774276912289494 34.5138465819981590
  7.2310307124640358  4.9534923554398782 34.2131562615117062
  8.2409950905578064  8.8923178603236384 30.6250554730064408
 21.8721987326398022  0.9165930822482857 29.0418808109863598
  0.6618185369096972 10.2832334008565205 26.0257835002112614
 13.7332640240117367  3.1390271110196397 25.8423501431308438
 17.4403653826487570  8.6425718149064270 36.8689974805612906
  5.2877980987734201  2.9048040207588945 37.7870962541681124
  1.2966706398732795  8.2233633568968472 29.6276354784661287
 14.8966870863903722  1.5677337430789353 30.6224293921922168
 18.2535682608382821  8.5064087099064682 22.4248672263471640
  7.6680066735446921  0.6983680281323222 25.8579481582967716
 10.0658374417059981 10.6415425290919075 36.4761934653619164
 24.3953046444455985  2.5915480422485322 36.4375667983020435
  2.2616669246820802  6.2188760865249595 27.6300257976721149
 15.3723274978770341 14.8553302604508470 27.7622977626251171
 19.7244124896448980  5.4892050967426371 20.3670638785153706
  6.1703749201417564 13.3688370115587496 23.2673479676850690
  9.5614992524511333  8.0469488862381020 34.4325793800851301
 23.3221466549279128  1.1130643768419919 32.8956280426507064
  5.1291613395821543  6.1087433969190261 28.4182756349018355
 17.9847975833663440 13.0157920238265241 28.2017546701132424
 23.2612691819097854  6.1338135128320683 22.1009413271556987
 10.3219294605184562 12.8330734645107718 22.3484696124913924
 10.7390706050683118  5.1828963159094528 34.0790869853625296
  0.7379892360180260 12.4332020065041604 33.4981960446028495
  5.2628913783300275  8.6323951957712310 30.1600127575597945
 18.6449388465681274 -0.3566502875528349 30.5052317547790857
 21.0163116679538255  7.8890143976606124 24.4521860933859756
 10.2182590971347160 14.3785612295234557 25.0752576216776895
 15.2933047227140602  4.3815581343411720 33.9053204317268850
  1.2957700681412985  0.5765315502725001 35.3138855761441235
  3.4087179341330907  9.3494133975484459 28.3486309091728579
 17.9968416127899538  1.0364377844428789 27.8490720191466288
 20.7780164156656397  9.1556727353248846 19.8959988072045846
  8.4253370270498795  1.9530090653458285 23.3603645506356976
 14.2826049702007776  8.4785789413562913 35.4484335126886521
  0.5005012684974205  1.9084440273136689 33.4622763539171260
  2.4862245612822464  5.4355721271974460 30.7719611766806729
 15.5357676799524267 12.1855649952555627 30.3847088155801544
 20.1088042581628699  5.3046420114130273 22.9546935809275077
  8.1307300480819578 12.1631133191864382 24.5317243564502299
 12.5628425918927658  4.4816306542608295 36.4558649814368749
 22.5406366160564104 15.2778708402375827 35.6545090161270366
 -0.3064134938364893  0.2999565053526514  0.1927439953402779
 12.6408237697614787  7.0148478719451575 -0.1181580162867998
 17.3678835083324614 -0.1515211408389480  6.6230169466424700
  4.6276387899885414  7.6199981196198454  6.0670345001252004
  8.5712613701623450 -0.0865780855320591 12.0133918029778197
 21.4646701286279544  7.1740966199218636 12.1704626294478579
 23.6025483725159653 10.9341446200791044  6.1613941767872067
 11.1341566929824758  3.2004087890160067  6.6283498802758531
 14.6884521016791645 10.6605200289913995 12.2027078892790328
  2.6092586857581992  3.5774577332817135 11.5928177929684786
  7.5183264425346108 11.1444118968054955 -0.1878597961260626
 18.7748052645662469  3.7680754426035468  0.2574103318482597
  4.8114249615241222  0.1880758129320840  5.4642647930693844
 17.3396317635010213  7.3453137199023208  6.0214109679353367
 21.2549184529128858 -0.0971795076113863 11.9001067357171344
  8.7159845346181690  6.9916274908669980 12.1929652139402673
 14.3020091536816452 -0.4169272098482832  1.2035297818002939
  0.2655828500896021  7.6421624438876972  0.6150976764172288
 23.4409638049133626  3.7933649050072495  5.5983718127900435
 11.0433009869682355 10.6121081565589304  6.1153014396879852
 14.9286802183598528  3.7249063961913689 11.9427323027743935
  2.4513715302649821 10.6863975596633214 12.3058542690826016
  7.2127356091760007  4.1957491166082512  1.0064615341452623
 17.5953623966508452 11.2849934424305225  0.5419877908906465
  8.9044534840028593  6.4565281419655127 18.7898699199001555
 20.9736690589590751 -1.6030260185574270 18.5439272813477274
 24.2176365441070018  6.9133073094858011 30.8537467182823946
 11.7120091301353959 14.1542742821179868 31.2720418283384269
 16.2320511024663752  7.6309548082330467 25.7624338909254824
  4.0400655668252421 14.8187747398186378 25.0690305829172893
  5.3763464960234790 10.9459986467344290 31.8005601513696625
 18.0306426998694107  3.3871959571418828 30.8655356238462311
 22.4684194104948247 10.5694119488549241 24.5929039675309475
 10.2483102678591962  3.5182908221257883 25.6047553611214305
 14.3622085032653111  9.2666790725585173 19.1468410245210094
  2.9478557417675373  3.3095247182398073 18.2024993046638528
 12.1333756566671145  6.8769056830273447 32.0325661735683269
 24.5528782092216389 14.0278921026890000 30.5206945826846692
  3.8248146679992492  7.3298180847996504 25.1131189772989174
 16.4878600903960475  0.3350880012414432 24.8951399096751942
 21.7109132984682560  6.6631549087839925 17.3295743063943171
  8.5055217243441579  0.4245432115957579 17.6556904886503290
  5.5786190318303959  3.5549184928952728 31.2717176303227369
 18.4589736396513686 10.9610259326924240 31.7550120705797347
 23.0699694839279523  3.5814891255926815 24.5351040477581179
 10.1630524245360458 10.7482122745839170 25.6388563921634578
 13.5259910001804347  1.7108119196204232 18.6015478135552641
  2.7890171771591730 10.7275052343589987 18.4867200304007042
  4.9005295924024548  0.1367149895315991  7.6265548596418471
 17.4146833520688098  7.3061436783287936  8.0248816400081697
 21.4347151390992678  0.0276068262711282 14.0691426804028232
  8.5974827100484106  6.9909661575555626 14.2294403682103852
 13.7957394198620378  0.5322610927706001  3.0889915427965779
  1.0989519846673110  8.0976056801632428  2.6946818532313199
 22.1407805679766732  1.7608291477664302 11.3683896775442275
  9.6905329658772619  8.7384164357443037 11.5457317638130181
 12.6960048255936435  1.6304125453271343 16.8327619593044560
  1.5093835956957609  8.5330420091386525 17.1082941386016927
  5.7988468474053176  1.8567082157089942  4.8077726793367539
 17.9850632063142513  9.1114033929712708  5.2086797658818167
 22.5201770811005382  5.7197142932127996 11.1096086313767319
  9.6315849539357163 12.7400007462660074 11.5382648358357898
 14.2395121346012630  4.1361738180707102 18.4119062934203477
  1.4894583937378021 12.4768175023113379 18.4280974308030601
  5.5084813486930599  6.1676967599537109  4.7934624524051870
 18.4066170499511834 12.6752364808479108  5.8511448762986475
  6.6463859036109856 -0.2525409103199183 11.3692111266190743
 19.5698441824830311  7.1075065909304893 11.5651465542800302
 23.7142315226115699 -0.5968333049431833 16.8580868240381534
 10.6370069943810659  5.1777688996364466 19.1877874203455718
 15.4443064983006941 -0.0348779993738839  5.9757648837936825
  2.6596993700257316  7.5447076412978129  5.4175933890694639
  2.5985436697677424  3.8551833946482477  7.5546953493015385
 15.2399533800411824 10.8273916776252879  8.0600474971555602
 18.9662324928677677  3.8736086554361671 13.2715110932102434
  6.4216792623454886 10.5691925083379097 13.9467877196723364
 11.7355011735332013  3.1704947483780690  1.3186764858332747
 23.6136020578223516 11.1929807732713744  1.5601214805991745
 23.7866169967178962  3.9700564939914815  7.7760564052918779
 10.9921125945652527 10.5957339495969673  8.1668325127721992
 15.4249148666640590  3.5401890968571141 13.9812525386121056
  2.4232338265046258 10.6607753754902639 14.3954955435511938
  8.1666859647332881  4.5582411808833641  3.0181897676469278
 19.2527776260829810 11.1099818567282824  2.0015574316735165
  3.2233888270834177 12.4440777551765152 11.5106135771711600
 15.5081348429321793  5.6952017319367885 11.3667716494363074
 20.6993237213810133 12.0717588748747371 16.7247162725105234
  7.8676893514853843  5.3145032919563562 17.2680655932833602
 12.2533966757113060 12.3131885203963503  5.7091411274525079
 24.1473728199305384  5.6300743223171104  4.8330483944583422
  3.7307146632430563  1.9970932701499196 10.8519166247615679
 15.6144889511163445  8.8102685806785068 11.5672085898841353
 20.1131266122113850  0.3293854783741660 18.0696683615990743
  9.9315483793250596  8.2673029027114406 18.0115991884904147
 12.0318730381799828  1.5444003903291077  5.9693316506752705
 24.4275295009627840  9.2867787949652847  5.2662305346690559
  0.6053548418285809  3.0463004952503878 11.2444066402615572
 12.8413408556086690 10.6164307941876803 11.4810802599153821
 16.4663187947852734  2.1338717243689209 17.8144468862311420
  6.2293008323590247 10.2063412034192940 17.7835288087280858
  9.3019113654555845  3.5101487649773855  5.8029587315115458
 21.5227504207423657 11.2248178491774251  5.4285730079622825
  0.9344127059622465  0.3271114830317930 14.5683064546013110
 12.9040648968459042  7.0571893856950503 14.4802336776488669
 17.7439418575091814  0.2169083770043863  2.3351683984129274
  4.8799666683333465  7.6590760141773657  1.2484634738292482
  8.7951006232763085 -0.3168918153042330  7.8735732802693637
 21.6465686158892900  7.3524284299812308  7.5949298880825626
 26.0322231763022209  0.4769234395558206  2.2615113991527376
 12.8046280472301888  7.3368801984142440  1.9754077940257535
 17.4239838609860662  0.2082727802929985  8.7122770215519587
  4.8823510532316385  7.4611935540310457  8.1153110434478197
  8.6206441957453457 -0.0475844792742531 14.0175413382996545
 21.3200104893402838  6.9678445833886204 14.1930690713906067
 22.7149598024732740  8.8169284233439349 11.5659630229470967
  9.5587904641822963  1.5297542852728812 11.2678754098182541
 15.1593959770274491  7.9063982547035634 17.8816569789784872
  1.6574006048466552  1.7473611850160682 18.0192234270704787
  5.4472341035163767  9.4958287365928840  5.0898839828119424
 18.0978775992277683  1.5358964953591316  5.7055103986359796
 22.3767902022945044 12.8121139701500759 11.3063503283035907
  9.8147272632161631  5.3844410385166253 11.6092071692367611
 12.9246859128725866 10.3801395362157898 17.7284744315478449
  0.5602269873643119  5.4637415309242625 18.9140696283479315
  5.8696953308887698 13.1307326878839383  4.7952040380200254
 18.6513599659184166  5.9621855801293915  5.3948440072185964
  2.8390298411195358  0.0551052349511224  5.0653752044149369
 15.3771348139964399  7.1037517790448357  5.4206040807004374
 19.3200874012962132 -0.2721346096677671 11.3029441376315827
  6.8544047755656683  7.0228877933827700 11.3579710281470962
 11.7333801956993096 -1.3163421481982660 19.2262690341023550
 23.8417315517301773  4.3888683291053523 18.4577226254014199
  2.4047594268341079 10.7342456258369321  7.8526076277712757
 15.0420855367720492  3.7434442173987317  7.6862183914400450
 19.5615016178841792 10.6271619097389625 13.8570209078299396
  6.4055856897798824  3.5596656383436280 13.8776558237280287
 11.3230589475521590 10.7271854840925318  1.2769634917706043
 22.9600960950792263  3.7601136283205023  1.2288889796116944
 23.8445553624929083 10.8935863198832088  8.1153761602849581
 10.7797088519286177  3.4910555344891634  8.6296104691758035
 14.4101721620078873 10.6950568492002205 14.2393602821154630
  2.9359715615530479  3.7004338933638188 13.6336351650270178
  6.9349357083404941 11.6992305045373222  1.8063172902321152
 19.3751097864426249  3.9513105237752084  2.6126241403291348
 24.7023833258528036 12.6348250391963042  5.3071218725477616
 12.1012658220643790  4.8100277724624307  5.6323966379455390
 16.0684917971337065 12.2927691014283980 11.8042506124130782
  3.2758166045116233  5.2883347376544689 10.9984618537367798
  7.7767947941979712 11.6417325051240894 17.6302312022385941
 19.2526925886167213  4.2491542721754048 17.0304959153546456
 24.5508291417536277  2.1785909918593704  5.0587615129412153
 11.8740729525510140  8.8699203112020566  5.4685088702300533
 15.7624842777217342  2.1385475170512351 10.9665718761100219
  3.6176105215361978  9.1487645305546277 11.4903139574813018
  7.5377891803653370  1.8875074443452224 18.7038040154152974
 18.6763380036357667  8.8550747698737986 18.8094739054383346
  0.6248662486342630 10.5738694571530107 11.2847177966545615
 12.7830195199809982  3.7374358930522420 11.5500746629777602
 17.5098106870643306 10.7337816344428845 18.6264859739428950
  3.0954096478474473  4.3083640330471953 16.5845849924706457
  9.2052952100205534 10.9066806304057486  5.4335467248249678
 21.3790538157681489  3.6673104080254970  5.3545251363327342
 21.7982802129821174  0.0090690533133150  7.7340609528680391
  8.8975979505440996  7.2058784795969464  7.6407585295244127
 12.7451489036789400 -0.3156618936097014 13.4082357328800867
 25.2800382602261422  6.4622039522733683 14.1118220027961137
  4.3497661714455971  0.6584951149991048  1.1033831250615835
 17.6783969072891480  7.4189757119585806  1.4651122289601783
 12.1892514086977553  6.9033006916500437 29.8971817889532723
 24.5532644830616178 14.0261952508357499 28.4225516743924018
  3.7544538620943477  7.1813775362143302 23.1959373468899983
 16.1511292321766113 14.5879711279561342 22.8230206393627384
 20.6227048529920758  6.6643574128445566 35.8132875865154006
  7.3076700406646244  0.3178127084720955 35.7463653281797491
  4.7076564839409851  5.6971156202149427 26.0640241932457997
 17.4684895045776614 13.1735067601388884 25.6907501197417751
 22.1857172938243430  5.3228420660050322 19.1190575466125665
 10.9238444295277084 11.6640089319684517 20.2606130659328372
 12.8465184993641284  5.0729851242471247 32.9488656079366820
  0.3244137031621601 12.4036372370075743 31.2066659261450852
  4.8696307879549430  1.9607328721373432 25.9018087634293899
 17.1200718363137980  9.2100634093254961 26.6766150141520519
 20.5129583414424239  1.5437538519696015 19.6950023877845730
  9.3615150945619590  8.1079815298859153 20.1984916407342325
 12.8763771822487385  1.2185112921243701 32.0143713029583310
  0.0462378009170363  8.5947225902929514 31.6297793627290353
 14.1862034152847531  7.4826784253813008 26.2664983421357690
  2.0685660928606020 14.5235467364223148 25.6598192483937133
  6.7856501696581093  7.0425715204145849 18.4385544504915231
 20.3784729356560881 11.9314094103720834 20.0445945703971162
 22.2508538641390565  7.1189222995136632 31.1455345310947216
  9.8217864695986048 -0.5171719679949595 32.2318550167203313
  9.8454856012995684  3.1567647504860927 29.8446235302808311
 22.2284768305475922 10.4338534305998678 28.9522330027707788
  2.2581225108539509  3.3216426420659384 23.3819905648719981
 14.3225306597470450 11.0890073977908070 23.2951325410617329
 18.2692828062106720  3.7291854604907804 34.6794833933491802
  5.5077291426103576 11.2407641353809105 35.9990866697395475
  5.7511584753395093  3.7141298466038188 29.2773912205198314
 18.7974863338000624 11.0303326396360664 29.7313785355482239