Li P  S  Cl
 1.0000000000000000
    25.1819793006824639    0.0000000000000000    0.0000000000000015
    -0.0000000000000009   14.5388225279766061    0.0000000000000009
     0.0000000000000000    0.0000000000000000   37.2126966544236950
 Li  P   S   Cl 
 286  48 240  48
Selective dynamics
Cartesian
  1.1689430094848683  1.7961971916409503  6.6387197900609358   T   T   T
 13.9999778316872590 12.1221002958608430  5.3284812573604494   T   T   T
 20.5517918799254815  3.6070637989910099 11.7932891415283922   T   T   T
  5.8040022747995730 11.0209344325251770 16.2255310037770641   T   T   T
  7.8751563016653545  5.0245234284990667  3.0945931799543764   T   T   T
 21.0574964464919532 11.8948106417771378  0.5550807825290274   T   T   T
  3.3358928999465705  5.2810066112260250  9.2773435143511520   T   T   T
 13.9503919030530028  8.9147665888408500  6.3744289096455340   T   T   T
 17.9513573661669525  5.6201617132890869 12.0507829755365155   T   T   T
  8.2974450866294092 10.0495151125774171 15.1100845357634945   T   T   T
  3.4423791675373305  2.0462676664125614  8.9959497764407761   T   T   T
 21.0023195855146341 12.0437208908292614  8.3949812132491690   T   T   T
  6.1498966615085990  1.3771328830994607 13.8572078960028797   T   T   T
 14.4227583497644574 13.3995756829142429  8.1445604034673629   T   T   T
 21.3481819451228745  4.9707039312433707 18.4166958536603929   T   T   T
  8.1039494439745106 13.0036834400820744 14.0104818155450843   T   T   T
 12.5911844122003682  4.1026649450581161  3.0170624989678458   T   T   T
 25.1796215164678188 11.4799406838236404  2.9688544884741224   T   T   T
  0.2058893373802263  2.9513587628824727  8.9225844029017249   T   T   T
 16.4363147790121005 11.5986811522104531  6.0896258245181958   T   T   T
 20.5707906941903858  5.2266149006023817 15.0339710285750883   T   T   T
  8.4299793112807730 10.9967258953043032 12.3038390745845323   T   T   T
  7.4066352190754321  2.0967016104908782  9.2982843263324337   T   T   T
 30.7656585888067156 11.2189582232104659 -2.9594950638692383   T   T   T
  0.6020638863757205  5.7860514132422489  7.3610321529101332   T   T   T
 16.5337469644478716 10.6961700216000182  8.9450261743646013   T   T   T
 20.6338442504417756  2.4223067412768882 14.8018934015583081   T   T   T
  4.8819883798027641  9.2935189606098767 12.9432966432149357   T   T   T
  9.4093085645688639  2.5133122031204587  3.2795464505131049   T   T   T
 23.5046522566179874  8.5864322864285025  2.8919312264964767   T   T   T
  4.2272208849292650  3.7420582823269490  6.6970168537790506   T   T   T
 12.7445408733461498 10.8610190008747711  8.6151804976725526   T   T   T
 16.9861050264219315  4.0959378874019752 14.6581536210573766   T   T   T
  4.5988669784819871 12.7238196481337020 13.3253912919155013   T   T   T
 11.4249748359086301  7.0167864446224204 -1.1815548100443698   T   T   T
 20.3738872363057055 15.5638885442328476 -1.6888447406046356   T   T   T
 23.3635899584953108 15.5375236403501926 15.6668275803169958   T   T   T
 12.7048650168565782  5.3641004647259116 15.0070630573764365   T   T   T
 11.3554464964005835  8.3940412485458999  1.9351139983030270   T   T   T
  4.0008602047290935  5.4728397705960976 -2.6379971922101078   T   T   T
  7.4918744277196199 15.2407395403469739  5.5640537838990314   T   T   T
 19.5322923234163994  7.3509651383049519  8.8700951216700989   T   T   T
 23.7830546556000257  1.9618791132795703 12.8483441168469064   T   T   T
 10.7280959811017702  7.5223799151174351 15.3223760617538662   T   T   T
 15.7215053311977435  1.8314118389034848  3.5068223063696049   T   T   T
  1.8946471687597020  6.0463158842987150  0.6803511713479059   T   T   T
 10.2417872437728903  0.4899345433090965  9.3224520121723025   T   T   T
 21.4807218348170252  5.5263360436843012  8.7736198233705363   T   T   T
  0.4902773029454581 -2.6675010906979724 14.1408827790764242   T   T   T
 14.8780175445534706 13.8361072495493218 19.0740419474907590   T   T   T
 19.0060392165667196 -0.1250466046878438  8.7457749638562952   T   T   T
  4.2045872633496533  9.5345452784935976  3.3173092059139750   T   T   T
  8.3366003704392373 -2.2808005774127906  7.1034662919668996   T   T   T
 23.3683676721503630  7.1584540018934852  6.5624404890085737   T   T   T
 -2.1821498409958915 -1.3069067285492795 13.2987303078044192   T   T   T
 14.5248632007259690  7.6766634977737409 12.5505976767448715   T   T   T
 18.1657408082354195 -0.5606107477624265  2.9526999619044951   T   T   T
  6.0198426395464288  7.4709772663643879  2.1745085753385709   T   T   T
 10.1467619860862364  0.0859718804264994  5.9247861447282943   T   T   T
 20.0465773279751716  9.1261540527123621  6.2527927403509471   T   T   T
 -3.3183095774448068 12.2264707155037495 17.0620432269725164   T   T   T
 13.2904494901844714  9.2945431203163977 15.2158876641389185   T   T   T
 15.1974297682400685 13.3091517274087892  3.0535971615287161   T   T   T
  3.9869827366865649  5.6768517148497253  3.1389959789154100   T   T   T
  6.7099347370954936 14.0303065520611447  8.7545022601381355   T   T   T
 19.5039963772152589  5.5335328184134607  6.4089196001432382   T   T   T
 27.6987900137561027 -0.2823121411189842 12.3638935449268121   T   T   T
 11.0836126074878347  9.2463545216970804 12.6283322482032023   T   T   T
 16.1059068612323202  1.0574944938836193 -0.7083394717092443   T   T   T
  3.0814975669132680  8.4446690180512540 -0.3238929777831487   T   T   T
 11.4754263082478865  2.2873364519711092 12.6395187198241672   T   T   T
 22.7577790752080560  8.4852235106677227  8.9676695253353387   T   T   T
  4.7497325825709584 10.9762631657265572  6.3781717601316750   T   T   T
 12.9700556681522112  2.2188995379744445  6.8934026475442050   T   T   T
 18.8922503689698402 11.7077740294534571 11.4064774615864870   T   T   T
  1.4037928523399268  0.9867667669948949 14.5126755801611473   T   T   T
 11.3143292858812199 12.0903437682410821  0.1260493102516330   T   T   T
 22.8788006737337639  2.6337182032038857 -0.7238034683448228   T   T   T
  1.7405281360165916  9.1421135030065077  9.2790122508781518   T   T   T
 13.7204527026951997  0.0935155313653267 11.7097635478903719   T   T   T
 18.9314876905728866 12.8102974866185502 15.1675502902906683   T   T   T
  4.0138723888164449  4.1702961585873943 13.6774418561778432   T   T   T
  7.2488276237214428 12.9451251413502906  3.6407189984494854   T   T   T
 17.3760608803098577  7.3369490567059348 -0.4901282429485315   T   T   T
  1.2293174117594221 12.5919664761236891  5.9931898683220028   T   T   T
 13.3609609521420865  2.9007456905918128  9.3857167247661497   T   T   T
 19.4720613200803854  9.0861198045880585 13.4214654122538715   T   T   T
  7.0485347999084027  4.9507829947891615 11.7852934546350685   T   T   T
  8.8822376951145170  9.8786354206585010  3.0156939957635052   T   T   T
 21.9698115756597545  5.1227198520969033  3.3770482957125312   T   T   T
  0.4569449889409133 12.3711023627082621  8.8975397755984442   T   T   T
 15.3990914508273757  4.3372252834705236  5.2808535194126955   T   T   T
 16.6934071086630027  9.6579190338411269 13.0183035914583130   T   T   T
  6.1568127765710852  6.1303084380275257 14.3844056083325924   T   T   T
 12.1554984399960500 15.3452097404526722 -0.9931130319349696   T   T   T
 24.9324348959650948  4.1395274866558536  2.8662183590043684   T   T   T
  3.9969180604154797 12.1391352010226274  8.6646119588918342   T   T   T
 14.3835246268506420  5.7627195111762752  9.4829365428740378   T   T   T
 17.6554568931449154 10.0285606379311556 15.8358114090635116   T   T   T
  6.8023210023077105  3.4993469913536592 16.5033552384917925   T   T   T
  6.9473151029186102  8.9961982572325478  6.9223787653549946   T   T   T
 22.3154840660249931  2.1484511249974791  2.9636591520767488   T   T   T
  1.5828255140044143  9.8507302835778816  5.4746496123068420   T   T   T
 12.4279795671932849  5.7054958394322810  6.9676772531216589   T   T   T
 17.8771787959644399 16.1491425083768547 12.7438443805845587   T   T   T
  8.7377266577389019  3.7982110403975500 13.7628711541010968   T   T   T
 10.1123867009492194 19.0642341026793503 -2.7122111734349073   T   T   T
 23.1173087724209267  6.0697894881706578  0.6523902479052632   T   T   T
 23.0383838024783500 14.5787889831958637  6.3784268955936030   T   T   T
  7.5992976394357346  6.4870733234948545  5.6849447576148009   T   T   T
 11.2413324727523545 13.0250564939592266 12.9605859434582396   T   T   T
 23.3281796903896677  8.6497439032592869 14.4271358969586565   T   T   T
  2.0525874398155488 14.6130372025202959  0.7375165880162479   T   T   T
 16.6932344843593796  5.8395732303973897  2.1431194662194457   T   T   T
  6.7009319528005165  7.2140721985370098  9.2327682132002966   T   T   T
 13.3680670305784446 -1.3484308932992781 14.7414693913709627   T   T   T
 24.5443691642380344  6.2480062909324792 11.1826878233878162   T   T   T
  4.6025199987502479 -0.9477471688445115  2.9108627224757302   T   T   T
 15.7873353301906327  8.6304759573577368  3.0476406259298634   T   T   T
 22.8443158348782021  0.2183201519551938  9.5209097144451569   T   T   T
 10.1395947050908664  8.1286893879798932  8.8920478818832329   T   T   T
 14.5049801069866842  1.5470755484745671 14.8794188198289881   T   T   T
  2.1380854351435836  7.2683590820821147 12.9737813298143081   T   T   T
  3.0239060774063891  1.9883237886486269  3.5622522079481329   T   T   T
 21.4462706808247319 12.6613772218731349  3.5393328850734571   T   T   T
 21.0681314277309610  2.4622782484723484  8.6576623759654296   T   T   T
 10.4124953424690894  7.6118351417878252  6.0494153152767227   T   T   T
 16.6578468672490203 -1.8916508988802399 13.2362096093710786   T   T   T
  3.8913462721972927  7.5731396613633306 16.5953617600123877   T   T   T
  6.0988539078826509  2.0857622106581148  2.1367088243565475   T   T   T
 19.0688853570087460  7.7211327292383816  3.2198678317678704   T   T   T
 19.8846012794768683 15.5579613165820909  5.8184861483611474   T   T   T
 11.5591762757949130  5.9305172665561638 12.3345260781412129   T   T   T
  9.5853693242239473 10.2474865014074297 18.5574675387253265   T   T   T
 -0.7184983510355605  9.0248183049537740 11.4919519871609985   T   T   T
  1.6780511328434757  8.0661367291315695  3.1007564170954129   T   T   T
 17.8397079156458318  2.4966931105737626  0.5700112378304760   T   T   T
 16.5058594434629597  2.9826204386737558  8.0372671933995026   T   T   T
  8.6921875963297417  5.4618922799423473  8.9074585543677145   T   T   T
 11.0970030756394991  1.4721430094701664 15.5309402895415687   T   T   T
 24.6699152126342867  5.7546629634409330 14.3788850038079108   T   T   T
  1.2595699176791966  5.0061590428979557 -3.3232003062683511   T   T   T
 16.0784714421847141  9.9720445560892372  0.3240714807696069   T   T   T
  5.1832366871807540  1.8500707110074655 30.2894069219158943   T   T   T
 20.6200896390961645  5.8942388354013069 28.3191958473804242   T   T   T
 21.9328986100428409  1.6289974726299215 24.0528050778477080   T   T   T
 12.2417493486040989  8.1710889411994341 22.1767679414231722   T   T   T
 14.2739975616445953  4.1062830926501706 37.6054710709571651   T   T   T
  0.2939068767268178  8.4997846011686100 28.5042351607743214   T   T   T
  8.4914891392554050 15.4813522655087166 29.4448540308187212   T   T   T
 16.7029033414142134  6.0857685879912600 28.4872445670967522   T   T   T
 18.3564365273496151 16.5785530582999030 22.4312826136330266   T   T   T
 11.6453303969133071  9.2010003404661198 27.9240734441705172   T   T   T
 11.5125530026842640 12.3243876692479972 31.3391809604498697   T   T   T
  1.8914326586092594  9.1139878407674235 34.3526169049876628   T   T   T
  6.7512360178215660 12.1489816319753459 28.3123163945891996   T   T   T
 18.9523246442680247  8.3325550024710253 28.2437542186932511   T   T   T
 22.5736626354510008 14.4570338428761005 21.5465199396634404   T   T   T
 12.4796144413093923  5.5637809952402266 23.2437797387475662   T   T   T
 14.3462660977006919 12.4782707007326152 36.7738859584886271   T   T   T
  9.3744366793720886  1.3417555023633096 34.3060690260419392   T   T   T
  4.1371276090183056 -1.6370828846981116 29.8762627227539141   T   T   T
 18.9014503682249284  4.4200418764439871 29.6162196852419548   T   T   T
 25.6534171290524426 13.0403163200229795 23.7657733003501797   T   T   T
  9.5900453424990744  8.7273271264573751 24.4920359790783699   T   T   T
 13.6661627574124331 14.9675949007033875 38.0783093478239039   T   T   T
  6.3256509165220391  2.5026977452389110 34.3203999054013167   T   T   T
  7.3016523070515085 -0.5459464199670355 31.7655000825566702   T   T   T
 17.7890026198873201  7.5754151346447145 31.6063078724244484   T   T   T
 25.0261034894584995  1.3341489338304604 23.4893115395446692   T   T   T
  9.3122885502347152  6.6519309985808572 21.2309490074867533   T   T   T
 16.0344499336121800 -1.0460954471297803 34.7000769424469340   T   T   T
  6.3423127540422888  3.6278286442390337 36.6993624391546831   T   T   T
  5.7545611857716485 15.2667817475379088 27.6708506108089054   T   T   T
 21.2885236300223397  6.6830156625678372 30.7725471717498849   T   T   T
 21.7977275725140984 12.2336267476888452 23.3001506612353353   T   T   T
 10.0084620798408341  5.7407487961850077 25.0666239787332117   T   T   T
 11.7715427529307757 11.4420282463978928 39.8395073835998090   T   T   T
 -0.4774589554171412  7.4198059660976377 35.2382786721118393   T   T   T
  3.4807608563476728  3.8071992755019988 25.6559382113954726   T   T   T
 15.7441653419974781 12.5845127262007388 24.9791811871234657   T   T   T
 19.6955918672974448  5.8845020275235109 35.9690905694673617   T   T   T
  5.6179358120259870 10.4192884453274850 36.7653967738799423   T   T   T
 11.4797183089351762  2.5896910746478548 31.7133340296764850   T   T   T
 24.1431768720953599 11.9941315480314650 31.4382382154650841   T   T   T
  3.7272117055249754  5.5327404474256818 23.1859434276910079   T   T   T
 15.8001090379935523  8.8373549634237900 24.6871339515393942   T   T   T
 17.4455268835524180 -1.4034931180850012 37.3127632680397383   T   T   T
  6.9197952997664025 12.7653019413180306 36.2135373103796709   T   T   T
 12.4458155266555295  1.5786370991011371 28.2994261059075036   T   T   T
 22.8609117423170218 13.5373515203602732 25.8943084149119507   T   T   T
  2.9846204018086762  1.2466694883436529 23.8451181178102658   T   T   T
 15.9732395399468530 10.6744650101941971 22.1878781663150235   T   T   T
 24.0736296832316796  1.8277888104107594 32.9582685690609196   T   T   T
  7.0081180374040439  6.3137808963291233 36.8357259061625797   T   T   T
 10.3036200605975097  4.1423586943074051 28.2042417633813862   T   T   T
 -1.8185879868346204  9.7978926545496670 28.6117316876133891   T   T   T
  6.6773549454881698  4.3958173315040909 23.8477647185969737   T   T   T
 18.7395670026520804  9.2797034348298890 23.4339825256138568   T   T   T
 20.8289054318475806  4.1299996434981683 37.7869592266161902   T   T   T
 11.3061610484961435  8.8815365330611922 30.7460270536376541   T   T   T
 14.7254167179340190  3.0647164336360166 30.2421313579053113   T   T   T
 -0.8437467739864029  8.9624679085452339 31.2447650668956314   T   T   T
  6.1784257465285481  1.7147136328080284 23.8518581537243897   T   T   T
 17.3420320198250906 12.9257658224044327 22.7235258088395646   T   T   T
 21.8686754947577668  5.1054554035323028 34.4470742561099854   T   T   T
  9.3059617020175054 11.9016925111884007 34.6681716696758855   T   T   T
 11.2115961790303356  5.5210804609421178 30.5795309283863403   T   T   T
  2.1109618682156386 10.2573226761970648 30.6928405626935827   T   T   T
  4.6825763680922092  3.3263595609156376 21.0375038800911298   T   T   T
 17.8537685983816345 11.3347636334282509 26.1812347284561007   T   T   T
 18.1398611447090872  2.9622069843102317 34.6476198157532806   T   T   T
  9.3043511025497487  8.9086600239929101 36.6920402417754232   T   T   T
 13.5071974387025353  4.7767420680567483 28.2312219324561013   T   T   T
 24.7571161423073747 12.4278082523776128 28.2491176763408376   T   T   T
  5.5737001506510842  5.8310609418590129 31.7829201873735343   T   T   T
 18.1970089455814517  1.1687456666135168 31.4832787950766786   T   T   T
 25.1084727425399450  7.2670229679437881 23.9053192577822706   T   T   T
 10.4980976213662007  2.0288854087063930 22.4510725572797263   T   T   T
  7.3887026098059643  8.5130368387747914 34.4569641237382172   T   T   T
  2.4922824329196454  1.8764038225028239 34.5945571244905068   T   T   T
  5.3243512617735629  8.5933633297011980 31.1531394583095107   T   T   T
 20.7309013219141178 13.0682311486383522 28.4916798905503086   T   T   T
 23.1583916854702068  9.0624340351872057 22.0785159742274679   T   T   T
 10.7376723952907280 12.0210605899486254 22.1690516064576251   T   T   T
  9.4708318101449862  4.6525863511478258 36.9061761185962496   T   T   T
  1.9140509488256885 12.0683649128697219 34.2386904479104928   T   T   T
 19.3898588116518766 15.6419490879871539 27.9716268936983816   T   T   T
 20.7802974149975483  6.9560298293947200 22.0157855891317205   T   T   T
  8.5967878820639694 14.2984407214484026 22.3217770648065859   T   T   T
 13.9612936407481953  1.5831533114391076 33.9507701877395078   T   T   T
  3.9982710041370493 14.0436588258796071 33.5882946785401515   T   T   T
  4.4026138860728894  7.4384928625331446 28.4712782617350264   T   T   T
 20.8673592913058528 14.3554674852417108 30.6699099117594329   T   T   T
 22.2109806378322219  5.3483062576084199 24.6863497325616521   T   T   T
  8.9888754602115011 15.9615153157994705 24.6229440859848232   T   T   T
 16.7747960009299248  5.8051885016487814 34.2981470280561780   T   T   T
  3.7652792163441897 12.5684381909349021 36.9042640205012447   T   T   T
  5.9436180324898729  5.1196304510754427 27.8850226567277630   T   T   T
 16.8939523412565222 -0.8507333552802904 28.3541381797549050   T   T   T
 23.4452634544963914  5.0215103469042646 22.2267788885676758   T   T   T
 15.7813424709093493  1.6206634356661294 25.1545322165182412   T   T   T
 14.9213479824517261  9.9573132634558714 34.0913899669695368   T   T   T
  4.0178326340449626  0.7306210366182329 36.4598679496907465   T   T   T
  8.0347187718422983  8.1279485577004902 28.7302040090490038   T   T   T
 18.2998535913895637 11.9225364135157488 30.1366422804318006   T   T   T
 21.7476410612048525  8.8340197217583114 24.6170164988779874   T   T   T
 11.6756466375948307 14.7889191617014024 25.7058413169540962   T   T   T
 13.9475668900084084  5.4305483814345239 33.7516985085767303   T   T   T
  0.0275326134151714 13.4545046121594449 36.1502618413779899   T   T   T
 24.0431212383773172  5.3424075598128153 30.5415127539786369   T   T   T
  9.2167927359599986 12.6718515115527968 24.8443897041917729   T   T   T
 15.8097653084948320  4.4654661484816272 25.8413401913158474   T   T   T
  2.0414719855503600 10.1605685341184113 22.7577960976845084   T   T   T
  8.3142229314508569  7.1872910354508113 30.9579930713152045   T   T   T
 17.7937529990269780 10.8094292125354574 39.9771102583745375   T   T   T
 27.4539193601393237  4.5698214695952544 28.5798971627169855   T   T   T
 13.1905834136679854 13.3265268123524621 23.3150443818835988   T   T   T
 15.0670361153951635  2.1535420724500001 22.8128844389227581   T   T   T
  2.7817107993995078  8.8752042024990523 24.9394434574258419   T   T   T
  8.0489164325647078 -3.3665944007513904 37.8181674824118588   T   T   T
 18.3513908851641645 10.9933674365493506 34.5597521066952922   T   T   T
  0.8136248621688957  1.5723694240267980 28.1096618806050458   T   T   T
 13.4439705771387548 12.5967015119036194 28.5326052114039150   T   T   T
 20.0284629177781852  1.7970976855632093 18.7137949566518103   T   T   T
  3.2017616190993232 11.5414339736628389 26.7679512311215255   T   T   T
 12.8532378320613656 -1.2229268883284319 34.2414911659153347   T   T   T
 21.0230136779065191  8.6806232788871416 34.4712515069494572   T   T   T
 -1.7294151197275118  1.4593011277702055 29.8033963041312333   T   T   T
 14.0036333169779219 11.1237144678125848 31.4538779525882113   T   T   T
 15.5873102576146625  5.1852106150747472 22.9445845406339046   T   T   T
  4.5571017023718978  8.7291897174095396 22.9904315506977284   T   T   T
  9.3631804429768852  1.4043280756520102 37.0654660719313824   T   T   T
 21.6705269548513684  8.8573709350945400 37.1231214921568409   T   T   T
  1.3942829300316770  2.9760675016937692 31.1952853658659954   T   T   T
 10.4553779923113535 12.0511451796639726 28.0531236243368873   T   T   T
 19.6131383432748194  9.5306136268391999 19.4288256108153696   T   T   T
  6.9540980792351679 10.5622072890793657 24.4143200821986461   T   T   T
  7.6804963668983195  5.2542270816927763 34.2127499895098097   T   T   T
 21.9768246663309341 12.1822160549815379 34.3731710721926973   T   T   T
 24.9574304781141265  4.3784502965742478 27.5360355502985215   T   T   T
 14.9097177259813716  9.5348057376673836 29.1507768458844119   T   T   T
 19.4778734133519649  4.2579965471162833 23.9501164875869996   T   T   T
  4.3913388696212294 12.6479463345889336 23.5970231283683560   T   T   T
  3.7811568059175937  3.5319860010436073 37.7137873852947436   T   T   T
 19.0625946125232559 10.4359273676680129 37.5680988867554149   T   T   T
 -1.6999680535157584 -0.6517601850757864  1.5841847502573674   T   T   T
 14.4282817866229163  6.9657212332542633  0.3316583391881039   T   T   T
 16.5026526042116899  0.4697164479101282  6.2531544118530338   T   T   T
  4.0138842574971205  7.3643525689056917  6.1869493567584133   T   T   T
  8.3869284924059500  0.5100692741497859 11.7016622861781094   T   T   T
 21.1853311200640491  7.5027089215419345 11.7980996793648032   T   T   T
 23.2203332820484931 10.8546281778740212  6.0774917631360879   T   T   T
 10.5374574536481500  4.0307618229322228  5.6297809107786367   T   T   T
 14.3607321722164869 11.2004079933577270 11.5924181073239740   T   T   T
  1.6409129273179768  3.7540539122348657 11.8534326129711385   T   T   T
  6.0509664873600189 12.2884128014670289  1.3928858831832076   T   T   T
 16.3849062549535063  3.9615702738656933 -1.0486818580874848   T   T   T
  4.4361521287022887  0.2429427999795260  5.8941262939517802   T   T   T
 17.0334044736410490  7.1903500952707970  5.4935834697971355   T   T   T
 20.7693377807009014  0.1050393468275425 11.7998479912487930   T   T   T
  8.2351165659683048  7.7531432504983551 12.0829783150755468   T   T   T
 12.0019117942834104  4.4545549124582324 -0.5067204518518567   T   T   T
 -0.4856582466477023  8.9051999085767779  0.3309289124529343   T   T   T
 23.0307162123023303  3.5632051309607626  6.0433223594435663   T   T   T
 10.5213302056306297 10.8947712140731543  5.5113611648099381   T   T   T
 14.6949436419863630  3.9666334344747396 12.1103255177559461   T   T   T
  2.3240834249131606 10.8749381095555151 11.8245093307345783   T   T   T
  5.9505421318559648  4.8274001976895438  1.4348621458203799   T   T   T
 22.1090016924741235 14.1780619567531936 -0.0238806248940701   T   T   T
  5.5160702217025248  4.7165316098823036 18.6374664721930152   T   T   T
 16.9540520387930158 11.3421446169077100 18.9491263712175950   T   T   T
 20.9210151299258200  3.1137701313998258 31.1918640955680715   T   T   T
  7.9804556173654237 10.6156689148376220 31.3885842856732857   T   T   T
 12.5442436156350201  3.4179722466446560 25.0757683561506362   T   T   T
 25.0695739738794714 10.6386835933056840 25.5368705558527651   T   T   T
  1.9766004649307902  6.8252859300407103 31.4297887974376771   T   T   T
 14.7251199962450254 14.5400311314633086 31.3223177946692921   T   T   T
 18.7450824322203999  6.9668888342796462 25.4582307659554878   T   T   T
  6.2549919176677484 13.8996072410368097 25.4878391965183830   T   T   T
 11.3983711337429199  7.8088957782227348 18.2056973712007846   T   T   T
 22.7481337224052638 14.6736986454506440 18.7500818645316620   T   T   T
  8.2164569174757212  3.3217799794596647 31.1253886775808972   T   T   T
 20.7589879146948419 10.4217050185656568 31.4072843283455114   T   T   T
 25.5919587684288459  3.4404771480242728 25.1079282470752005   T   T   T
 12.6820760802915675 10.7437703227269576 25.5906860811232555   T   T   T
 17.0364794761424392  3.0848558680322147 19.8728045157661946   T   T   T
  3.7176274634404063 10.3852758225272570 18.9392499635236362   T   T   T
  1.9907260065410421 -0.3139933575953734 31.1990013413886373   T   T   T
 14.5982469059735696  7.3137962758902626 31.1743356760607675   T   T   T
 19.1665655390477099 14.1631777503612959 25.1882143496481525   T   T   T
  6.5573713602803325  6.8648147240970276 25.3530744914210047   T   T   T
 11.0192695937747835 14.0234027262179755 19.7483232521046119   T   T   T
 23.5630364569175939  6.8531211333502613 18.3117283299363294   T   T   T
  4.5538354056276811  0.0544351784498595  7.9350187648012165   T   T   T
 17.2104682612052997  6.7986761076790705  7.3821668853508218   T   T   T
 21.0418196036273599  0.0172875158866264 13.9862214445890487   T   T   T
  8.3737152622655113  7.7277188916466963 14.0969455613371881   T   T   T
 11.8837453498545500  2.6075994544794820  0.6456503665349470   T   T   T
 -0.2190908149620925  7.0621469069583309  1.5784501650375919   T   T   T
 21.7823301457481406  1.7369045761562429 11.1380423902915044   T   T   T
  9.0903607567236051  9.2312583917146274 10.9639015159316031   T   T   T
 12.5890916148994734  0.5494368942464504 17.1717947653848775   T   T   T
  1.4225828618769676  6.8154776392994325 17.3040162596123608   T   T   T
  5.2939074434916673  1.9349813884930227  5.1966003873282736   T   T   T
 17.9355769616748759  9.0682710832197628  4.9839917802422331   T   T   T
 22.0625514688058288  5.5752533673205757 11.2182012343329340   T   T   T
  9.3193224934976104 13.3068856814435019 11.0194106384173249   T   T   T
 14.5294138277505702  4.7968651524484143 19.4922380284639409   T   T   T
  0.8366197050214411 12.0035270127721194 18.5119897244067459   T   T   T
  5.0110467024272198  5.6772947447254438  5.4327418301053916   T   T   T
 17.7509897027008279 13.7307707879542100  5.3905552495576243   T   T   T
  6.4213759288851202  0.6351231944702993 11.2808425265633758   T   T   T
 19.1171089650617034  7.5586604073232513 11.2562762492581214   T   T   T
 21.5849643965718982  0.4190553203985135 17.1211244941957084   T   T   T
 11.4422305487875171  9.4752127521530287 16.9802400939523181   T   T   T
 14.6141808245444267  0.1472557925941904  5.4130648334594902   T   T   T
  2.1208373824046243  7.2296712082304930  5.4036253590425485   T   T   T
  2.2681686552101761  3.7129266559017875  7.9010866145289631   T   T   T
 14.7644204508017634 11.0370793703086605  7.4887931130023500   T   T   T
 18.8514282452881474  3.5025124147067501 13.4422908886422849   T   T   T
  6.4722733902355758 11.1476485568476651 13.9644224055703727   T   T   T
 12.4216249380690993  6.0562440495893783  0.9601448984493607   T   T   T
 23.3596345620310046 10.2127204211613627  1.1509178130295230   T   T   T
 22.9566832744841705  3.6381725509445189  8.0285332516657348   T   T   T
 10.5654494358555748 10.6843854424313420  7.5086821277560629   T   T   T
 14.7094849510793875  3.9697755002627488 14.2175779123219428   T   T   T
  2.5643021479951251 11.1073834452330669 13.8610412353021051   T   T   T
  7.8512651605224582  3.5294121159698335  1.4159215576960580   T   T   T
 19.0818732687352437 12.1359862915603909  1.7050350409758634   T   T   T
  3.3958808967248499 12.4907683656889468 11.0413433095457396   T   T   T
 15.7611962110030781  5.7226781476576045 11.4635831701931927   T   T   T
 19.8543165721878978 11.0586868599778612 17.2545507767538808   T   T   T
  8.8604643931991820  2.4197770160072114 16.8820782637008868   T   T   T
 11.4747145622408926 12.5943740561704374  4.8959553213326332   T   T   T
 23.8959885863748056  5.3658231201376001  5.1660256579793584   T   T   T
  2.4992618131239484  2.0588974861892826 11.1782112480390960   T   T   T
 15.4334478538331155  9.5788502074535131 10.9668004510148265   T   T   T
 19.9964119781225307  3.7394582127448106 16.9280781066359225   T   T   T
  7.5512790986548630 10.0494806981273719 17.4341119012339973   T   T   T
 10.7284705128276627  4.1763986556351158  7.7144766825000319   T   T   T
 24.1840242382768267  9.2092092073400913  5.2023507876885251   T   T   T
 -0.3035926731009692  3.9331041345449087 10.9718395672177813   T   T   T
 12.3062208560984736 11.0763420077944357 11.0237714255115282   T   T   T
 16.0675749657558526  1.5538998330960023 20.5895827870778305   T   T   T
  3.8138334039724016  9.9478134696430303 17.0107232055961752   T   T   T
  8.5466239681561689  3.9806692604568004  5.1091893234361132   T   T   T
 21.3409888221438493 10.8981940776899844  5.0689376876627676   T   T   T
 -0.2951846014160421 -0.0744647534418723 13.8289346544197418   T   T   T
 12.5597792262201988  7.4667475527737670 13.8660453281672513   T   T   T
 16.5214199950805423  0.4679159379722062  1.4927638005978912   T   T   T
  3.6021872451829280  7.5226173950518058  1.9014057938295839   T   T   T
  8.5803219549426011  0.2238937840169821  7.6893241485682484   T   T   T
 21.1955374316100844  7.2557421218755520  7.3530089505652612   T   T   T
 25.4058670384877630 -1.2134911513076063  1.2967241641068932   T   T   T
 13.9736056468259111  8.7542276753327624  1.3256074799830857   T   T   T
 16.2705125310036109  0.3007626695416793  8.2669902625851179   T   T   T
  4.0993289547003720  7.4113720889928931  8.1719033118423816   T   T   T
  8.6749214340397902  0.7510842636638193 13.8012988088841588   T   T   T
 21.1715860955678465  7.6290890458835516 13.9449683029085723   T   T   T
 21.9916890301755004  9.1751747406993314 11.0770268387239739   T   T   T
  9.2191310001725366  2.1431105334263552 10.7762726635080810   T   T   T
 14.2097929353806300  6.2010764639898195 17.8825331926925273   T   T   T
  0.2498264842193062 -1.1619500767142001 17.1947433725211880   T   T   T
  5.1706920909854412  8.8746874165294170  5.3518503658672554   T   T   T
 17.0320394471400363  2.3989864818686764  5.6141171895663700   T   T   T