Li P  S  Cl
 1.0000000000000000
    20.5609999999999999    0.0000000000000000    0.0000000000000013
     0.0000000000000033   20.5609999999999999    0.0000000000000013
     0.0000000000000000    0.0000000000000000   20.5609999999999999
 Li  P   S   Cl 
 190  32 160  32
Selective dynamics
Cartesian
  0.0159069537655211  2.9149363174095497  3.0001875532141815   T   T   T
  2.6599560565199396 10.3369422929413375  7.7532322229106141   T   T   T
  9.9930314565329805  6.9247442566009294  1.6798038941498015   T   T   T
  8.8152133046694097  2.6845752653121271  5.4881166583848513   T   T   T
  0.8781478683498989  7.7041230688206408  6.3557291176164483   T   T   T
  4.2892831895931423  2.0324441696886559  4.2207666002327473   T   T   T
  8.2139114698156650  4.9068972365665831  7.0937646157484631   T   T   T
  8.5006114766906222  6.0203599199424671  4.1870286412555453   T   T   T
  7.1421311160325835  0.3312410667707876  6.8576268097226407   T   T   T
  8.0370674343940838  9.4293763866546172  3.6209983383594704   T   T   T
  1.9186519637987933  0.3718597550527252  3.1516410759350948   T   T   T
  3.2240399523582233  7.4305464921576263  9.8508925225935791   T   T   T
  6.2974543666914471  5.6129019167448018  1.7168363900282657   T   T   T
  7.5345761928331729  3.2493695415523725  9.8226269667298158   T   T   T
  4.5557410455406337  2.8325798815472236  0.7583469484307122   T   T   T
  3.5196946159874209  8.3788841920296591  5.1513764765707863   T   T   T
  5.4202672069505518  2.5601073996107675  7.7776783847652595   T   T   T
  5.6042261161525726  8.0171043072698822  3.2372682480658432   T   T   T
  2.7974285192705142  5.2325268994808436  7.4530529959516345   T   T   T
  2.2945480309787163  4.7607042450543888  3.9785267194257732   T   T   T
 -4.8254448791246940  2.7716226481539681  8.4968215844112702   T   T   T
  5.1514745180250170  7.6349715120435322  8.0037856574735748   T   T   T
  9.9769105356722108  1.7005178069806071  8.0766575062685728   T   T   T
  8.1930121270609284  9.0025260121089818  0.3442446694124002   T   T   T
  4.7492117408645713  2.2812763084644954 12.9806586909591868   T   T   T
  0.4013842189296694  7.0126684003568540 17.4683958565766417   T   T   T
  9.2488815524499977 10.0379161399741985 12.6725278788928986   T   T   T
  7.3938889886053873  0.7646248600290193 16.8366612749272164   T   T   T
  4.0930485207940546  9.8165230555065826 17.7060849765409145   T   T   T
  1.6616235993126360  3.5270719944737992 14.7858334667708995   T   T   T
  7.7131943449328393  4.3709362414565609 19.5311579097497088   T   T   T
  7.9417515136558023  8.1299261778898035 10.5831962645342070   T   T   T
  8.5112989789331053  1.4878690029726807 19.8253731332062344   T   T   T
 10.0340204228120093  6.6080881954608364 13.4040058403291660   T   T   T
  1.8301172907984977  2.2528707516082647 10.4313981815350907   T   T   T
  1.9756578299311933  2.0175823156159165 20.9946816551563558   T   T   T
  6.7185284774372018  6.1225266794227542 12.9296665247837517   T   T   T
  7.5058023090364774  4.2924475228106314 16.1602245335955033   T   T   T
  2.9711497650152179  5.1092297041101009 12.2104247984195862   T   T   T
  2.7853738576677820  7.8795415287445101 20.3072292520982174   T   T   T
  5.0447514450324800  3.1700013915493992 18.1171248802921383   T   T   T
  7.1797950526322269  8.1266348455753903 15.1393323713157244   T   T   T
  3.9130067166460636  5.9547182034125061 18.0430106954120433   T   T   T
  0.0751933265442945  2.2290257179107233 12.3866905663320317   T   T   T
  2.7359922553998102  0.5832884394832688 14.5777480809203421   T   T   T
  0.6743153386116820  9.7276168979096482 18.4974432313350547   T   T   T
  9.7988234349213510  3.1267621411045847 15.7739507363074534   T   T   T
  5.7092283276519575 10.2065386331661490 13.2912601741751732   T   T   T
  1.7583301122961852 12.3121082068758039  0.1563742319137251   T   T   T
  2.1458775452722829 15.6523414777074361  7.6577901138941886   T   T   T
  7.5647340970176273 15.7295063348081783  2.2068992913839569   T   T   T
  8.0934539530388765 10.9156509569133675  9.2086260740416002   T   T   T
  0.2110722813337110 18.1129930034106366  7.8273288399499563   T   T   T
  5.0829459672450401 11.8876122920459846  2.9468197061256789   T   T   T
 10.2019032622894077 12.8424511601873377  8.0049299299524215   T   T   T
  8.0557637317543502 18.4658443067566864  0.0034455765699054   T   T   T
  5.7756395155136140 11.4896701589007364  7.1005398736835836   T   T   T
  5.1396345581956808 17.9585910910561033  2.4667421964087697   T   T   T
  3.1415178253481186 15.1973353046602870  1.7238865403321137   T   T   T
  4.9273741419853270 18.2672109732336416  6.9264071276703154   T   T   T
  6.8838355382979568 20.0482207181085847  3.3494670588207436   T   T   T
  8.0623267392675650 15.1916141240794946  7.3824621363691305   T   T   T
  0.2591880863365150 12.9813297886524772  2.7761507615816412   T   T   T
  1.9760621350044587 17.9633780620179166  5.5793864538062738   T   T   T
  6.4319488016084279 13.4170862826370012  9.2557924077949743   T   T   T
  8.1150553722112875 17.6987146923810137  4.7633189333361781   T   T   T
  3.7919080678339272 20.4913013779221060  7.2081448490534354   T   T   T
  2.3509710509137585 10.8509985600707850  3.2331051143047373   T   T   T
  2.2930246624694681 14.2465433572094700  4.4295784750434244   T   T   T
  2.7604278753994036 17.5915557739372197 10.1472546106210348   T   T   T
  8.4513054969850074 13.0022588732721722  5.2407386305763985   T   T   T
  9.8506464228411943 18.0370031381063818  2.2679698350138335   T   T   T
  2.8792548484170184  7.7139379838887168 15.6909133742250599   T   T   T
  4.6089109785363354 18.3980549870489725 16.9604806511155957   T   T   T
  7.1067019586782116 15.9640294556286495 12.2980204476724779   T   T   T
  7.8231753000929043 12.7403373459487632 20.2814571879173045   T   T   T
  2.0369352480205185 20.5196532740900182 18.2128756770726810   T   T   T
  0.5364054504917644 11.8064754212339196 12.9033345189476396   T   T   T
  6.8668092275854207 12.6301543346482319 15.7754534587744271   T   T   T
  9.6343617150184020 17.9786218626204715 11.8783805778977136   T   T   T
  7.7070614225181897 10.6894561008746969 18.4189671759763627   T   T   T
  5.5619162809399718 18.4961050698942948 13.9560939501552088   T   T   T
  1.0891664006673387 14.9236215891679969 13.5935337842456470   T   T   T
  4.0637118562225263 17.6691821930072877 20.1854297981208504   T   T   T
  6.1604143438581191 17.5899182565118188 10.4845575000982461   T   T   T
  9.8224901962666387 13.2358566275063030 17.4540704906107678   T   T   T
  2.9428702232235602 11.8500833426377064 15.1243621504589090   T   T   T
  0.7371623435982606 18.4766643349910211 20.0186315902805276   T   T   T
  8.2108741566846923 16.6111459643773820 14.4473207887144852   T   T   T
  0.8992330572465417 17.3028948911873108 16.0457789633828654   T   T   T
  2.3414923804809336 12.9180642365216762 10.7197106699592961   T   T   T
  4.4813136261263393 14.3899015854710690 12.8423083944927168   T   T   T
  2.8794203308621205 15.7655715063689037 18.2925188810674584   T   T   T
  5.2005150036747114 13.6536026257095973 18.7796471647551328   T   T   T
  7.6429387688424253 20.5316953844737675 12.8065174714719721   T   T   T
 13.5029186264998948  3.7997783950361339  0.9666048026662926   T   T   T
 15.3231729051172749  8.5247461804174574  7.3607203006954771   T   T   T
 20.2044759208585063  7.0139374496977007  2.9829574795259464   T   T   T
 17.5302330856237489  4.8220201095186246  7.7835208434439398   T   T   T
 13.2977568971583189  7.5512427063368586 10.0780815382104940   T   T   T
 12.1109563869767367  2.9304999065073565  4.1770670791744280   T   T   T
 19.8822638231044024  3.2608893264140195  6.3816441387487535   T   T   T
 15.8138495108730464  7.5865317188601686  2.0417182278838300   T   T   T
 18.0414139637398705  0.4159646193665788  7.4858681619296696   T   T   T
 18.6042882192968833  8.1050378229930136  0.0744605803860691   T   T   T
 12.2999025214081961 -0.4418898179753952  1.9468727042248750   T   T   T
 14.3298055187918933  5.6045446682809912  7.7782738542202461   T   T   T
 16.9713532914016199  7.6874488450148837  4.5296702611985786   T   T   T
 18.5201426547701828  2.5584924767453368 10.1940990792686961   T   T   T
 10.2526001655335399  2.3109285699829396  1.9287993020076175   T   T   T
 12.0728672368801284  9.6727707944174384  8.1058876386091097   T   T   T
 17.9525984378315613  9.8995672363298528  2.2629546337110904   T   T   T
 13.1532441770006816  7.4491507972105424  5.4857640487592754   T   T   T
 12.3017487499158378  1.4230818593550802 -0.5654221526274119   T   T   T
 14.7065778735304029  1.6930268034298634  2.9939331219986260   T   T   T
 11.2473339249771165  5.9399575539708716  7.7046457758219864   T   T   T
 17.0607718267076365  2.0268502001389210  5.2011468641295595   T   T   T
 17.2705574916223341  5.1252018495896552  1.7617476108918453   T   T   T
 10.2936245685949874  2.2790497381823100 12.1241277782508359   T   T   T
 12.4868168313875305  8.2352246396458337 20.5273483377206247   T   T   T
 18.3192329862359387  7.0452153524834609 10.7214395379991938   T   T   T
 18.2553913312242742  2.3284299994971365 20.5987825490461702   T   T   T
 15.1577236842011676  6.9696458385559135 19.1700234419151840   T   T   T
 15.0302710450512311  3.2964080909862563 12.5360081705160571   T   T   T
 15.7770283630599906  2.8497888005602054 18.5446892906718617   T   T   T
 18.5176089168520193 10.1792829072547377 12.4911820059742116   T   T   T
 18.2462296155988284  0.0711802873154859 18.2738226604765188   T   T   T
 15.9663727418288186  7.4769943521784716 12.8513988560720200   T   T   T
 12.2614096648916746  4.3344378293803070 14.5085276784061410   T   T   T
 12.9244143023660403 10.3991555190826990 18.0890643010995333   T   T   T
 20.5754653833550449  8.0099873396706442 13.1509282902028684   T   T   T
 20.2849278734933591  2.8030179969759734 17.8310056875549776   T   T   T
 12.3742992196315349  0.1032741222364092 12.5110827685085617   T   T   T
 15.0732794108337309  8.7441160939548350 16.8990299534519082   T   T   T
 18.1273970009381600  4.6767308915237100 17.1057230899705814   T   T   T
 18.2718459921240282  7.8162904434973788 15.3061811232726015   T   T   T
 10.7770391782637827  7.9398913929278976 17.9033567724145612   T   T   T
 12.4278590299708593  3.3027030705207863 10.9167712417037990   T   T   T
 13.5191637705189560  1.5791894327544216 15.3155171051555072   T   T   T
 13.1122643395198839  5.4766151305713580 17.7179192421710994   T   T   T
 17.3693489869040505  2.0655050955786569 15.7232957857714570   T   T   T
 18.7492555777197367  5.6557228674273397 13.5020061219068133   T   T   T
 14.7511269947841441 14.0906999363185363  3.0913579883554090   T   T   T
 10.6040882175949402 18.3308624297324805  7.9156687325397597   T   T   T
 20.1351513716377610 17.2087169662564712  2.7626988478543910   T   T   T
 19.9020013387166301 13.6437272283412945  6.9625075813552559   T   T   T
 13.4913334271398000 15.3887390267507840  8.6034227316994478   T   T   T
 11.5441713370980636 10.7714684611191043  2.0429589464431390   T   T   T
 16.0305038142530805 11.3186669832499476  7.2890006849587214   T   T   T
 17.8555272097381845 17.6564110315612979  5.0453198431725079   T   T   T
 18.8324687936147299 10.1389413373854751  8.5820498247788972   T   T   T
 17.9489845599270694 17.9168309216452215  0.2428646983404676   T   T   T
 14.0900528665732256 10.6080377194663331  3.1680041371924448   T   T   T
 14.1455607493185465 19.8375945262607836  7.2308282485374233   T   T   T
 15.4560776003065534 18.5392315592033832  3.1738240733591425   T   T   T
 17.2875608580882769 15.1464732610603789  8.3299966150635107   T   T   T
 12.9160646590033092 13.3820026730825301  0.5887447279800562   T   T   T
 15.3094668436148797 17.4731739269304285  8.5373807031057858   T   T   T
 17.8155810221814193 12.0217539842714380  5.5360748964720168   T   T   T
 16.8887470830367974 15.8133344801966569  2.5728452654224188   T   T   T
 12.8382176466568634 18.4931531134210196  9.8315639549694325   T   T   T
 11.2098673655375283 14.2800362505830911  2.7390061591584440   T   T   T
 12.8361004066637516 12.7153907699116839  4.9700607212334882   T   T   T
 12.4524342846157090 16.9298765513647496  5.5429208023976795   T   T   T
 18.5422617639353646 12.6769299398379083 10.1308949150514778   T   T   T
 17.6298354436200029 19.9398298821557809  3.0177420916877784   T   T   T
 13.4189166482191524 13.0149651753549431 15.0486402285677734   T   T   T
  7.0785640024274397 15.4083547288290124 18.2691309200219365   T   T   T
 18.0858925991878294 18.2518754628129471 15.0617603236362108   T   T   T
 18.4064178863238936 11.5113839729166685 19.5779643791199902   T   T   T
 12.1315398748712937 15.4170825724903953 17.4539956449261382   T   T   T
 13.2102415767171060 10.6621626142358217 12.9908336198276189   T   T   T
 17.3107614702769936 14.7483323450543722 19.8368295463060491   T   T   T
 15.7631286956281276 18.5269304029669470 13.6952461385498836   T   T   T
 15.7409967357912617 12.0747131243519590 17.7001802090075628   T   T   T
 20.2877952263934773 18.9001523934990310 12.2031139951965439   T   T   T
 10.4734980345756217 13.4361272818577859 13.9735766935106138   T   T   T
 13.6009715388582624 17.7114264706983597 19.9071701005995791   T   T   T
 17.1664195250669778 20.4850513592798933 12.9420552111474887   T   T   T
 18.4475418242385487 15.0561566148116732 16.0744743171291162   T   T   T
 11.1670932644295267 12.3559868355841065 10.9726967689214980   T   T   T
 14.7431628244283068 18.0256240001995280 17.1257943395286034   T   T   T
 17.7174189226509426 11.2166255259345071 16.4551632824833689   T   T   T
 16.6690996049479097 17.7638676706900398 11.0716045130066068   T   T   T
 10.7498437705325323 19.5770709556176712 18.3695880473647364   T   T   T
 13.0741220728018881 14.8088314240645627 11.5313059438578236   T   T   T
 15.5114880675291147 12.9821115367380742 12.8381313288036374   T   T   T
 11.9321857248555254 17.2997824620964487 15.5386184156460345   T   T   T
 20.3709905529599595 12.9812952727250241 17.5629128815174411   T   T   T
 18.2225164175954930 15.8949652729005777 13.1085668292932365   T   T   T
 -0.1662855406386058 -0.2407850808229886  5.3292680262828993   T   T   T
  5.0938758720770165 -0.0250373790176427  0.0934659951525272   T   T   T
  0.1543677163677438  5.1931425869813239 -0.1103080572762883   T   T   T
  5.2049383432245468  5.2235956201679787  5.2824165749149863   T   T   T
 -0.0564832456087843  0.1255807973252837 15.2969074239404499   T   T   T
  5.1502176521317500  0.0777011348945805 10.1011278407964653   T   T   T
  0.0051682422701267  5.5065832649613524  9.9730121439466952   T   T   T
  4.9739503287807656  5.4348680816609303 15.3164309714399938   T   T   T
  0.0867070550989729 10.4232523416784222  5.3041984903427739   T   T   T
  5.2192900175719972 10.3030686134700904  0.0878842070640834   T   T   T
 -0.0432194434666692 15.6487420164534505  0.0646159934223321   T   T   T
  5.0150360370737124 15.1571231683652883  5.0190695422090688   T   T   T
  0.0524196287537975 10.6324633115105112 15.6543649403888381   T   T   T
  5.3308645007945117 10.6109634318960993 10.0209192391792428   T   T   T
 -0.2397799497572978 15.3931378323669747 10.5760679407334717   T   T   T
  5.3053677624672044 15.6285449864401986 15.4374824206810661   T   T   T
 10.2882239087963878 -0.0746405712837759  4.8576721009797756   T   T   T
 15.3780503579924464 -0.1242158579070274 -0.0202473893032932   T   T   T
 10.7640095447880579  4.9021757854856034 -0.3240412883250171   T   T   T
 15.1183692080808836  4.8802498630270197  4.7581219222314148   T   T   T
 10.0848416023019478 -0.0632432038182723 15.4276175942251967   T   T   T
 15.4321123544098402 -0.0876178522945618 10.2678760964519427   T   T   T
 10.0869637555572513  5.2584773851389084 10.1095907379043997   T   T   T
 15.3977576066340891  5.1278333294235283 15.4982234151923173   T   T   T
 10.5972063198311606 10.0773612736226088  5.0192153575223220   T   T   T
 15.5437760714839293 10.3069784118517092 -0.0422247514595886   T   T   T
 10.0015662032727217 15.3666462509407165 -0.0351673807925783   T   T   T
 15.4380270023323245 15.2541070653214721  5.5849352759162674   T   T   T
 10.3575353630762290 10.4978879638479583 15.4597584726013419   T   T   T
 15.5927214179630518 10.2197982101087756 10.4237552373963940   T   T   T
 10.3545847548720626 15.4995388217616075 10.5972120649408090   T   T   T
 15.4257953410241484 15.5330732918071508 15.6511014814526224   T   T   T
  1.2037556372256892  0.8193963587228144  6.3751485458343478   T   T   T
  0.9805332760480250  8.9749458349845312  4.0259917774989953   T   T   T
  9.5016155591099185  8.5845121609372601  5.6356823047076423   T   T   T
  9.1359843503150309  0.9623138784248768  3.5027992937809524   T   T   T
  6.6254793475770448  0.9847724249559533  1.1362327177632361   T   T   T
  3.8356406169568160  1.4370923914104605  8.9473371594328857   T   T   T
  6.4325434561289105  9.2296193390876962  9.0700058802327401   T   T   T
  4.1895399331076586  9.1955117439820651  1.5470090443114446   T   T   T
  1.2822377943389196  6.3055430077602077  1.1220284742594280   T   T   T
  9.1861597968297826  3.7876239186734915  0.6372963272491873   T   T   T
  9.3905241461785618  6.7801566570064322  8.9789779103543523   T   T   T
  0.9882117818727976  4.0809365420428989  8.8542613734453806   T   T   T
  6.4212220208158994  6.5523176086396591  6.3291338694009642   T   T   T
  6.3535835272468102  3.9471017102193473  4.0215730875314488   T   T   T
  3.8870772094409864  3.8677639695410875  6.0893563838902258   T   T   T
  4.0977554253549267  6.3257842094351071  3.9308522699333586   T   T   T
  2.6251409346531802  2.5262414443935803  2.5555576980230978   T   T   T
  2.9645322218646175  7.8209347455698870  7.4614226464236957   T   T   T
  7.7618909837446974  7.3888927704506573  2.4757839964728690   T   T   T
  7.8370350728248939  2.5081638147529124  7.5120989071263162   T   T   T
  1.2860502101573716  1.5093276555185566 16.2611314372207403   T   T   T
  1.1445954560444529  9.5126970337434447 14.3153595775880422   T   T   T
  9.3347287848691476  9.3845834484504262 16.9211029013953151   T   T   T
  8.8089795677666682  1.3346415040651196 14.4879397170700965   T   T   T
  6.0862476376129173  1.4217765721245448 11.2563240521165735   T   T   T
  4.1137284878448428  1.4092202208895392 19.3146340386581912   T   T   T
  6.2050632814426301  8.8982364255638018 19.1591734406027072   T   T   T
  4.1712164345004341  9.8404718328200129 11.4422513027876001   T   T   T
  1.2112044721105899  6.7734123226848952 11.2689807098850050   T   T   T
  8.6875999068880336  4.4942496237838219 11.4278342756507740   T   T   T
  9.6294395273757711  6.0450322472916316 19.1481723132518553   T   T   T
  1.4423070914910516  3.9912663694622701 19.3395312778509592   T   T   T
  6.0952573313884297  6.3887375772037398 16.7126607833717316   T   T   T
  6.3313291095404578  4.2197401601727940 14.0475155376222229   T   T   T
  3.6541891103529247  4.4184535363289319 16.3039957942938187   T   T   T
  4.3366594380096002  6.7874585655011552 13.8558981165423862   T   T   T
  2.4654103886916507  2.9713833259888531 12.7371615370406026   T   T   T
  2.4628603045455932  7.8894867197737710 18.0159555536675882   T   T   T
  7.9063194534590773  8.0966324271318921 12.7562716475188669   T   T   T
  7.6779646745177992  2.6599375125505391 17.7501106643902986   T   T   T
  1.3045321898796951 11.7244196510731786  6.1545533402254158   T   T   T
  0.5495505651805884 19.0153939175944977  3.9227515018312680   T   T   T
  8.8994238497726137 19.4767661049112917  6.2825908136366957   T   T   T
  9.4635693324406311 11.2048054325460100  3.8485368079966191   T   T   T
  6.6558291451729312 11.2585825832518100  1.0747419404253058   T   T   T
  4.2744165071545934 11.8934747379727117  8.7066462864667731   T   T   T
  6.3467824019417121 19.6351455711355349  8.7011058849135026   T   T   T
  3.8611856691096946 19.5094004734955533  1.3409162699436104   T   T   T
  1.3589513277780134 16.9045859353767014  1.1244795437187511   T   T   T
  8.8937891362616863 14.0098193204350938  1.1306436283247390   T   T   T
  9.2081160447881061 16.8088966491628646  9.4884557925186890   T   T   T
  0.8614606844430894 14.3883102483777279  9.2525728818895239   T   T   T
  6.4373964595358384 16.3116807670043436  6.0792887815579464   T   T   T
  6.3398396050651575 14.1588461584049465  3.8195614082941276   T   T   T
  3.8659016763797429 13.9616282440673629  6.1617799637356665   T   T   T
  3.6565450129639903 16.3541563175645344  4.0977679450787701   T   T   T
  2.4463819485776717 12.8889736309830152  2.5321396659377546   T   T   T
  2.6285291301844058 18.0817085082759306  7.9690282187912356   T   T   T
  7.5810194955589036 18.0957927491639978  2.4298650364201624   T   T   T
  7.7927004661825592 12.6141768556077292  7.5282624697971467   T   T   T
  1.5498345028961551 11.5219040682081282 16.7061028791016710   T   T   T
  0.9582610454555343 19.5979223726786778 13.9952282084294009   T   T   T
  8.9676786318492070 19.5693096010453118 16.8253577045104450   T   T   T
  8.9224591442071333 11.7709549028166904 14.6291589678666814   T   T   T
  6.8171000600414615 11.7332662433207826 11.0666515567285906   T   T   T
  3.9960346313614381 11.4749437689305118 19.5105514044667601   T   T   T
  6.0178231286011101 19.1302836620594796 19.3295132975122712   T   T   T
  4.2924495828169764 19.2359021700865043 11.3262617291209065   T   T   T
  1.0733891412513394 16.5460237832993968 11.5307325429363594   T   T   T
  9.2077368934365289 14.2602662223712002 11.8483811298073896   T   T   T
  8.9810568856344126 16.7270011662672360 19.3187305913797829   T   T   T
  1.2122187186953879 14.3985817067889421 19.3587133723187321   T   T   T
  6.5909070003488317 16.8973595224584621 16.3744841760010189   T   T   T
  6.4581150057075334 14.5091597996622159 14.1879722480993564   T   T   T
  4.2265744311769700 14.4008157841961975 16.7640775705209748   T   T   T
  3.8534825234881049 16.6516921932920852 14.5028020991122411   T   T   T
  2.4690986745584587 13.2020720549184638 13.2539493373797388   T   T   T
  2.4673798691272619 18.0433990919173262 17.9672458808878446   T   T   T
  7.5324847973041429 18.0174664760681722 12.7322064569942732   T   T   T
  7.4595897133336306 12.8751948434484245 17.9542540068299417   T   T   T
 11.3533192335073174  1.1035822809950122  6.0647976346972730   T   T   T
 12.0608892743211182  9.2099820781694532  3.7462802325750495   T   T   T
 19.6103429458104301  9.0371425240904113  6.8070996553247642   T   T   T
 19.2386902179252104  1.1593441877171735  4.2499292382845990   T   T   T
 16.4290182644253164  1.2939241133612462  1.2638205492847048   T   T   T
 14.1105532320856124  0.7323620836602140  8.9641415597444833   T   T   T
 16.8782428335164596  8.9888129237525831  9.3278912075067524   T   T   T
 14.4587851543223849  9.2042971512885696  1.2930210228831631   T   T   T
 11.9503612056429809  5.9133685316517504  1.1182759131074846   T   T   T
 19.3327896524737852  4.1366793930914740  1.0514582649238038   T   T   T
 19.5169441387300466  6.4726701177858335  8.7161666131198619   T   T   T
 11.0418825654516262  3.9286384501130467  8.8224556188103662   T   T   T
 16.3827672943292697  5.9118971426327427  6.0414289772205043   T   T   T
 16.1863118717531407  3.5299804769453464  3.4816065949144903   T   T   T
 13.8116763560029874  3.9400708908866062  5.9209317545487634   T   T   T
 14.2166569193953176  6.3140486863562337  3.6124483580749431   T   T   T
 12.4611299738401566  1.8354062164329892  2.0249750535897921   T   T   T
 13.2636717173977488  7.5724798640256816  7.6333255427061459   T   T   T
 18.1435260582804574  7.7260438405839551  2.4685746215533126   T   T   T
 17.8469511478305449  2.7002174062078663  7.5414900844265338   T   T   T
 11.2184880054067779  1.3266253836482960 16.4460047637196709   T   T   T
 11.2042384055129425  9.3123815781682566 14.0377427240702577   T   T   T
 19.5342969710082315  9.3743953827509436 16.8364586823879421   T   T   T
 19.2270964616047735  1.2380673662003070 14.1387719606619022   T   T   T
 16.6644918943151339  1.2642755715943392 11.2481917187295899   T   T   T
 14.3622462524161509  0.8275839359322555 19.0815567407258939   T   T   T
 16.7653006483490188  9.2422119438872823 19.2641968623368740   T   T   T
 14.3451983855662970  8.9113395743982071 11.8031972596255201   T   T   T
 11.6975825755457752  5.6409954153689599 11.2838268855579944   T   T   T
 19.3888426999317076  4.5473718736959654 11.4220725565923882   T   T   T
 19.5790825673246118  6.1969135845054248 19.1748896579492722   T   T   T
 12.1244347261490546  3.5982080720326475 19.3923413541023280   T   T   T
 16.5262718184943012  6.1695437820383701 16.7238646839895324   T   T   T
 16.6294009621533974  3.7689850944450400 14.4249027196739448   T   T   T
 14.0417859690738123  3.9156012422609612 16.4536443485826993   T   T   T
 14.3926057338100701  6.3897348421887710 14.2721212648939257   T   T   T
 12.7232815414194409  2.5137104261053924 13.0972847981397926   T   T   T
 13.0442434750426415  7.8746419853616052 18.1533536448899682   T   T   T
 18.3049234726887420  7.8420588179718553 12.8939477569526222   T   T   T
 17.9474189952013319  2.7077381869066732 18.0899896218344054   T   T   T
 11.5781839683284229 11.2740644492869908  6.4709833223859272   T   T   T
 11.3755337380408132 18.9312204603324723  4.0373483145716387   T   T   T
 19.2033247939951295 19.1827342670448573  6.4905233780134370   T   T   T
 19.5047089023099289 11.3097621115821472  3.8047212561443624   T   T   T
 16.8188670489958909 11.4246330196357402  1.0724658528613140   T   T   T
 14.0661907388854104 10.9580654724507074  9.2493022854849851   T   T   T
 16.7196502935447029 19.4589548074621064  8.8847684877360376   T   T   T
 14.3197594087721480 19.2003023572229523  1.0712270651453280   T   T   T
 11.3096030017667211 16.3284690132255683  1.3031128253972197   T   T   T
 19.4115542641557042 14.9607259922365365  1.5651321029674292   T   T   T
 19.2516900939241467 16.7521820430610546  9.5001076286210786   T   T   T
 11.4494952044072580 14.2749235965708614  9.3399479701258521   T   T   T
 16.5956565371040270 16.5341926109226094  6.6701824898324151   T   T   T
 16.8449357333037142 14.1868319837465044  4.4325668994608476   T   T   T
 14.3604709167909448 13.9434113871049714  6.6108518712722688   T   T   T
 14.3113134914745590 16.4078436424141394  4.2150663771341250   T   T   T
 12.8255640443420269 12.5444934711178586  2.8461808579386760   T   T   T
 13.0584219355337172 17.8156387961523137  7.7727003587450554   T   T   T
 17.8114359162538278 17.8204042365494502  2.8514283762971635   T   T   T
 17.7743301131139617 12.6629761415528996  7.8044829438744792   T   T   T
 11.8553278728356499 11.7020597023119954 16.2154891921586923   T   T   T
 11.0903281861630951 19.3593565988574241 14.0905820708737064   T   T   T
 19.3412143164362433 19.4774460908060121 16.5612321936293512   T   T   T
 19.4071659486155212 12.0112923472183883 14.8039078325187550   T   T   T
 16.7655217949487394 11.5860742460286339 11.6438680288712018   T   T   T
 14.2101520598273279 11.6458131310479533 19.7266083331912156   T   T   T
 16.6678547992897279 19.2226202696735058 19.4354097407086925   T   T   T
 14.4163617770404073 19.1550342490040713 11.5268544134401179   T   T   T
 11.7498297553838729 16.5717983760959804 11.5318369573862647   T   T   T
 19.3560819002632840 14.2515017636408192 11.9144058338587815   T   T   T
 19.2075681518792010 16.6812158654619154 19.3441316524965785   T   T   T
 11.1953981624958114 14.1990041437855670 19.5167362253244931   T   T   T
 16.7954288599329189 16.6263315840054560 16.9548590825146235   T   T   T
 16.6634063493218676 14.3577898885419213 14.4936560622056909   T   T   T
 14.2336107107745864 14.3031769819957475 16.7615082715338133   T   T   T
 14.3078503777022839 16.7206993419675491 14.3573357165743154   T   T   T
 13.0860911004874545 12.7846460509620545 12.7165611867446255   T   T   T
 12.5446293232444539 17.8336532344169179 17.8932747717373459   T   T   T
 17.8973691240692787 18.2694565470759400 12.8435032855622921   T   T   T
 17.8255596274393184 13.0815992167745261 17.9484825320827639   T   T   T
  0.1354903197272127  0.1983844707624026 -0.6032854697207987   T   T   T
  5.4490844192539658  4.8686214841026612 -0.5595476018303142   T   T   T
  4.9313604500476451 -0.0662153446518374  5.4057302408301506   T   T   T
  0.1487809838035991  5.1774632869897523  4.8314098501375682   T   T   T
  0.0904133903823421  0.6017423390733485 10.5173002939975202   T   T   T
  4.6914603864062681  5.6729881617204461  9.7214274489429808   T   T   T
  4.9199942205000751 -0.2807906072494609 15.8343880244743236   T   T   T
 -0.4676156837510880  5.5552003541832153 15.6186510800592462   T   T   T
 -0.1965678746405662 10.6106867821222348 -0.1451766879637593   T   T   T
  4.5323615719589263 15.3014139140951109 -0.1168621157833546   T   T   T
  5.3491795747714637 10.0092562256171433  4.7734745355772397   T   T   T
  0.2868822321169759 15.7971625912964218  5.8278820222615613   T   T   T
 -0.5300898697722982 11.0292156668084900 10.8458208062131458   T   T   T
  5.0238286929072595 15.5711594632712931 10.7312715199558362   T   T   T
  5.2559632218009957  9.8889075250223097 15.4548730519681108   T   T   T
  0.1041148911870252 15.4809799429575587 15.4431271927091469   T   T   T
 10.2209659871632255 -0.1061497425635793  0.0728141603042897   T   T   T
 15.6418264537375435  4.7796896189988658  0.1102440036756365   T   T   T
 15.7374378316326116 -0.4713456461739043  4.9393371650071032   T   T   T
 10.3003975542363886  4.5909990465148542  4.9585792535120969   T   T   T
 10.6556739672736107  0.3317298183805560 10.2024841891128908   T   T   T
 15.3153872657034515  4.7761145420734108  9.6135685283665033   T   T   T
 15.8071262706691424 -0.0963926550932251 15.0070152912126620   T   T   T
 10.3641550919248591  5.2793573489059282 15.4438073811867955   T   T   T