Li P  S  Cl
 1.0000000000000000
    20.5609999999999999    0.0000000000000000    0.0000000000000013
     0.0000000000000033   20.5609999999999999    0.0000000000000013
     0.0000000000000000    0.0000000000000000   20.5609999999999999
 Li  P   S   Cl 
 192  32 160  32
Selective dynamics
Cartesian
  4.5990800890461188  4.3044366227217727  2.2810116082224248   T   T   T
  5.1074902834847311  7.6405096648662667  7.7837961904541002   T   T   T
  9.9958410711457581  7.3547636211618901  3.6223684803326481   T   T   T
  6.1812179156569069  1.1556049389243583  7.6193457630877912   T   T   T
  2.9998914882742578  6.8897967178866546  9.6813922569156556   T   T   T
  4.3384929657965587  0.6817154551765039  2.8487179064749868   T   T   T
  5.1680120718573832  4.2698002551634602  8.1034546146290189   T   T   T
  5.5181560546837449  8.1561881457927257  2.6606624537060815   T   T   T
  8.0825231350052444  5.2495340804887816  7.3448221325668035   T   T   T
  7.7534664568034160  6.2120408247025658  4.3276789251133145   T   T   T
  1.1132801256672842  0.7319175615495015  2.1867885907750684   T   T   T
  2.5265068246114195  9.6460813655766451  8.1612420741693263   T   T   T
  7.5245703512840709  5.5067206431266484  1.3025993045053088   T   T   T
  7.2487819663763045  2.7433585711970050 10.0588133619826241   T   T   T
  2.0844937768714695  2.2528990576708048  4.6857242629623359   T   T   T
  2.0596321227785679  5.2862120309012743  6.2673066588919912   T   T   T
  7.8107754858918561  2.9122501754625088  5.4920894540021061   T   T   T
  7.3382748170735246  9.6363247184548957  3.9289465370992556   T   T   T
  2.9497029247303144  8.2758175808713705  5.1299124432344057   T   T   T
  2.3115301349709720  2.3498454391846884  0.1476138577835827   T   T   T
  1.1805473267202187  4.2049831582206201  2.6498638652940110   T   T   T
  0.4591830290062851  7.8987203071234076  8.0759839522663928   T   T   T
  9.8103917472388869  2.6227066022486820  8.0566409451388772   T   T   T
  8.5224562901946772  8.4882878409108500  0.1466501319052730   T   T   T
  3.1342022465678587  0.5819118510313521 14.3998381285511385   T   T   T
  4.9291959166731605  6.9257160320621809 18.4000053094235270   T   T   T
  7.1677159995464086  6.8265562245236104 10.7508592710908264   T   T   T
  5.7475382742378969  3.1829159509649823 19.1101715560905276   T   T   T
  2.9474433959496995  7.1386188360156471 20.5525337061821034   T   T   T
  1.8593128550033959  0.3458692664180788 11.5077524984898325   T   T   T
  7.9440187158681272  2.6249483450291047 15.6178759358280388   T   T   T
  7.4274698790503013  8.6022553587746096 14.9500421084162411   T   T   T
 10.6056862798684151  3.4928531460190722 17.6692823981082086   T   T   T
  7.8107766061698696  5.8197026184605818 14.5682562155814956   T   T   T
  4.8014672613432197  2.2998749063136725 12.6278815183919804   T   T   T
  0.5786300243815444  8.1071649180667080 19.2469333599683807   T   T   T
  5.2581368873585808  7.4229198468027162 12.8418927317208897   T   T   T
 14.8276128710515742  7.5873030110442539 19.3662922710447631   T   T   T
 -0.1448630099621659  2.8046081903017477 12.8342009816899303   T   T   T
  3.6288079697872631  9.8729838980943576 17.5202112796467873   T   T   T
  8.6544869474432424  1.8269888465745912 20.0288483492409810   T   T   T
  9.9206073467696498  7.6352708777465859 12.6610963416444893   T   T   T
  2.7361717639312562  7.4731397765082024 15.8389128425417933   T   T   T
  2.4979108501021301  4.4225410147545814 13.4631488478268047   T   T   T
  2.4993114243435381  3.2021414920150932 10.7061023788305416   T   T   T
  2.6835395972147760  5.3155526412338565 18.2631441279442015   T   T   T
  8.1099646168699167  0.1960973136776806 17.7652345596875421   T   T   T
  7.8090093797665272  9.5218770485461217 11.8108518397488407   T   T   T
  3.1468847164146974 10.6489671315821095  3.2634373957003300   T   T   T
  2.9791994709180729 20.3204445947419998  7.4366223275603183   T   T   T
  7.0713819104222688 19.7732548655815350  4.4415994951715314   T   T   T
  7.7820001123981948 15.2524256696648433  7.7531331600277689   T   T   T
  0.6470409615508946 17.6438544671123410  6.2084495482465281   T   T   T
  2.4913683543412533 14.3282598475330101  4.6617064842587546   T   T   T
  7.8697709495218584 10.6147900313639898  8.2604062022754512   T   T   T
  8.2267521667858343 16.7182667198035162  4.3959610543968388   T   T   T
  6.0217780320768943 12.3730863107257338  6.1150277848060917   T   T   T
  7.2353889409634409 18.7068943863807746  0.3080544404246827   T   T   T
  5.1436726628410385 13.4477935892241263  2.2671219004694967   T   T   T
  0.9977120654576538 18.2336175542783892  9.5055344252367835   T   T   T
 10.3741769387880129 17.9136219397747212  2.7036419281899153   T   T   T
  9.5912834777902241 12.7685760508833770  8.8431129157707762   T   T   T
  2.3952710185309205 11.2867480673816658  0.7222213375830628   T   T   T
  4.0786234873258920 17.9704077632653849  9.0954831532280274   T   T   T
  8.5331705490318424 13.5744743735238629  5.3693695055193391   T   T   T
  8.2086822686316427 20.6300668085191177  2.2233927004596801   T   T   T
  4.1745235439672594 17.9054185489559003  5.7773116856056381   T   T   T
  3.1246416993245933 14.2185992043810732  0.5529916560436627   T   T   T
  0.3426333102131949 12.8595848498211680  2.3289966330352132   T   T   T
  2.9673819587039616 15.5748995561650165  7.9138705208761397   T   T   T
  5.7426393340865509 13.1558923466572324  9.8682989291625063   T   T   T
  7.4951058759805234 16.1861002301453922  2.3808288887093920   T   T   T
  2.4321934482750196 10.0515612299199883 12.8545736009815315   T   T   T
  8.3725160216167893 25.5730523064120661 17.2104261938420038   T   T   T
  9.4508904550753527 17.7500617805746046 15.1978073027170986   T   T   T
  7.0973317413441697 13.2288408262199368 20.2924004863158629   T   T   T
  2.6125759526363455 18.3684710815691901 15.6643876547933800   T   T   T
 -0.0782969377921745 12.5851611606062583 12.4321620179537486   T   T   T
  9.0066859451684511 15.0053728537740891 17.7635418251162989   T   T   T
  6.1256571017906341 16.2177540255832398 12.3077122230260585   T   T   T
  7.4611298466248863 11.9623249910827365 15.3605262987397477   T   T   T
  9.5057089152530239 16.2956235092625548 12.8956537717381483   T   T   T
  1.0064470789275721 13.1775697889446874 14.7092769926859166   T   T   T
  5.2384296663697629 17.9228769754658970 17.3479475811024670   T   T   T
  5.9886087328501256 19.0116112529631565 13.7014876060280173   T   T   T
  5.4168646661007189 13.0280463465730154 17.7873230117793284   T   T   T
  2.1655018787180196 11.9323899918454117 10.1663180310746206   T   T   T
  2.4376114565261013 17.9439350853195450 20.6176345441364575   T   T   T
  2.4932890663297340 15.5368586704964713 17.6882810667838157   T   T   T
  8.6689235919780376 18.0931884486039891 10.8038115913977197   T   T   T
  0.4463967266925840 17.5196613218667352 17.8075711800879901   T   T   T
  4.3015405040345671 12.5831107250432268 13.7339117127872949   T   T   T
  2.8953903976669384 14.9291539020335531 12.1937172429657856   T   T   T
  3.0899336470789218 20.0292086183668161 17.7357734297579768   T   T   T
  9.9053706215593973 11.9438142278348778 18.6815943427661537   T   T   T
  8.4786759851641342 20.3304246382883491 11.9351922156918668   T   T   T
 13.2892483783753566  5.3051006400934932  2.4283205084528285   T   T   T
 13.0459903617234776  8.1416668166642694 10.2287163349717716   T   T   T
 18.2276078815885612  5.6473880213736356  2.9918441930655018   T   T   T
 17.0695573310635993  0.3171884703674529  7.3637593793001477   T   T   T
 10.4418205467987022  7.9777901251383678  7.7533083985883833   T   T   T
 11.8708185923670317  0.4216035205818219  1.7780790120546923   T   T   T
 17.8737913962905282  4.8481051278845388  8.1603064468403055   T   T   T
 17.4308005061377358  7.2245209800276147  0.4804780258540668   T   T   T
 17.0430108203154163  2.3638818926546437  9.7305580810167029   T   T   T
 15.7044024488899101  8.1190341452163128  3.0354414751366123   T   T   T
 13.0423175069305319  2.5881799838640056  5.1502120154810287   T   T   T
 12.3291675805180816  6.4172058033866586  5.6784670070350014   T   T   T
 19.8367281956968853  9.6128883564868080  2.1941125172942098   T   T   T
 19.4936743409298785  2.6267015984669793  5.6596886328858433   T   T   T
 10.5188962284521388  2.4205054727970103  3.0955554086537393   T   T   T
 14.9363164127542341  7.9233667243372903  7.2017815947715640   T   T   T
 20.0312008678890123  1.9900524812155975  8.7105398363216153   T   T   T
 19.9408347267624890  7.5461869867060907  4.1908783985788416   T   T   T
 13.6479392577840883  5.4251011916828018  8.3851474027935726   T   T   T
 14.5331529137224678  1.2940781318595671  2.9882118394558144   T   T   T
 13.3761956880039445  3.2114584827282355  0.3577493872169251   T   T   T
 12.8001232502202651  9.7567038608300738  7.0960209188073247   T   T   T
 15.7484735096955273  2.5020960714617964  6.6329205250620875   T   T   T
 17.6708028305642770  9.7159941881693630  4.2911442720650141   T   T   T
 14.8315191192958409  0.9773307723995365 13.1640239856793411   T   T   T
 11.7322078757394319  8.4735643189675010 20.2917043681353917   T   T   T
 17.7155674574879427  7.4937382528582406 10.3748799222468104   T   T   T
 17.9125431232167074  2.4199429199597846 15.4174031625810066   T   T   T
 13.4628377147311387  5.6011000600620413 18.3823154804233440   T   T   T
 13.6496035262862776  2.9399717732369668 10.6506906597207749   T   T   T
 15.8697027118453136  1.7412793232794113 17.8363186386563584   T   T   T
 18.4770759510648688  7.1740030339276561 14.9555123515486894   T   T   T
 20.2760785997915320  2.9379392034500014 17.5254083369834390   T   T   T
 20.1888849676630358  7.8942389130944779 12.4766706167847463   T   T   T
 10.4648332402112274  2.4784383183386924 12.4477355458240275   T   T   T
 10.7881663087355211  7.1366492566783393 17.0298284990464524   T   T   T
 17.3195130261380186  9.7682886951048555 13.1866993461620137   T   T   T
 17.6058003485347783  3.6827953461860563 20.0189966986210806   T   T   T
 12.6269269163259210  4.7789391046492229 12.9830720495240133   T   T   T
  7.2605138364704773 10.3790851009131693 17.4230857171471101   T   T   T
 18.8342827264726225  0.5510840982363441 17.9445386354848537   T   T   T
 18.6580495986017141  5.3219382810454459 12.9833323127780655   T   T   T
 13.3373102916306685  9.9709668045007316 17.8358627343608092   T   T   T
 12.1824845682791931  0.0898493799479350 12.0143409144517950   T   T   T
 12.9329062004146422  2.9923399428667863 15.2449483761166213   T   T   T
 14.3314010843860213  7.8409128726027468 15.7336167175800323   T   T   T
 17.7213416155378169  4.8819395561746246 17.4335148109120084   T   T   T
 15.9336323216746099  5.7054342812432015 12.2765389951642021   T   T   T
 12.7329592447307682 13.1332003680118863  0.1363300037007706   T   T   T
 13.2932164459723250 18.8203431267107035  5.6912829456850895   T   T   T
 18.3063310117665949 18.3559329674978713  0.0210110570007247   T   T   T
 18.1859272643468088 13.3424313058991597  5.0908192597268345   T   T   T
 14.7164942682626059 16.9288317428126618  7.9365935999197470   T   T   T
 13.0634389759910476 12.1409112578064491  4.6575536590450310   T   T   T
 18.8503160750208210 10.4303736774689089  8.9661162595667694   T   T   T
 20.5468949597933346 18.5116331032497428  2.1389367576764187   T   T   T
 20.4163288514178873 14.2645297562039719  7.1107534035230096   T   T   T
 17.4665973899259939 18.9068905692371558  4.5314375298091214   T   T   T
 14.6768660395993624 11.1489935237437816  2.6837931600420606   T   T   T
 10.0854869954191759 18.4254534766659788  8.2434453036414457   T   T   T
 15.8565407230080364 17.4567498529112157  1.7239407513797882   T   T   T
 17.4852190356182788 15.4118952169192731  7.2798628372280936   T   T   T
 10.7498134093837674 11.1670164962808958  2.4218232074038331   T   T   T
 12.5257254476786741 17.7956368806687379 10.3083251654566954   T   T   T
 17.2082032205630924 13.2865542157787928  9.5097037770394106   T   T   T
 18.3119970192670820 20.4205935342277840  1.4037233963766269   T   T   T
 13.0051674130221890 20.3877134952916208  7.5304849347901097   T   T   T
 11.1189827762089664 14.3865848070607782  3.1593598724092131   T   T   T
 14.1005414426863211 14.9036752887584889  2.7859591210781409   T   T   T
 11.9130348959285879 15.8091795354936480  7.2681255362441926   T   T   T
 15.5723231258568973 12.4711492034130789  7.0414790766199893   T   T   T
 19.0475900523934101 16.3723690301641369  3.1921325871488282   T   T   T
 14.1886463625975363 12.8547457437291612 14.7064547913082819   T   T   T
 12.7790141658881069 17.6281993785391080 16.1015541732607872   T   T   T
 15.8903819130507813 17.1962380575569753 11.8281333957204353   T   T   T
 15.9059153737349064 12.7183257351692589 17.9063056218160170   T   T   T
 14.2654088499978116 16.0136111379058548 18.4592310753495923   T   T   T
 10.5281584538856183 12.9422899381187619 14.9171650238725331   T   T   T
 18.3911610894571922 13.5403314006191398 15.8045762217594241   T   T   T
 18.5318823401968729 20.0963788623121360 12.0752390796637066   T   T   T
 17.5418270247967953 10.5305470096935760 16.7851126809244491   T   T   T
 18.0839861674147642 17.7872348832392859 10.3973100353872745   T   T   T
 10.7924955654896433 12.2115710228995376 12.1634796671639975   T   T   T
 13.1005776654288688 20.3064157001729839 17.8424044613783792   T   T   T
 18.8885316740881990 15.4603755963934475 12.7149566094960740   T   T   T
 17.9020012661362955 12.2601431510829748 20.2522066341317526   T   T   T
 13.6214056074532586 12.3195038013389961 10.9026946245225140   T   T   T
 15.3089383260128287 18.6432375874001792 17.6055685901060031   T   T   T
 20.5767856421987716 12.2874898592731743 18.9053443734102871   T   T   T
 20.0733488511701950 17.3558831557855768 14.2954920465783708   T   T   T
 13.6032456822894137 17.7315929394210059 20.4925052200000195   T   T   T
 12.5906716218051518 15.1892664712151078 13.2665366879181050   T   T   T
 13.5218520469436552 10.3478427887994506 13.5346786572073423   T   T   T
 11.0538473337198973 18.3084438117704806 19.0548435916525065   T   T   T
 17.9243291037797334 15.2558867362474935 18.2645916719571275   T   T   T
 17.1236742862602327 18.3537881337878872 14.9986298546264294   T   T   T
 -0.1999586990312582 -0.0807136002251357  5.1809446386990574   T   T   T
  5.1646998417408048  0.2419987439425934 -0.3003699130939778   T   T   T
 -0.0069883586948560  5.1239339023502897 -0.0629383242615610   T   T   T
  4.9533049050483458  5.2510717361325314  5.1177959810511435   T   T   T
 -0.0996338625382346 -0.2086480095514535 15.3637466219775636   T   T   T
  4.9234290176156783 -0.0142500964866783 10.1827376635000846   T   T   T
 -0.0632194242112102  5.1701881796794371  9.7776004792326958   T   T   T
  5.0069270978876039  4.9951303450632345 15.6160122999409090   T   T   T
  0.0811293783790659 10.4586176429425493  5.2091693045671512   T   T   T
  5.2177091015213657 10.2141536061063256 -0.0823281093336285   T   T   T
  0.0765749532715300 15.3193445841100111 -0.0029212366386301   T   T   T
  5.2184951178408987 15.4099241833131266  5.2579970460137382   T   T   T
  0.1209014913815629 10.0874449571462090 15.5185643300015954   T   T   T
  5.1463497006872112 10.0346413628237396 10.3781889908742109   T   T   T
  0.0399192724270425 15.2320302419138081 10.1394927709106071   T   T   T
  5.3273103332585627 15.5938714054242009 15.3349381602723600   T   T   T
 10.1322244089805924 -0.0756700756198237  5.1692660778581105   T   T   T
 15.3886618458133313  0.3201935972780179  0.1390514473880327   T   T   T
 10.3401269250072527  5.3339714754619516  0.0975330528832301   T   T   T
 15.4059132102490342  5.1502163797951610  5.3190700785949838   T   T   T
 10.6897013527020786 -0.0889100434602447 15.4686254790738147   T   T   T
 15.4600647817739461 -0.2479194391503705 10.2289299751150651   T   T   T
 10.4361986994056135  5.0229003165513957 10.3323652367497463   T   T   T
 15.3645580017923926  5.2282514235511872 15.4056813135911632   T   T   T
 10.2097583972633501 10.3763437264340741  5.3684066919160571   T   T   T
 15.4178488750107299 10.2865244979101895  0.0180655958087512   T   T   T
 10.2829258202087228 15.5515680317558775  0.1874444551730942   T   T   T
 15.3555783610389831 15.9080059708052968  5.1644371589286573   T   T   T
 10.3147510001561979 10.0367865327721493 15.4868460235098961   T   T   T
 15.6363629206163459 10.2850452369516248 10.1382786001004046   T   T   T
 10.2414165678821352 15.2022970378962814 10.4568302814460665   T   T   T
 15.4124066340634212 15.4035064644097073 15.4541469699191722   T   T   T
  1.0384612992588984  1.0829210910587357  6.5337203880232080   T   T   T
  1.1794287545591011  9.0959758507379398  3.9706786056821284   T   T   T
  8.8972711343975401  9.0688787615863280  6.2931516021996163   T   T   T
  8.6587725285428245  1.1697838842907020  4.1982786752379919   T   T   T
  6.3038334802038314  1.4241727169251759  0.7709502430875871   T   T   T
  3.8357780021656511  1.5014175095170337  9.3491197448093359   T   T   T
  6.4832146985370098  8.8591335517339367  9.4563025804625607   T   T   T
  4.0900065110554582  9.1749174944299767  1.3503991383660725   T   T   T
  1.0887683420990684  6.3794277827564514  1.0727141041845283   T   T   T
  9.1610661898741093  3.9253824962753106  0.8596261931925919   T   T   T
  9.3085028164689625  6.3490585271039937  9.1607313889827395   T   T   T
  1.0899346701399935  3.7620199677201644  8.8118550051975060   T   T   T
  6.2056093193038171  6.2847827247718211  6.3474860567998137   T   T   T
  6.3593818997822238  4.1271472512496894  4.0324719370919899   T   T   T
  3.7611514058698159  3.8524793651338909  6.0119591588978745   T   T   T
  4.0035436506868720  6.4104125596724257  3.6767705959339612   T   T   T
  2.6592751990288130  2.5285270511721469  2.5369618500345519   T   T   T
  2.8588665076506041  7.2775086921039485  7.4112300871616963   T   T   T
  7.7710032852633955  7.5079319265620628  2.4371661531834694   T   T   T
  7.3661310153281319  3.0562979515092366  7.7734554037923687   T   T   T
  0.8965595155783253  0.9147057759297986 16.7800822420929663   T   T   T
  1.1417998163872844  8.7418393548920150 14.2956816534008340   T   T   T
  9.1968803040948170  8.8708213475548430 16.5831183184031516   T   T   T
  9.4275356740324732  1.0350554612133969 14.0365280991433359   T   T   T
  6.2460787257082178  0.8149342163030312 11.4620825477220301   T   T   T
  3.9476963594673862  1.5760211125935097 19.0108312746372761   T   T   T
  6.3768764857892846  8.8744237946094433 19.4123096782266842   T   T   T
  3.9368516630948571  8.6954151636263699 11.3640193194761672   T   T   T
  1.0771000738258183  6.0532591214272635 11.3172284139807431   T   T   T
  9.0542971819546150  4.1215646331616043 11.5127253333333179   T   T   T
  9.4969035579366317  6.5441567799435161 19.1739079017726937   T   T   T
  1.0282003971075047  3.7510233968152291 19.4946228158033037   T   T   T
  6.4003871423950569  6.3454009789470032 16.5422653459048661   T   T   T
  6.3574006529262315  3.8746301636600915 14.1272498503318662   T   T   T
  4.0795438836670952  3.9112267838717973 16.7940585666085411   T   T   T
  3.9521325804067642  6.1825161053368944 14.3286243877868813   T   T   T
  2.0430456175673570  2.2492953890952059 12.7778596158984659   T   T   T
  2.8471953972977082  7.6481119045271129 18.2311131861256257   T   T   T
  7.7572547296891390  7.4538220794149552 12.9003324189047159   T   T   T
  7.9797415277581774  2.6989350816569746 17.9637144259296164   T   T   T
  1.3357318750451033 11.4616304296549298  6.4858521383944128   T   T   T
  1.2302914297196728 19.4711580540715730  4.0880624918850339   T   T   T
  9.1193536402704574 19.0534375377349932  6.1441295355399230   T   T   T
  8.9816848292452569 11.6356777200265959  4.1271744996319839   T   T   T
  6.4518996738900132 11.4423132747766232  1.1931503103363412   T   T   T
  4.2350896838401875 11.1940741986607346  9.0944958861985281   T   T   T
  5.9120376831880268 19.4558414222493354  8.8488077298663423   T   T   T
  4.3403602778113983 19.5509522812612104  1.0913819720526050   T   T   T
  1.1593485488012958 16.5127570712549456  1.2292335019203398   T   T   T
  8.9062749537793469 14.5859888585488218  1.2351993362573335   T   T   T
  8.9907930979199655 16.4024434576167266  9.2343479031130933   T   T   T
  1.4236080129455515 14.2192872292987964  8.9899046446043993   T   T   T
  6.4807092418226775 16.7245980632194460  6.2859085172638318   T   T   T
  6.5048778437541408 14.3232138035516421  4.0856703670877712   T   T   T
  4.2751371369260855 13.9679432805048744  6.4368913128216851   T   T   T
  3.6695780602432411 16.1824429635344629  4.1815675609932654   T   T   T
  2.6702427077405946 12.8945784917795034  2.3940331781438693   T   T   T
  2.5287212346834278 17.9018031627846881  7.5340535249779572   T   T   T
  8.0271986314217632 18.4026265188674287  2.7402967714051631   T   T   T
  7.3824529814058382 12.8757588452876632  7.9573237291484435   T   T   T
  1.3275654209291188 11.3669786241580244 16.6068169062902271   T   T   T
  1.0868355570830042 19.2875320329264284 14.0497427766233400   T   T   T
  9.8369924227476027 19.3810997276177090 16.9767682416778243   T   T   T
  9.1158603825806850 11.0488585043415775 14.0995343622707985   T   T   T
  6.2068477378639839 11.4767250109481633 11.6148403714806587   T   T   T
  3.9135232414095968 11.4439365675854745 19.3830405224604547   T   T   T
  6.3617076285959753 19.8449114773322890 18.8092283076370492   T   T   T
  3.8342643409154218 19.2485665708077747 11.4328005602183342   T   T   T
  0.8620664241578589 16.3905801169643581 11.6176389323331648   T   T   T
  8.9379375229306373 14.0139251639834743 11.4400908336734268   T   T   T
  9.2355575698765744 17.0947537867224426 19.7200754647726839   T   T   T
  1.1789532321210767 14.2924396059248711 19.1320568730517238   T   T   T
  6.5422950376314244 16.1113623369427046 16.7770511022830036   T   T   T
  6.4655683210034365 14.4158335728158384 13.9559525975502989   T   T   T
  3.9680848310258625 14.2715501654963219 16.1443370784130593   T   T   T
  4.0274649775877416 16.8960315042569462 14.1257634615973604   T   T   T
  2.2448985689947576 12.5266813859064552 12.7572422055187111   T   T   T
  2.6534031586835822 17.8387051940085541 18.1353579069344875   T   T   T
  7.9482148696821211 18.0845656110170410 13.0279895347936598   T   T   T
  7.7783485912329748 12.6771605862883714 17.6955513889399398   T   T   T
 11.2939455769376131  1.1914447297438038  6.4983125865823768   T   T   T
 11.6353747685316318  9.1475546480794740  4.7595313404221438   T   T   T
 19.2249175838528430  9.2336808316884671  6.0557186968374195   T   T   T
 19.4105493362585477  1.1882715907829502  3.7520421837950044   T   T   T
 16.4626925443349279  1.8477780689231689  1.1781494790729710   T   T   T
 14.4288029815864682  1.1994793019572532  9.1294041936785675   T   T   T
 16.4520124237957148  8.8947657730123542  8.9645297492761511   T   T   T
 14.2333750834530797  8.8618732970785015  0.9697879065456236   T   T   T
 11.4285697605215173  6.4565222321766989  1.4198702274296051   T   T   T
 19.3036282733973010  4.0131923747055547  1.2530461045812575   T   T   T
 19.3122592538679427  6.4022812244354341  8.6367319566830236   T   T   T
 11.4883628997291662  3.6483722990179572  9.3012990203191119   T   T   T
 16.6015854191132277  6.3119067270601903  6.4558130008947989   T   T   T
 16.4568958482849510  3.8485763709774892  4.1511625465410891   T   T   T
 14.0448192041411133  4.2141138228690540  6.6280411877270184   T   T   T
 14.2352865975891056  6.5189648776074378  4.1409206155634344   T   T   T
 12.8076259025741841  2.8205044294602573  2.7246293479142127   T   T   T
 12.8283059423772201  7.5811176886913483  7.8379786454727896   T   T   T
 17.8647266407856407  7.7923402473408796  2.7446551824094945   T   T   T
 17.9597317456957342  2.4992982953391740  7.7147370687478158   T   T   T
 11.7557719582835265  1.4155687112278463 16.3450895559931837   T   T   T
 11.5667343390673736  8.9646533218112534 14.2703696480881295   T   T   T
 19.5189660773121787  8.9189223143011169 16.7617855545305403   T   T   T
 19.1057671684079367  0.8820223310160404 14.2414472670924308   T   T   T
 16.6346746212627821  0.9395194510410977 11.4434447598938274   T   T   T
 14.1794949958365510  1.3319939244783485 19.4076469954590962   T   T   T
 16.8306831188412431  9.2093302505179704 19.4038332657427972   T   T   T
 14.3931911367743872  9.5379758294602990 11.6759631368674945   T   T   T
 11.6183724074355510  6.4845694451652669 11.5364862109607760   T   T   T
 18.9996990547330284  3.8914781060629466 10.8986046544899366   T   T   T
 19.3855867372572206  6.2206591866039460 19.2721640667049172   T   T   T
 11.7332738938562926  4.4213307976832148 19.5395711550791091   T   T   T
 16.6082871217511681  6.5334539687191819 16.3511730618779438   T   T   T
 16.3950575039854272  4.0425601784702279 14.0699964222683036   T   T   T
 14.4395970265881903  3.9462129745885464 16.7016453350560354   T   T   T
 14.0434696444378346  6.1480482910939260 14.3237544161563868   T   T   T
 12.9642056993322221  2.3750242409471194 12.8759806615183745   T   T   T
 12.9875342143963337  7.7576533728179360 17.9450210056362423   T   T   T
 17.9663917966655262  7.3625854037622682 12.6631208972736502   T   T   T
 18.2218832524051919  2.7014993209036837 18.0936484555226897   T   T   T
 11.0162048757769391 11.7183960091389441  6.6878295323633452   T   T   T
 11.5540007168915544 19.6375312057943248  3.8890702393245880   T   T   T
 19.0491589019586982 19.3604567110771058  6.3410792534428611   T   T   T
 19.2622810689056720 11.4700968347009606  3.7884190819896681   T   T   T
 16.5744928721898361 11.4217122011734933  1.3581149317995671   T   T   T
 14.3919599017216200 11.2076396483609670  8.8312232171794260   T   T   T
 16.3733933967653016 19.0532087349800534  8.8635488553004063   T   T   T
 14.5022802624747271 19.6036456427366304  1.5559152791400210   T   T   T
 11.6943295243728240 16.3076245526236647  1.4185344126596480   T   T   T
 19.3735427989234097 14.1789789571397868  1.0292917609212984   T   T   T
 19.6927439238993358 16.5022942945396949  8.8608857622857897   T   T   T
 11.5100490801229753 14.2582298308765676  9.1684276720922426   T   T   T
 16.3839333221057615 17.0990805552424945  6.3876753891095195   T   T   T
 16.3472654153141264 14.6594422577854182  3.8466677642076674   T   T   T
 14.0826503604924351 14.6045943549187189  6.3234917237331683   T   T   T
 14.0529060761945903 17.0548540982450874  4.0203555584325095   T   T   T
 12.5800149717960341 12.6232941318427176  2.5285629732500698   T   T   T
 12.6741132232880567 18.1829667081823345  7.9420817809302218   T   T   T
 18.0569406315368965 18.2791831205932951  2.2304513739852450   T   T   T
 18.0838053290379861 12.9558873720725529  7.3477841145503033   T   T   T
 11.3565268197848184 11.3211014479930832 16.6202530337547358   T   T   T
 11.9793800275397366 19.1936404385628094 14.3573548393641204   T   T   T
 19.3789868132050458 18.8808904583026731 16.3422734446968008   T   T   T
 19.2533853178894176 11.2619007632185699 14.4049387212230577   T   T   T
 17.3273438318944955 11.3432970004854123 10.9732766179178878   T   T   T
 14.5215665231385032 11.7472709289368762 19.4422288970531270   T   T   T
 16.7159521085905567 19.6684401931585242 19.4395436445424323   T   T   T
 14.4008406129841049 19.1428416976568556 11.6166629808233210   T   T   T
 11.2247153826518620 16.6710416911498314 11.6072000567789626   T   T   T
 19.2846618763490838 13.8543312693761465 10.9262849496559120   T   T   T
 19.4025674564027781 16.5870525659340160 19.3406287247860718   T   T   T
 10.9639340408906794 14.3097373250062301 19.2880460053642295   T   T   T
 16.6874262916865419 16.5400536184143192 16.6543507994252735   T   T   T
 16.3202463136161953 14.1625689680510547 14.1498498878106513   T   T   T
 14.1036802743786769 14.3637785386133956 16.6745425364516606   T   T   T
 14.4997208098668633 17.0401208394229116 14.4977018262846524   T   T   T
 12.7013949347370847 12.6234531579094451 13.1899290749506548   T   T   T
 13.2665106716352188 18.0330882120168070 18.3618115674024054   T   T   T
 18.0207484950401451 17.7341652667715479 12.5904090566712110   T   T   T
 18.1124243600175774 12.6632375310335696 18.0564885306213085   T   T   T
 -0.0811581662712638 -0.4644384480226630  0.3834094702417886   T   T   T
  4.9803604329644520  5.2262087775039472  0.1700144728457570   T   T   T
  4.9743277347688624  0.0447760791823414  5.1637207851847968   T   T   T
  0.1073551353087861  5.2455585777528206  4.9425858365906299   T   T   T
  0.1028980788222514 -0.1602388331057649 10.1634149314244127   T   T   T
  4.7524816833464332  5.3398473766903809 10.0403023059846515   T   T   T
  5.2258206643328702 -0.3757730216584734 15.5436395875377205   T   T   T
 -0.7871686964474532  4.3597260383439451 15.1543806894390549   T   T   T
 -0.0834179927243284 10.3763942322469678  0.0105877614060015   T   T   T
  5.5866002594612700 14.9501099332675711  0.4869803402387656   T   T   T
  5.4116762856224234 10.1499429676441313  4.8519140675078649   T   T   T
 -0.0947355921095392 15.5546815431832890  5.1424344172384222   T   T   T
  0.4210502749781178  9.6637541100721318  9.4932250812452637   T   T   T
  4.6120064924325845 15.3715342501684002 10.5506381780092067   T   T   T
  5.6977171175024166 10.1850158559700255 15.7849003094504088   T   T   T
 -0.4877980541801784 14.9834323613465870 15.1021502221833526   T   T   T
  9.9139443420879338 -0.0460786086916459  0.5020244306260897   T   T   T
 15.4232711452009106  5.5171317580639263  0.5242434794618493   T   T   T
 14.9462713958624231  1.0078952067908589  5.5761261614380206   T   T   T
  9.6309194463170478  5.2138424555546354  5.4548378197100238   T   T   T
 10.4170279855023971 -0.2805873270927161 10.2499420439328492   T   T   T
 15.2129353605933240  4.6880271675368430 10.4027676515451208   T   T   T