Li P  S  Cl
 1.0000000000000000
    20.5609999999999999    0.0000000000000000    0.0000000000000013
     0.0000000000000033   20.5609999999999999    0.0000000000000013
     0.0000000000000000    0.0000000000000000   20.5609999999999999
 Li  P   S   Cl 
 190  32 160  32
Selective dynamics
Cartesian
  0.6608436747068289  7.5133507539854829 -4.7262755172564805   T   T   T
  0.7640868362041825  7.7529513940844463  6.2386478830365455   T   T   T
  7.3002075736087360  8.1024943934344584  4.4717132248705509   T   T   T
  9.6740698257002222  1.9614514829833207  8.0383016225315576   T   T   T
  4.3677194863173403  7.6983952739479298  5.6872722821571271   T   T   T
  2.3700403942953545  4.5419665457511931  3.0696573944733792   T   T   T
  7.1438367671064871  4.4708040741471935  8.3309472678456924   T   T   T
  7.2418886778587908  9.5425853625785546  2.6295497257791975   T   T   T
  8.3383913928716158 -2.9277147310344587 15.0585377644948366   T   T   T
  2.7784509297912794  5.6133391218812152 -2.2419828354630207   T   T   T
  2.9354720899468432  2.8617714117993072  0.2337894898782950   T   T   T
  0.9897382429254343  8.6201196873002743  9.0344001044107838   T   T   T
  6.8650960802967180  5.0370982526724353  1.8536912059965549   T   T   T
  6.9815358774268779  0.1563202569025249  6.5733948807365943   T   T   T
 -0.3599885500868004  2.5716249136744298  2.2494705188658486   T   T   T
  3.7986780429554923  7.3798163556997434  9.5580016098090326   T   T   T
  7.6425509711301283  2.1046150251438811  5.3186886594268765   T   T   T
  4.8473244366929489  6.6981943159951101  1.0758644673754099   T   T   T
  2.6024178073337101 10.2979471824038793  8.2419513714373149   T   T   T
  4.5806893553906605  1.9688746572391700  2.2040553137275558   T   T   T
  1.4118854662396001  0.2062225764894161  2.0983117516935397   T   T   T
  2.8118677491624964  5.7996758862061872  7.6168362000011509   T   T   T
  5.0059609472862938  1.9291332818612508  7.6055487298332505   T   T   T
  9.3445518131610683  5.9338229057259610  2.9726663460263296   T   T   T
  0.3360955900506403  1.8022749401631299 12.3931911683887730   T   T   T
  4.8264610548239295  7.4879625040329643 17.2398535818887666   T   T   T
  8.8959348760377566  6.9192408817829589 14.9150118344555409   T   T   T
  7.4438764866445490  1.3347847587183013 15.6862661575483155   T   T   T
  1.1606329993116273  7.9110158881537833 19.7203792088504457   T   T   T
  3.6706798104749310  2.1973716930162657 15.2597914237239145   T   T   T
  7.7478725244185043  3.6959570143921381 19.7643130079308946   T   T   T
  7.4794056768096366  5.7894347996979114 11.7213084218018810   T   T   T
  5.2748316120486658  3.2545048291534999 18.1276511076532287   T   T   T
  7.5614753730432502  9.3513042592030491 14.2543409220287902   T   T   T
  3.6280726797741605  4.6398362371534514 13.0753413752119503   T   T   T
  2.5360361094140198 10.0274730993569587 18.0266605162054390   T   T   T
 10.4530806103007787  8.4258064865645430 12.2937251203926472   T   T   T
  0.8770209082512553  3.7199027222689458 14.6495113601890345   T   T   T
  3.6743958675981929  0.9898287006525455 12.6652285503742590   T   T   T
  3.1234710913986925  8.2287130554050218 15.4552115135381829   T   T   T
  7.9124176204435530  0.6900690700369934 18.6291271314172491   T   T   T
  8.6076494652866629 10.0774648322910441 11.8635656231843090   T   T   T
 -2.7640987227161151  5.3145046060828305 12.1305827748097741   T   T   T
  3.1678240848397290  3.5110636336232921 10.6289018863952887   T   T   T
  1.9168218994367019 -0.4083923959840682 10.1263106167975483   T   T   T
  8.2853338837883417  5.0654391698340007 17.7531967657748453   T   T   T
  9.6428394609364272  3.2033124387625476 18.0560199355595472   T   T   T
  5.5700588786133105  7.9354245539472492 12.6294873932906437   T   T   T
  5.0362087903494706 12.8064668217191642  1.9007609990453420   T   T   T
  3.1942919278882487 20.4933290307148681  7.2343449802705324   T   T   T
  7.1004338616582574 15.2014195146639324  1.1759732485344174   T   T   T
  9.6872815479481122 14.0594196498796737  7.2563491543485847   T   T   T
  3.0167246685967397 17.2747446236291893 10.0012756614995695   T   T   T
  0.5710277901452269 11.5549857362092840  2.2029331300212074   T   T   T
  8.0461138338466576 13.2256061998346333  5.1337269694280092   T   T   T
  8.4146775557964730 20.3386626692224155  2.1608623500257478   T   T   T
  5.3828681554485813 12.5727666552606916  7.0694295682910759   T   T   T
  9.5732052033396222 17.1175886661226073  2.7164999602418090   T   T   T
  2.5097522046737963 12.3615127518880694  0.3373224337647607   T   T   T
  1.3731313184948992 16.1170538008447650  7.4257401821113200   T   T   T
  7.9728657984249347 17.3074506385954905  4.7172569799187016   T   T   T
  7.2019506162626055 16.3341249868899183  8.1771039186456989   T   T   T
  0.9905668813630458 13.8523918542719358  4.3184260616886467   T   T   T
  4.1136205472673595 16.6938982078471199  7.0573428183860436   T   T   T
  8.0511639329594722  8.0810250675607254  0.0204685191362774   T   T   T
  8.4721141172488590 18.4188716435820581 -0.0078940810213428   T   T   T
  2.6174807295445621 17.8169826968032439  5.3523217954023323   T   T   T
  3.0112259010006506 10.6972144241647342  3.0274864947870790   T   T   T
  3.3649737155213031 15.0038579757182777  1.6489678053765711   T   T   T
  0.2004851283392606 18.6379428214327945  8.3731392672087228   T   T   T
  7.2758604073186550 10.1788891804304722  7.0991556116469674   T   T   T
  5.6114510405812759 18.1669804654230163  2.9827871259998595   T   T   T
  2.6214337218280104 13.1430215702842652 10.3996554604190177   T   T   T
  4.6650642673116103 18.4394300424878281 17.8462847034605971   T   T   T
  8.4844644376629361 15.8810270608369031 13.1429793262189420   T   T   T
  8.6863718781729595 14.6953533601586201 17.3339115656134055   T   T   T
  2.0284589559953181 17.2271591369351214 15.9865171970654476   T   T   T
  2.8592970651547041 12.5957668993174341 15.1945967029197302   T   T   T
 13.0748397640259082 11.2326467293556114 25.2421617930622375   T   T   T
  7.6506753031885468 20.2337427293848506 13.0704698957609189   T   T   T
  8.3726900762996603 11.5671255099404924 20.3630354629003776   T   T   T
  5.6235298705197279 18.5202925644088054 13.9050682659361424   T   T   T
  4.5455797685791994 10.8640899443693488 13.0033746640142915   T   T   T
  3.1829613468828346 18.3343723319767093 20.3255960577181582   T   T   T
  6.7591285477534759 17.8876784862542237 10.7691290471815631   T   T   T
  7.6625932194339610 12.2611887336028893 15.4337029752934036   T   T   T
  1.0104177433422961 14.6332427223280579 13.0247249195353909   T   T   T
  2.8208362135072980 16.0556754945392726 18.6823836085673420   T   T   T
  9.7312886517943014 18.7250266409843817 11.4466238048451547   T   T   T
 -0.0857173124292102 19.0100585117660259 19.0832463214944568   T   T   T
  4.7111692063578907 13.7638250558525304 12.8714934232573963   T   T   T
  0.6364520613709796 11.2453776330457522 11.9979324169346615   T   T   T
  3.0210824034869335 20.9778615515621283 17.2413931559161497   T   T   T
  5.5812721004433223 13.3922516148134978 18.5871189204508838   T   T   T
  7.0546810331101728 10.4749520926031376 17.5415461053438833   T   T   T
 12.3358455320873226  3.0184722160785009  4.7635203994553370   T   T   T
 14.0570065258547920  6.8432751100310742  6.4892955356877966   T   T   T
 15.7781627357343339  7.1734674751649203  2.6307836681468926   T   T   T
 17.3933236114869558  0.5324249830626707  7.5928808334501676   T   T   T
 11.3234428505403191  7.7930744249486867  5.9686801732211823   T   T   T
 12.6943973137544468  4.7136385641117924  2.3518846879785205   T   T   T
 15.2400624830855822  2.8656337199722079  8.0402640992776089   T   T   T
 18.1468993432278083  5.0861900262819786  3.2340178007029805   T   T   T
 19.4162956733202421  5.0588697200838393  6.8318403469464180   T   T   T
 23.5244594635021969  2.0306416371934430  4.7431157892527605   T   T   T
 13.4406932137380704  3.0257438674684534  0.3004481350754631   T   T   T
 10.9991693167302298  5.9717119740975235  7.5547852845528372   T   T   T
 20.1970198055400729  7.0862714064862571  3.3176065764766292   T   T   T
 17.8313587582342095  2.5977597709346689  5.7325971371555218   T   T   T
 12.5563568043077840  0.4022788121299625  3.2603930561066732   T   T   T
 13.8525948328006301  6.6634936645115870  9.8929615525826620   T   T   T
 16.5070651533096679  7.6275758629391248  5.0767935865925269   T   T   T
 10.2992187996253524  8.7116736167220736  8.4977721385944172   T   T   T
  7.7421099250200589  1.4307832136931768 10.0186761074944251   T   T   T
 10.8180007388330033  2.1943748183390857  1.2240738338432140   T   T   T
 14.0405636645813860  9.8248295942764177  8.0179434866299300   T   T   T
 20.1634186094415639  2.6328406314344797  8.0019168791830904   T   T   T
 18.3239310956499111  7.4154882177308288  0.6102638636033983   T   T   T
 13.4769783741670359  1.8033633519097012 14.6388367488112436   T   T   T
 13.3126681171489665  9.8574492406194398 18.5797620512982817   T   T   T
 15.4767451744781646  8.0137398787899858 13.3404890975054879   T   T   T
 20.5907439881561913  2.1592959456488536 18.3035636749200350   T   T   T
 15.1428482100668056  8.2896640189135606 16.6734089007996928   T   T   T
 10.4679038587197812  1.9508965597997006 12.6117900232016371   T   T   T
 17.1946745211235807  0.2333563431366437 19.3271797000808547   T   T   T
 21.1138846887989899 12.1674570911270408 18.7669895443182853   T   T   T
 18.2899480939139565  4.9791652862950899 17.2090571649007771   T   T   T
 17.4390469545199807 10.7256664950655782  6.9737318468872287   T   T   T
 12.1920579983499167  2.2251967109236057 10.3779944996635773   T   T   T
 12.3770856779578295  7.0349315563963213 16.0877202587594255   T   T   T
 18.0550724904804838  7.6387949475777681 10.4916358272624439   T   T   T
 17.5684989927288555  1.1849601836149788 16.4884574421221686   T   T   T
 11.1546205680948081  4.5166647929648631 13.3084749499203756   T   T   T
 11.6255696198515857  8.2294129542834931 20.0041489686949134   T   T   T
 15.6011742809340443  3.1340015899319793 18.2247797672389922   T   T   T
 18.2208783829376983  2.6991052033250438 10.0180388053175431   T   T   T
 14.5758820405825169  7.0470108826334288 19.6695031965792424   T   T   T
 14.9757925532268672  2.7264622428288829 12.4819594542876633   T   T   T
 13.2148982109849822  4.4104210573561424 11.3666859524789263   T   T   T
 12.8036098734261223  5.1755539408667630 18.8321881805190685   T   T   T
 18.0257342364273967  2.2961129638561584 20.3059264169590961   T   T   T
 20.3509023739865569  7.2228400447266337 12.4877021130013741   T   T   T
 11.1143320272548962 13.5805987560297883  3.5390440562748351   T   T   T
 13.2335778602786327 20.1625181071229136  7.0884935341588742   T   T   T
 17.2567789294834526 16.1555074489749444  1.8727609833566012   T   T   T
 15.7035943865006260 13.4166015771645597  7.9559378029074779   T   T   T
 11.6799900104597949 17.5088208149300968  5.7994542958661963   T   T   T
 15.3017424121141250 11.8897443884151599  2.9522214239080555   T   T   T
 18.0720423764224876 13.5080961925702407  5.8611453512206593   T   T   T
 17.6201395583189111  9.6871106403682514 13.7988494389481016   T   T   T
 14.1678178097002725 11.8712215395353553 15.2683411610703725   T   T   T
 17.8571333432465948 19.8095388319004897  4.7670736727819820   T   T   T
 12.5332187153484895 10.1951777195254909  2.0751533025363780   T   T   T
 15.4287391741634536 18.6192056709415681  8.0134769432607200   T   T   T
 20.2993883729013902 17.1275860978638477  2.9714516130152488   T   T   T
 17.9569005480345112 15.0091667284831196  8.0801226554448533   T   T   T
 17.6879973417477956 10.6922241055360896 -2.6165570987783244   T   T   T
 13.7775318033223559 16.1341577365582367  8.8297495010668445   T   T   T
 20.2055257973280291 12.7792736865515248  7.5677138556861570   T   T   T
 13.6664024405698932 15.6651067142903067 -2.3450737567110158   T   T   T
 13.2099586911308080 18.3159473535084061 10.5860543910929668   T   T   T
 14.1991701292994232 14.5852847293681567  2.4149786914973137   T   T   T
 12.4302054023329411 12.8308298899629190  0.7869297120192132   T   T   T
 10.6350314071810477 19.5458678874975362  8.0549620711261056   T   T   T
 18.4029625812342843 12.4496644363583933 10.1780206657237642   T   T   T
 15.0295874642202474 23.2093203275484612  1.9728603385843380   T   T   T
  7.0957246684539692 13.4331011501286692  9.9364611315313667   T   T   T
 11.6245520917805347 17.2809291005616075 16.7387701551196315   T   T   T
 15.9325280938626523 16.9731806687759743 12.5695939416703517   T   T   T
 18.5432082898646016  6.9577683900104779 15.0793597922336247   T   T   T
 11.5407248848774877 20.9974481542408924 19.0164547610449617   T   T   T
 13.0926919393994972 14.8544846055441990 12.6447648186751955   T   T   T
 19.7380067339280316 15.3121758904296428 17.7686779245502464   T   T   T
 19.7274453661514073 17.8707969989916577 14.8594925278097900   T   T   T
 18.4655767301679745 10.2952990234401387 23.4525218444652666   T   T   T
 17.9645946211385947 16.4444113541553776 11.0235125570623627   T   T   T
 11.0723964623389595 13.4277296727763122 14.5884305935215934   T   T   T
 12.6751458289743049 18.0534042075598862 20.0449261252860822   T   T   T
 16.6881381624628347 19.9406631339052893 13.5049278716335692   T   T   T
 17.7674469279727347 13.5935731034693994 20.4631678670589707   T   T   T
 15.2754690745134862 12.9038846895748645 12.1910886272141976   T   T   T
 15.2514422050324399 18.8796933051291518 17.1676145856132365   T   T   T
 16.4340787917968356 13.3345632760201234 17.5010776115095865   T   T   T
 18.9139851964113959 20.1418911406717598 11.8388183346965388   T   T   T
 12.9106172090168521 20.0823763111922062 16.5801666598303044   T   T   T
 11.0657089168584886 12.7532957213471168 11.0437099038244781   T   T   T
 13.0380001804062626 10.5794983027010989 11.9313914801699390   T   T   T
 10.0689134780898648 12.6937464709195229 18.1656623142897615   T   T   T
 18.7021686370485796 12.5142123850222138 15.9444086108512586   T   T   T
 17.9493371054328748 15.9805911144246053 14.2012339057779382   T   T   T
 -0.3105973891543319  0.2069935496962267  5.2220675888794279   T   T   T
  4.9507368393719666  0.3577245207631309 -0.0682553558884370   T   T   T
 -0.0026041204656132  5.3648580324356505  0.1048907818973107   T   T   T
  5.4443212153664184  4.5905147671461206  5.0617669203575266   T   T   T
  0.0908169840654670  0.7037382878515850 15.3435337902880615   T   T   T
  5.2173643951966691 -0.1466674556255204 10.2866764105386412   T   T   T
  0.1382123315630173  5.2706624890815430 10.1729661327066179   T   T   T
  5.4022379400958638  5.2212461837800790 15.2446297587629331   T   T   T
  0.0694023996547815 10.6181170674832295  5.6410961764961680   T   T   T
  4.9822707988300934 10.1408249936777146  0.0332361430418863   T   T   T
 -0.0065976017726100 15.8492566808633537  0.1685917613633627   T   T   T
  4.9885681596315505 15.3621927510376537  4.7374804604805352   T   T   T
  0.0389406281421567 10.3011184331868240 15.1859904435059256   T   T   T
  5.0941482970927670 10.4354290762640733 10.2348344126657782   T   T   T
  0.2265218991454886 15.3118427120078504 10.2927979223151738   T   T   T
  5.3437076798222547 15.4653813423373503 15.7968424136987942   T   T   T
 10.1580487926159631 -0.2351831831479491  4.8612486796184209   T   T   T
 14.7752315691368299 -0.0807689477535570 -0.1914225771102972   T   T   T
 10.3316349721062171  5.1562525696930122  0.2685218998922375   T   T   T
 15.4175621942236365  4.6792541323891914  5.2574079219269905   T   T   T
 10.1437062981524111 -0.0378509052930032 15.3983334883076832   T   T   T
 15.8656648545569290  0.0459093623389491 10.7014596682443273   T   T   T
 10.1454875659942569  5.0057134575593940 10.2161544932926951   T   T   T
 15.2013338646636580  4.9702725431594299 15.4986528353440498   T   T   T
 10.2492469870996867 10.4748957091208634  5.4502720758525154   T   T   T
 15.6656603291729848 10.1583777901674939  0.0517274759368639   T   T   T
 10.3887600855366049 15.2731631631030940 -0.1687937785836750   T   T   T
 15.2937418216144483 15.5644231589995261  5.3987769765949034   T   T   T
 10.4770290718840311 10.1708378390268965 15.0113159923684378   T   T   T
 15.7296869211062944  9.9960100372397616 10.7673898838251656   T   T   T
 10.3836301724229809 15.9641947883180677 10.1309955702118248   T   T   T
 15.7119222951092290 15.2273182502984064 15.4925928403247273   T   T   T
  1.0911461670343694  1.3877352519811388  6.4769720621604723   T   T   T
  0.7047351788716993  9.4343061819069387  3.9824220066018912   T   T   T
  9.1967082215530827  8.8342573871763825  6.1532046364324042   T   T   T
  9.1777187803347413  1.2291239001618817  3.7611596616105061   T   T   T
  6.5482181846597625  1.1594347704541725  0.9694915257721886   T   T   T
  3.5483178614545210  1.0133767116483181  9.4851261178270434   T   T   T
  6.2507212745479963  9.2417234887494359  9.0443455597367173   T   T   T
  3.6562076654293216  9.0090481955238442  1.0110062234182329   T   T   T
  1.0752824451928251  6.4379463858716033  1.4166260812724554   T   T   T
  9.0126773216255707  4.0882928862637309  1.3847654211442715   T   T   T
  8.9702343650605876  6.2723070069132705  9.2824712215214493   T   T   T
  1.1135148156235355  4.2865254248234024  8.6830215537033215   T   T   T
  6.9580202489134626  5.6438134076155748  6.0662858295841851   T   T   T
  6.1746595358502656  3.2083258261960750  3.5598984413405748   T   T   T
  3.9360081499496604  3.5605650817179213  6.1658452589520962   T   T   T
  4.3717529371846000  6.0517827370088169  3.7527757048577337   T   T   T
  2.4332978391119346  2.4172701804058359  2.4373407725473171   T   T   T
  2.7650367920151981  7.9178959390397745  7.4965073628098660   T   T   T
  7.5937834738602668  7.3738039709808820  2.3782652703968692   T   T   T
  7.4165059067521923  2.2327418095610665  7.8643727774007068   T   T   T
  1.4507222764244834  1.9684973682513944 16.3974439624942505   T   T   T
  1.2587022172951747  9.1067099621437002 14.0050784722469874   T   T   T
  9.1272440156484649  9.0457803686870282 16.0682606961615022   T   T   T
  9.0520927089016325  1.1859606043264548 14.0990033215419128   T   T   T
  6.1179732723671130  0.9776519522538579 11.5779768548389157   T   T   T
  4.0910502144327907  1.6083330161950060 19.1669608358925245   T   T   T
  5.9026073044089022  8.8920046331212959 19.1861136247823154   T   T   T
  3.9042881956275250  9.4323104143972003 11.4408214881370807   T   T   T
  1.4851985340201594  6.6485442519452160 11.0562696465935666   T   T   T
  8.9012025281585370  3.6745180952237679 11.4513930054430997   T   T   T
  9.4039630915233694  6.1416174859604782 19.3213005899331591   T   T   T
  1.2078970336768748  3.9068679261723189 19.7151338265692431   T   T   T
  6.8244327304173593  6.3466086866923304 16.3332793799613398   T   T   T
  6.2280012604420945  3.8439151662751123 14.0771107068102417   T   T   T
  4.1876285062019427  4.3252566326851811 16.5881069946366253   T   T   T
  3.9890456784490778  6.4561291360829296 14.2316373551763036   T   T   T
  2.3671566479730859  2.9134849358803074 12.5363549779604355   T   T   T
  2.4469706610507789  7.7747131030462047 17.4609969944629242   T   T   T
  7.9412075050406070  7.7780225761792687 12.4782260239795413   T   T   T
  7.5295292996331247  2.8266810987430966 17.6603892640292983   T   T   T
  1.7279702097563736 11.7952996105226351  6.2604915213732300   T   T   T
  0.7354934338776922 19.6170919231069902  3.9916652491203779   T   T   T
  9.0109023875671319 19.2260559792151398  6.1855695998954969   T   T   T
  8.9781067063638176 11.4809148695947627  4.0990095529684689   T   T   T
  6.3037681291538465 11.1677789347590526  1.2843960573484339   T   T   T
  4.0539275481188071 11.9732255068408744  9.1081054197348372   T   T   T
  6.5481847359307626 19.5846157596327402  9.0707950181541683   T   T   T
  3.6043701595894899 20.0662598587888539  1.1759861574729074   T   T   T
  1.5373803460984079 16.8867744718195709  0.9476522236444456   T   T   T
  9.3912776672488238 13.9147570529291702  1.0652205804135912   T   T   T
  9.0088192145269144 17.4048265134368876  9.5773432623170933   T   T   T
  1.2876382314402868 14.3452081499263144  8.8209247942458955   T   T   T
  6.2194463262387600 16.5205412069778674  5.8214754857794295   T   T   T
  6.3385506746237859 14.1874934729978150  3.7404952049894500   T   T   T
  3.5738154194809977 14.2571050188759347  5.8994575601325572   T   T   T
  3.9202612112497710 16.7268395545181860  3.5633761169895535   T   T   T
  2.4483024827718607 12.9334219477793813  2.6326847813999348   T   T   T
  2.5410010059561969 18.1885846602821886  7.7204709266263079   T   T   T
  7.6467567414819655 18.1219050033837732  2.2559949925891001   T   T   T
  7.5089736124984663 13.0491384728094104  7.4077593044074721   T   T   T
  1.2262731311903234 11.5050796780304587 16.4863421018979821   T   T   T
  1.1930593199331250 20.0728815674999126 14.0706089391599978   T   T   T
  8.6641960656933481 19.7799092378953745 16.6154133600038421   T   T   T
  9.3331658948157585 11.5649722138459889 13.6855667451101670   T   T   T
  6.4340203435886503 11.7089112667458561 11.3048221766918591   T   T   T
  4.0451319289504317 11.7594562124621014 19.4949232581488445   T   T   T
  5.9484186198331157 19.4107827924703429 19.3699805123107538   T   T   T
  4.4287644651426499 18.8856984616345187 11.4007159126173772   T   T   T
  1.5527909876001245 16.3470900349460990 11.3477009404622748   T   T   T
  9.2760331956942785 14.4558582256808652 11.0938896614149822   T   T   T
  8.9936605656154907 16.2597179753964127 19.3046118470771972   T   T   T
  1.0092350048810550 14.5629273976115545 19.3102911929877123   T   T   T
  6.7839092712587563 16.6338674554022106 16.7591306114495282   T   T   T
  6.4852218981278718 14.3699232964528676 14.5505214628042925   T   T   T
  3.9902586043021127 14.2469878318985828 17.0100327131751285   T   T   T
  4.1474262421857695 16.6293086109933199 14.5125742442138392   T   T   T
  2.8013135503549731 12.8454422956565413 12.7876808158505710   T   T   T
  2.5230494016449727 18.2637884109290809 18.2256248673500494   T   T   T
  7.9447258590512151 18.2593502781956047 12.9231834944380957   T   T   T
  7.4995319207324780 12.7182024858226779 17.9517479542454907   T   T   T
 11.3387514011163919  0.8669181049102426  6.1700818578102590   T   T   T
 11.8346879824684201  9.4856140782084939  4.3087995792502216   T   T   T
 19.5365274640886355  9.3598326063669930  6.9873200731017979   T   T   T
 18.7430228741620795  1.1325850734142862  4.0184287859813654   T   T   T
 16.2727185852761025  0.8026459939006662  0.9017143687877712   T   T   T
 14.4943455319057737  1.0584308654900412  9.1225016207225043   T   T   T
 16.9287477368633859  9.1497758785318517  9.3046956405935415   T   T   T
 14.4299457955245138  8.7335787221322310  1.1873545895082538   T   T   T
 11.5622754498449272  6.3676208428860237  1.3431259453852344   T   T   T
 18.8626705062439939  4.4301020352334284  1.0640917115462447   T   T   T
 19.7315150664011725  6.7163003017215850  9.0330576346920104   T   T   T
 11.2527964584109466  3.9122644795212786  8.8750639010122949   T   T   T
 16.6082767640432820  5.8841315188208165  6.5238738982052480   T   T   T
 16.7583890685704588  3.5745989945644445  4.0707638130561152   T   T   T
 14.1320321445769093  3.5718555555851292  6.3248609118051808   T   T   T
 14.2709398859821714  5.7853695540198968  3.9341831641742844   T   T   T
 12.7917772484287031  2.6211770739293989  2.4465654750580605   T   T   T
 12.5448469546600627  7.6386312464708217  8.1007253270586368   T   T   T
 17.7721271223818178  7.9996710686212529  3.0224718668017450   T   T   T
 17.7027521284836737  2.7422917195133509  8.0014405153088557   T   T   T
 11.3703785424741923  1.4327164181465020 16.4285754379078526   T   T   T
 11.6066632474849438  8.8113284917058117 14.0359508870219507   T   T   T
 19.5295290087601430  9.0904225344492637 16.5281054131241376   T   T   T
 19.2014885411286471  1.7444262298557227 14.2998566610248208   T   T   T
 17.1366053648703129  1.2762611450816246 11.9205127044992913   T   T   T
 14.2790159115562165  1.4420845131520037 18.9824207337920399   T   T   T
 16.6740009978790482  9.0678789817928322 19.2104950486958046   T   T   T
 14.4409052313308823  8.6884609409146201 11.6147480827290064   T   T   T
 11.5188462650921348  5.7791473336204167 11.5198842494999401   T   T   T
 19.7342529412412730  4.2557452196213346 11.6586837619070973   T   T   T
 19.7350734592800805  6.6700201333887001 19.3944341121407575   T   T   T
 11.3212680117249320  3.5453060437237154 19.8974619780573150   T   T   T
 16.4365180578536538  6.2088230379042333 16.8327048810161841   T   T   T
 16.6087191331281048  3.8986486884963081 14.4275435660637363   T   T   T
 13.9884136410408786  3.7525070347388967 16.6865406140776713   T   T   T
 14.0875500199131700  6.3428428869524147 14.2726342615494524   T   T   T
 12.5876713988785642  2.6473375201047862 12.6287313807024049   T   T   T
 12.8086362705423547  7.7939468135795202 18.1247302826806518   T   T   T
 18.0870420983037761  7.6832205871386536 12.7697049552236361   T   T   T
 18.1757609466231003  2.7695515804577231 17.8573517910108492   T   T   T
 11.0418439230244818 11.9210104607908463  6.7430820201029746   T   T   T
 11.3560222806767914 19.1772041761468230  3.8420548182500811   T   T   T
 19.1638982255662640 19.5910242163794521  6.6278583285373847   T   T   T
 19.4165282289161709 11.9322366646945390  4.7057601298250962   T   T   T
 16.9125655809742383 11.3529543593096971  1.2778031878437830   T   T   T
 14.5813523192384089 11.2831768131677403  9.7441399146792396   T   T   T
 17.2961318219275455 19.7515597055744365  9.4939234613867161   T   T   T
 13.0524880331696167 20.1620372710919398  0.8559355666976105   T   T   T
 11.7091845257522440 16.3619558324870269  0.8909082386172098   T   T   T
 19.7999161728383584 14.8901577382768373  1.7092887039470717   T   T   T
 19.5119056072182033 16.6466979772047310  9.0507115071781143   T   T   T
 11.3154263141999571 15.2475205011620929  8.5810967918295571   T   T   T
 17.4533509123035273 15.5381164613870713  4.4224043434826417   T   T   T
 14.9037358335020276 13.5502746302042532  5.6084656102238153   T   T   T
 15.7118470605917668 16.1082587716026850  7.4083105927862762   T   T   T
 14.2711549635742809 16.7740534131378851  4.1179225052851010   T   T   T
 13.1573069420892406 12.6406525655063096  2.8452188276152053   T   T   T
 12.8183423913244656 18.2061485686047888  8.0740520645062084   T   T   T
 17.8668910422695220 17.4219971135236165  3.6520143371728793   T   T   T
 17.7117916060932856 12.7344979757746053  8.0551662936770700   T   T   T
 11.5347899154395250 11.5419641048225632 16.0179408104236884   T   T   T
 11.3359335123613345 19.1561782167168104 14.4558848335020560   T   T   T
 19.6308837044387374 20.0100583113575254 16.5574832144218576   T   T   T
 19.2863456090833125 11.3596665454755517 13.7658815022405001   T   T   T
 17.1116589301139825 11.2273202283413962 12.0065446946666903   T   T   T
 14.3396117743584348 11.5506299932088599 19.8762428764246550   T   T   T
 15.8363569283138066 18.8867812433352924 19.5187597859949307   T   T   T
 14.7618092203052669 19.5337071186639761 12.0025498966742639   T   T   T
 11.7171150866144398 16.8047286545022914 11.3962547226791688   T   T   T
 19.5060617441834268 14.2738390259315793 11.4276242550466947   T   T   T
 19.1322060053472853 17.0374448713302797 19.8452899643426051   T   T   T
 11.4841402207355525 14.0581495681681794 19.2089880467227374   T   T   T
 16.8260347034068118 16.7051468664072260 16.3775139872353748   T   T   T
 16.9298139954291145 13.8081884534935799 14.6117459794494504   T   T   T
 14.3331156141896745 14.1557934061123838 16.5928929598167656   T   T   T
 14.3630907382366892 16.1937553656467088 14.1496676053777453   T   T   T
 12.9799407411889955 12.6531512826900343 12.8929114891053782   T   T   T
 13.2479797742897105 18.0201844284589470 17.7221528199295904   T   T   T
 18.2711910733024183 18.0336794961710041 12.9130737777396760   T   T   T
 18.4682908549844882 12.9892974672272992 18.1338795080936421   T   T   T
 -0.9557969713025184  0.4168159615291799 -0.2864238701947487   T   T   T
  5.8627645545895133  5.0540709020049395 -0.3934289774932775   T   T   T
  4.6387249778144390  0.2807586663375294  5.6817372703851259   T   T   T
  0.3290577434260283  5.5317376686360156  4.9407325561492552   T   T   T
  0.0053089228919717  0.2247962887183302 10.3341037639538484   T   T   T
  4.3516401936961406  5.0061963862846115  9.4636438612841562   T   T   T
  4.9231801246440501  0.2716491059836278 15.6383730611369511   T   T   T
 -0.0641750575855660  5.3157783828118106 15.6792893553582822   T   T   T
  0.4945670861476278 10.5663088964971301 -0.0376200820552170   T   T   T
  4.9639315479740995 14.8088954414137675  0.1741096117658571   T   T   T
  5.5835066980664578  9.3622867501744125  5.0605870919109810   T   T   T
  0.3751531241137852 16.1038648076780717  5.4392963419229767   T   T   T
  0.3876954377285277 11.0099565711505853 10.0196064013792263   T   T   T
  4.8122700180590172 15.8220144737458384  9.8221349371533186   T   T   T
  5.4857107712571453  9.5670445656099812 14.9650468299378030   T   T   T
  0.2120938267112980 15.7364521955338912 15.3459417543990089   T   T   T
  9.5696424195898011  0.0795328672189590  0.1963762032203956   T   T   T
 14.6493856306533790  4.9535304081115301  0.2706948939974375   T   T   T
 15.8605120301245162 -0.0319816514942118  5.8953030865674450   T   T   T
 10.6140558389966415  5.0929129430898818  4.8129369769611827   T   T   T
 10.4539300721557940  0.3862405199648175  9.5545308717593151   T   T   T
 15.1702629821499126  4.7589939382447088 10.4275534308350775   T   T   T
 15.2354311579842250  0.0209386651593879 15.5131739718884809   T   T   T
 10.4244008065556617  5.3641326657369319 15.5404755163772048   T   T   T