Li P  S  Cl
 1.0000000000000000
    20.5609999999999999    0.0000000000000000    0.0000000000000013
     0.0000000000000033   20.5609999999999999    0.0000000000000013
     0.0000000000000000    0.0000000000000000   20.5609999999999999
 Li  P   S   Cl 
 190  32 160  32
Selective dynamics
Cartesian
  1.9081073440810632  3.7069693593478759  5.1574095977294974   T   T   T
  3.2453350601071738  0.7451931030874211 13.8003971320749148   T   T   T
  9.5301584608642607  4.2278471881891466 -2.4193257204828282   T   T   T
  8.1584051304087311  5.0725334393753823  7.3823552036679256   T   T   T
 -2.5197131628427138  8.3088025331552462  0.4937490956877301   T   T   T
  3.5685994026067775  5.0869072145729755  1.3962588496378880   T   T   T
  6.0530658186887321  2.8996256464693801  6.6604336443414898   T   T   T
 10.7283795369466599  7.6084227170356513  2.3703136287672502   T   T   T
  9.3404474899364960  0.0161973673366523 12.3730437137738889   T   T   T
  7.8785905845342912 10.0161024047427460  0.7734334340828858   T   T   T
  4.3905869924872656  1.9113522606910318  2.9087393238921577   T   T   T
  4.2560609470289821  9.2399783085241989  7.7742336100486522   T   T   T
  8.8456768401226444  7.2550951855511929  4.7436455001659477   T   T   T
  4.7917415561121590  6.2152258140884671  8.1731911363639433   T   T   T
  1.4338763172062250  0.6113435249653936  2.5551446891286433   T   T   T
  1.7999149261360683  8.0225828136603674 10.0126210473942034   T   T   T
  7.5605773870808735  0.7666449958323656  8.4581933246626217   T   T   T
  3.1398526613111719  7.9123927315201366  5.1008369783118974   T   T   T
  7.4908583694815079  7.0719244640363597 -0.1611967206543143   T   T   T
  2.8758608604758500  9.7265573777432586 -3.6639893999160065   T   T   T
  1.8569986170332013  2.2938955036893738  0.3550850677590300   T   T   T
  0.4460331455606666  3.3038225205097036  2.7748076690970533   T   T   T
  7.5330126265784285  5.3494374768927049  2.5181242721387114   T   T   T
  5.9170649307295724 12.7868657440512408  5.6335539559278160   T   T   T
  0.4319537255381661  3.2309693666801582 17.9977632130475982   T   T   T
  0.4174125617809477 14.0119536016497310 12.8667169601097982   T   T   T
  8.6182544757517956  9.6790290421552854 12.5055456902515338   T   T   T
  6.2383232650687184  5.0672728813635457 18.3161039563930110   T   T   T
  2.1128984705318317  8.9812512471242396 19.6608474054862228   T   T   T
  2.0901818690190130  4.4745588408905563 14.0213603081412099   T   T   T
  7.6391148036418031  2.7692984653093187 16.1234348649595880   T   T   T
  9.6916014438276932  7.4229353041269910 11.3994551686504870   T   T   T
  9.1551564011182265  1.1531256448427862 18.4321038482693993   T   T   T
  5.5596013633894330  7.2815030634360998 11.2669661252603781   T   T   T
  5.0531337973683703  3.1246711738499782 12.4093828926173160   T   T   T
  2.0460861665261341  7.5272083322713375 15.2779368134263471   T   T   T
  6.0734999355375496  8.9024936997926325 13.8492658865808878   T   T   T
  6.9605228901434852  3.0261464202038706 20.3181965466699879   T   T   T
 -0.0146052070467934  2.9540936491749599 12.0289142763696972   T   T   T
  2.9106802514545653  5.4926794722290548 18.4449593035462343   T   T   T
  9.6372407673234264 -2.4631180946097859 10.9922992590073161   T   T   T
  9.9618559553699768  3.2821530267922849  6.9485255775449488   T   T   T
  5.1649646274942800  8.1735500796806662 17.0864665913735969   T   T   T
  2.4269244854367180  4.3338344567012896 10.6735376859300377   T   T   T
  0.7835188024661255 -1.9448918082969733 19.6545910400216286   T   T   T
  0.3577397476675001  7.1808258019746134 17.4915673031008581   T   T   T
  7.5034690237157502 -4.2722487178994699 14.0762456910451590   T   T   T
 11.4010757603648223  7.7520306119220903 16.4924580339666882   T   T   T
  2.7420175673720033 11.1213249780584693  0.7758496997493365   T   T   T
  2.9360091674640603 19.1421167753459365  5.4955791184292977   T   T   T
  7.7740094371041932 19.8782805472328015  1.0642986222964936   T   T   T
 -0.2350259895103476 14.0665867568764753  7.1577861700977090   T   T   T
  3.0659686012729415 17.6062897895348698 10.4140376356297590   T   T   T
  0.3356631778965964 12.2908051759537731  1.8060401271829327   T   T   T
 10.3176152484486678 17.5602394307405802  7.3988321496893326   T   T   T
  7.5586257494373790 19.4414689515373986  4.6428482319944537   T   T   T
  6.2345319442964682 12.3284477555581127  9.3932600852902155   T   T   T
  4.9288221936677497 18.9805432958903459  3.1256781762681447   T   T   T
 -2.7078051937910237 15.9792933667898609  4.1686156781077610   T   T   T
 -3.2202351828185130 20.4385053766958187 14.4181752386211457   T   T   T
 10.4935410298825769 17.4193526752123518  2.4244101139141523   T   T   T
  6.2705116212435286  9.1507584492354432  2.7899423837456405   T   T   T
  4.7368707925905662 13.5573725364569171  1.7888442980520065   T   T   T
  3.0566418571284117 20.0607710748565538  8.2241500388693041   T   T   T
  9.3511093073835490 12.3404281140055740  8.2852797630031692   T   T   T
  5.6591599283091387 16.4201106358246918  2.2247507362141046   T   T   T
  3.3351153871337513 15.5231687306141346  7.9764038746637125   T   T   T
  2.1159999264921141 13.8100012323634083  4.1413626588149510   T   T   T
  2.1055310950817341 13.9813859742701911  0.7315629842975613   T   T   T
  0.6532514570976654 17.4543496205648800  6.8247482289408374   T   T   T
  7.0842941268314723 10.3600031128691796  7.0212482947325299   T   T   T
  8.3224586230080391 16.9119349089258577  4.7523517252251288   T   T   T
 -1.5016238644096402 12.1156738876938626 19.5184093913192953   T   T   T
  3.6091292362858214 18.6559704344552237 15.4251002183875290   T   T   T
  6.4501953905754590 18.1135936350882716 11.4145990458469022   T   T   T
  8.5471005177861876 15.3494032935869527 17.8942895259653127   T   T   T
  2.6027614323397295 15.6682154584639548 17.7033391612226652   T   T   T
 -2.4558981233493156  5.9706966116550051 14.9723039399522957   T   T   T
  9.5635966748370826 13.1763782116134003 14.6862540628663449   T   T   T
 10.5957498648183464 12.4801442043162893 11.7640184161884953   T   T   T
  9.5570283031548211 11.8367501350505737 17.8921310839666745   T   T   T
 -0.7990700789267179 18.0349853677615322 15.0500682284477207   T   T   T
  4.2988682206270816 14.8686490447576425 12.5537110922291966   T   T   T
  8.7741639461932088 13.7838495619494807 26.7415352672187261   T   T   T
  7.0053473820920482 15.2706429879196861  7.7370792012719685   T   T   T
  6.1606228356139896 12.6618051651087082 16.2688798553305496   T   T   T
  3.2564436851785414 13.4183085756095082 10.2520030167703595   T   T   T
  2.4718183978472537 19.9680829985672013 17.3041457301407569   T   T   T
  7.7195574321920315 13.3219058377915136 20.1979635726297815   T   T   T
  5.1684430221076312 18.1630110393874098 18.4266769292216495   T   T   T
  4.9614653310148000 18.2521361274316050  7.5246406299933302   T   T   T
  1.2642232887432912  5.9261872394087147  6.9759578752672811   T   T   T
  3.0875777303994720 17.5256906429104156 20.4710601075815717   T   T   T
  5.5262984148507472 13.7351940476060399 18.4747707926792373   T   T   T
  6.9183056374522440 19.5307236741906145 14.5409516928003129   T   T   T
 12.1841288052574104  9.9475517631925499  8.4964278693701321   T   T   T
 13.1093829732460154  4.8632107742025852  7.3222140985807345   T   T   T
 17.3172115257503201  4.5352524541007782  8.9557729947863969   T   T   T
 13.0499984316680528 -0.3402340699862445  3.1808998555811310   T   T   T
 13.8496144313377183  1.7177444058307676 15.1674782705568365   T   T   T
 11.0349351320907836  3.0492539006408368  4.1216145620022928   T   T   T
 17.9466023698467758  1.9206535969457936  9.6081276574321244   T   T   T
 18.4685185124419426  7.3891087957821799  5.1871726703152783   T   T   T
 21.5919179493004627  9.5762039015342637  7.5403341667230528   T   T   T
 13.2965895451501375 11.6390091639275983  5.0434842665191644   T   T   T
 14.8062713002100121  2.2733366706916773  0.9397486903968153   T   T   T
 20.8097412522605865  1.5457367396357038  8.1168657169623870   T   T   T
 17.6962762926447290  5.4772457598177695  2.8985257682373651   T   T   T
 15.7756978327439832  1.5606154229263454  6.9981207226935842   T   T   T
 13.9011612507826960  1.9533870450860433  4.4131688272436032   T   T   T
 15.1216679925389474  7.9584392943955242  7.1225234387914123   T   T   T
 10.7037171435458713  2.4053612047610491 13.2755209578222964   T   T   T
 12.4344327558652097 10.2515173358741745 11.8176900700790970   T   T   T
 13.5329118418601144  4.4758386982766938  2.0720649823319524   T   T   T
 10.5539085404157138  2.1524641382457461  1.1232635283124703   T   T   T
  1.7004731705172105 11.1234751058443617 12.2254619142437040   T   T   T
 17.7443764779561199  0.2986607681432457  6.6530324083718666   T   T   T
 20.3623382727788744  8.1042680176295629  2.3026827357404662   T   T   T
 13.0957917801628057  3.2461749594306109 10.2429461193162172   T   T   T
 15.5899161737955332  8.0303743617785663 24.1247843774186101   T   T   T
 18.5743680573115135  6.0016427012364328 12.2934444611086882   T   T   T
 16.0904499783280457  2.6730727763648070 18.3789019856407805   T   T   T
 14.2200465598019328  6.8225816301945388 19.9233210846453304   T   T   T
 15.0306494646701179  3.9774316226388611 12.0511872589227949   T   T   T
 18.7258247428002456  2.2756358773639098 20.5294566374291989   T   T   T
 17.6109738659274129 10.1900350840901339 13.6718893989479859   T   T   T
 17.9516701708351221 10.0197649430891857 24.8030078591076979   T   T   T
 22.7649266276843427  1.0440213984637245 10.9721201576557075   T   T   T
  5.9374566674232838  1.2846663737881685 18.0321359664311807   T   T   T
 12.7820205568621539  5.2589366690051911 17.7503487506988726   T   T   T
 20.0662425279912000  7.8010201489968098 13.5132553317483861   T   T   T
 18.6385833912671330  0.3417582800597649 18.1196169152825313   T   T   T
  9.0270566756630863  7.5728653057827371 14.6414380267464495   T   T   T
 11.6243804244569837  8.4408445749715018 20.0271791725333763   T   T   T
 18.5687257831212804  2.5347352524630451 15.7903862673902395   T   T   T
 15.7775494554911013  7.2408328429132576 12.5243670911716354   T   T   T
 15.0056802972463181  7.9595998243583956 16.8842683263129523   T   T   T
 13.0366570506168795  0.2857983670644915 12.8800204609837792   T   T   T
  7.2378345688307277  3.3899915833341558  9.9655389920237401   T   T   T
  7.5604212265163859  5.3230954867202174 12.2257661471749941   T   T   T
 17.7756969455763532  4.8325430010508201 19.0622363087437634   T   T   T
 19.1000482016934257  8.5205318092159281 10.1114288560898391   T   T   T
 12.4190751801246950 14.9269806969592977  4.0866362910709073   T   T   T
 12.5115845700319710 15.4628693480027497  7.7392688309874895   T   T   T
 12.6310607193554905 24.9939280619055069 -6.3534933950242127   T   T   T
 15.5716017969432752 12.9535666637792719  8.4568834228835144   T   T   T
 13.4023816003228369 18.2474971282012497  5.6264646862048027   T   T   T
 13.4921449338223098  6.9859143206366756  9.7540824664331840   T   T   T
 17.6406934096532808 15.0189203182234721  8.9247650182338933   T   T   T
 19.1629332818700924 17.1533070449250999  1.4359380398173596   T   T   T
 12.4056068835546363 18.7195874661292301 10.5042191232607873   T   T   T
 18.2633729122762389 20.2053766278127576  2.5541502481622755   T   T   T
 15.3119420883718398 12.8316174374258907  2.5813266613931503   T   T   T
 23.7906407235357449 10.5842338612010618  3.1263333502070862   T   T   T
 16.6317690096020776 16.6603699421241309  0.0005464169927929   T   T   T
 10.7919839301846547  7.1847114235123044  7.4387263913635921   T   T   T
 10.3896133345537436 12.3680146640297952  2.5795637745093156   T   T   T
 10.8486212962458772 20.9896011826719011  8.0507755262577483   T   T   T
 17.5591210606916022 10.4724784811664193  7.2631446562529884   T   T   T
 12.9541318750616785  8.5841395409507140  5.9525565588584559   T   T   T
 14.1209506445163750 19.5329428857427345  7.6274735992270912   T   T   T
 13.3973570314312180 10.4910750527012109  1.3812711129523181   T   T   T
 12.5975757125665293 13.3895285567837892  0.8355011995302424   T   T   T
 15.4832445401979530 17.8351018744031897  3.0198616824080182   T   T   T
 17.1766110306548114 13.6299214711542920  6.1347288923271810   T   T   T
 20.0551896247805814 17.4121452284576463  3.9317469160567100   T   T   T
 11.8649888283439875 15.6828158402974438 17.4060169193877599   T   T   T
 10.0830482263968833 18.4403385077750492 18.4959635356491177   T   T   T
 18.8875935526485961 18.2328155485475492 10.6459278191647844   T   T   T
 20.9669803067693756 13.8775461499434591 16.9474096989927077   T   T   T
 13.1426804420706969 17.5695888280600130 15.5080932743607107   T   T   T
 14.8631145981168959 11.7163435801316993 12.7090195998553916   T   T   T
 17.6877857914103522 15.8025533942796770 17.8717056448227751   T   T   T
 15.2676369851887017 17.6209685134250051 10.1768097842085865   T   T   T
 16.7494747775039023 13.3392461832857858 20.3714000944204265   T   T   T
 19.0694844258785139 15.9926134597677496 13.6095180899866364   T   T   T
 13.1487626157987361 13.0804110857926670 14.6705404236203041   T   T   T
 13.7579412856985410 16.7791742321256088 19.2607309062734942   T   T   T
 19.9047127650013742 20.1776679400686270 12.3943997120402880   T   T   T
 17.1983762032384853 10.8222438502485971 17.1230577940607525   T   T   T
 13.2052901348760621 15.1244983772132660 11.9942434291977822   T   T   T
 10.3180510735624811 17.6334840027809214 13.9387903630514440   T   T   T
 17.8871191638187845 13.7368928957511542 15.9196476524359802   T   T   T
 19.0321195470194695 24.0736298411401890  5.7480798631010703   T   T   T
 12.5582314721318973 20.6546288177915933 20.6701136105051582   T   T   T
 19.9929228548615185 12.3833903611698677  9.5104936431219542   T   T   T
 15.4204460736344302 12.4381157462861118 17.4188269134065727   T   T   T
 13.8740971483375937 19.5236512556945954 17.1929194481514465   T   T   T
 23.3370634342638859 12.3877873327173766 14.7343223584127827   T   T   T
 15.7561408916933487 18.7687638013570215 13.5110861433006431   T   T   T
  0.3160632492787007 -0.1502941917402890  5.1358771920453528   T   T   T
  4.8630025927149347  0.2328257037752203 -0.0184225333067801   T   T   T
  0.0484125785802115  5.5536500092986119 -0.0305014687775911   T   T   T
  5.2827020304665639  5.2616059271882021  5.0932718694070482   T   T   T
  0.3764422532577932  0.3408243689078931 15.3398694377156435   T   T   T
  5.3442338311208442  0.2290536870265312 10.7123067289534113   T   T   T
 -0.0988223710439496  5.3845020142165403  9.8948877038441641   T   T   T
  5.2146733656659308  5.1269745985453365 15.2310330108224985   T   T   T
  0.1301032902438968 10.6652638876167600  5.1343142645424766   T   T   T
  5.3331990224485502 10.3132684720232763 -0.2273568811696136   T   T   T
 -0.3679183522088345 15.2276833839587038 -0.1253544127386320   T   T   T
  5.0732313669020890 15.1988698735503114  4.9977178032547904   T   T   T
 -0.1354885342077397 10.8111464411318643 15.2770281219307371   T   T   T
  5.0559188246897033  9.9206687957916468 10.6317038015583467   T   T   T
  0.1469459324349707 15.7440191945018455 10.0766979648769102   T   T   T
  5.3512281294494626 15.5275730004970391 15.4602554711087627   T   T   T
 10.4966871548259491  0.1610412544092017  4.9367832676898553   T   T   T
 15.5014529308910483 -0.5022580177407777 -0.0451079508936110   T   T   T
 10.4849019929918548  5.0254419646590884  0.2693375228693609   T   T   T
 15.7913158611523947  4.7672479606285512  5.0245613652226497   T   T   T
 10.2923583328459323  0.2356708081494203 15.8000048942499038   T   T   T
 15.5931091236892616  0.3314304508989106 10.4074853542289176   T   T   T
 10.3331491340893695  5.1166800869470341  9.9573876088053197   T   T   T
 15.4031411727204510  4.9416979656989009 15.5599942844031247   T   T   T
 10.1340910811266056 10.2963922301979149  5.5939579794691063   T   T   T
 15.7386560344036255 10.1739880590179173 -0.1305089660166221   T   T   T
 10.2207492588141093 15.0979781484011610  0.2428224522055767   T   T   T
 15.2623946113762141 15.3597158944015870  5.5222666115480372   T   T   T
 10.5237757344198943 10.2338929248038593 15.3724325911263655   T   T   T
 15.4852035186662231 10.1459869908019460  9.9410939125541979   T   T   T
  9.9738852317622584 15.3429306808013877 10.4354735401351402   T   T   T
 15.6503902212990411 15.6616501170284721 15.0493697843884675   T   T   T
  1.6065912758287573  0.9251053944367500  6.3495420662510744   T   T   T
  1.4077998892614016  9.1550360286526846  3.6539771487055694   T   T   T
  9.0079816935658350  8.8014812542801550  6.5581238593117650   T   T   T
  9.4190106410060022  1.1828392536563266  3.5018209221959293   T   T   T
  5.8853921281446482  0.9438291690185507  1.7013929951729616   T   T   T
  3.9964049259424712  1.2160878488131475  9.2686274192791078   T   T   T
  6.2233407697821104  8.5286669334802951  9.2781542944938256   T   T   T
  4.2628746709764069  9.1224232035766235  1.1650370723481536   T   T   T
  1.3633568856098430  6.7023509544123661  0.8670762247066508   T   T   T
  9.3590584432482942  4.1552137388858137  1.7545664159940446   T   T   T
  9.0334006170045598  6.3608822265399683  9.2460756250809908   T   T   T
  1.1624095036471447  3.8886217104001641  8.8776081720022315   T   T   T
  6.6134194137428768  6.4612828457582170  6.2452239781707108   T   T   T
  6.5351715789588090  3.8373511682348882  4.2499103045573188   T   T   T
  3.9568631049050582  4.0822008042689948  6.2638883676217967   T   T   T
  4.2938663308162823  6.3241359401587305  3.7456801211964752   T   T   T
  2.4039169689585478  2.8262237050377714  2.5237978890145474   T   T   T
  2.6427512246706502  7.7087267009201499  7.7749281896052196   T   T   T
  8.0781539204635582  7.8870244822052378  2.1495427416516537   T   T   T
  7.8539146321094453  2.7542087620441600  7.8177162450241600   T   T   T
  1.6068458701697954  1.5696908428210712 16.0735579189880902   T   T   T
  1.3192374303663827  9.5773748508680576 14.2334464682395989   T   T   T
  9.0289193166755854  9.4223365499423686 16.7232740138968978   T   T   T
  8.9898145444593123  1.3773776434552913 14.4942807680595838   T   T   T
  6.6749587342612822  1.5051422065924471 11.5712667295463536   T   T   T
  4.2147346324311723  1.7625594585387456 19.3242217995262671   T   T   T
  6.5080154660085903  9.2362246162204311 19.0763256152468124   T   T   T
  3.7889693280198711  8.9611394054327249 11.7026060543361812   T   T   T
  0.5960588552581864  6.2244450992646962 11.6664609248187325   T   T   T
  9.4585437471457752  3.9877355479347760 11.3536277219534671   T   T   T
  9.6087436357020533  6.3225655074837270 19.6112785783465355   T   T   T
  1.4931441667671288  4.2766697627649934 19.6602738991507984   T   T   T
  6.4338108443410071  6.3947467957698718 16.1852051303098321   T   T   T
  6.2593943014750790  3.8342626320673863 14.1970940267035655   T   T   T
  4.2484133692454566  4.1260853194807972 16.6691125587228797   T   T   T
  3.8649368383457650  6.0667507476556555 13.9104371007857690   T   T   T
  2.6331162998786781  2.8887468444074131 12.4556507837095491   T   T   T
  2.6133645242334738  7.6181414437634514 17.6993078449032808   T   T   T
  7.7153845469203350  7.3626731251764799 12.6033272719151412   T   T   T
  7.6362964773791902  2.8043268936385028 18.1836467896277476   T   T   T
  1.4319082626041431 11.6683172762281711  6.2499602869099258   T   T   T
  1.2769153306574259 19.1434393274938586  3.7573972640157858   T   T   T
  9.3439394922598158 20.0281763203294076  6.6029053379260016   T   T   T
  8.7374437498878805 11.4476828371447841  4.5811208259104736   T   T   T
  6.2041230388584800 11.4451428294838919  1.2560216822805150   T   T   T
  4.1242354570935049 11.2080386102516272  9.2362173623680555   T   T   T
  6.4438974758832082 19.4271116078664292  9.4676699247016582   T   T   T
  3.4510421666395468 19.6131155687504553  1.0011632336632477   T   T   T
  1.0358929119903444 16.4832111991311479  0.9618490621206618   T   T   T
  8.9056476175968289 14.0224695164498776  1.3596774852324456   T   T   T
  8.8440502764467990 16.7448451495582376  9.2760689272927763   T   T   T
  1.1326357525657778 14.2150531976799428  9.0990162369614325   T   T   T
  6.1904923731924280 16.4450666058074688  6.1701519816241790   T   T   T
  6.3419865252135157 14.3345169370020820  3.7313615476940698   T   T   T
  3.9643915506257290 13.9426272554542994  6.1632170922402221   T   T   T
  3.5702790465057341 16.4016496835777588  4.0431244083383753   T   T   T
  2.6262789718137980 12.6079327153895058  2.3901313651269720   T   T   T
  2.6592757073498996 17.9938989678502921  7.9639317227153690   T   T   T
  7.4034773749328053 17.9481131891141175  2.8657775998736215   T   T   T
  7.3549668119152658 12.7593873510989209  7.5165321831511118   T   T   T
  1.1838679136695103 11.6843004078490171 16.6267179562056135   T   T   T
  1.4361207102790685 19.5697681678826036 14.1405337710956438   T   T   T
  8.9347228387089537 19.9120765841564946 17.0395390601473657   T   T   T
  9.2318441042010342 11.0492098405116934 13.9388434333735578   T   T   T
  6.2923304840616474 11.0416374437228928 11.7262903594026255   T   T   T
  3.9620894685218748 11.4095800413847090 19.3069493344807555   T   T   T
  6.3436480707086771 19.7787016279237022 19.5686841632188333   T   T   T
  4.3919065793851271 19.6396022595611406 12.2182203607015474   T   T   T
  0.9773908416966529 17.1101754412379350 11.2725344178068312   T   T   T
  8.6170117034005358 14.2097043249884933 11.6108591948671958   T   T   T
  9.0677272705655465 16.7271869596077671 20.1233250674556317   T   T   T
  1.1087484240933605 14.4045641129807862 19.0864995131814013   T   T   T
  6.5296354289023606 16.7585200978119246 16.4411791561200289   T   T   T
  6.4766131365494184 14.2826357788429785 14.3091649359007445   T   T   T
  4.0984773208655971 14.3960551848528180 16.6622886067565865   T   T   T
  4.2789752586596652 16.8668682367312037 14.2013821683725538   T   T   T
  2.4575549321955212 13.2067087408485548 12.4912654651767348   T   T   T
  2.6878962878608990 17.9475917502739897 17.8483963971513795   T   T   T
  8.1635663926192663 18.5298065817720641 13.0271974061475593   T   T   T
  7.6388521603791597 13.1872764826966158 17.8893215727795933   T   T   T
 11.7792210289341082  1.4109319861089145  6.0614623309701354   T   T   T
 11.4784781123591557  9.2670237818592778  4.4690597653913802   T   T   T
 19.3216163458231733  9.6040877222366916  6.0608501057759110   T   T   T
 19.8400057624155970  1.1481836514225015  3.8198686714195556   T   T   T
 16.6980700093953836  0.6585887105798459  1.2177289021449422   T   T   T
 14.4915170260882729  1.2504403893761133  8.8309558729871274   T   T   T
 16.8041581208703228  8.6436956651188783  9.0256373728183821   T   T   T
 14.8312583989056925  8.7565803782044132  1.1475719622532017   T   T   T
 11.9901473594922017  6.1424534946290548  1.0652307807810839   T   T   T
 19.2285137734944698  4.3215023759807041  0.8487699413630588   T   T   T
 19.8779993962062669  6.7297942487301610  8.5382760761483159   T   T   T
 11.3903858988532765  3.6973858109118800  8.7937107880561900   T   T   T
 16.9228680551088715  6.0795357711771585  6.3751674958650488   T   T   T
 17.3204210108793504  3.6574646900036720  4.1663072347295111   T   T   T
 14.8407068508247431  3.4607531465239822  6.1361178729885504   T   T   T
 14.6339066707679599  6.0109592132103398  4.0112921232422130   T   T   T
 12.8197123281766796  2.0730574610314840  2.0046277116671267   T   T   T
 13.0721564262489132  7.4216092413477837  7.6467151558772812   T   T   T
 18.1744660268833123  7.7892073071906038  2.8901185111926302   T   T   T
 17.8442271079952022  2.1954739115659292  7.5382668019726191   T   T   T
 11.2375980685933747  1.7238850545013684 16.8039076336152426   T   T   T
 11.5254146350055748  8.6897320575010077 14.5419471623481282   T   T   T
 19.1252041339404997  9.2748703532054915 16.0800043541950366   T   T   T
 19.5193326745043372  1.3340480260918490 14.1227262021274900   T   T   T
 16.6745723036633677  1.5433153566279494 11.6416195810172578   T   T   T
 14.6374826994178022  1.0499742644907555 19.1395743363982440   T   T   T
 17.0045560461080676  9.2783064992999851 18.9487036323467315   T   T   T
 14.4200516225551425  9.1606805913636080 11.3586855301284810   T   T   T
 11.8996065109688711  5.8841926294654758 10.9340505309084719   T   T   T
 18.9063775848317981  4.2224112026292868 10.8158147020237649   T   T   T
 19.2512636993302841  6.5529891268425473 19.1777983637041309   T   T   T
 11.3797405963736011  3.6572240336356421 19.7531204842610819   T   T   T
 16.4080314592303367  6.0729398809110373 17.0497609561490400   T   T   T
 17.0463333368391332  4.0162403008680849 14.3942480273539317   T   T   T
 14.1610764282284265  3.6553992591895059 16.6285572338482659   T   T   T
 14.4624624587727535  6.3767272489115694 14.4489672361535142   T   T   T
 13.0858136420057249  2.8687222604956140 12.6843637789643342   T   T   T
 13.0349447715999247  7.5121097996982353 18.1529036072461309   T   T   T
 18.0585870753347351  8.1355547681533569 12.7114235268633546   T   T   T
 18.2328486476927587  2.5641686941284458 18.0150599996525607   T   T   T
 11.1179556413488818 11.6292476890066876  6.8381144679214998   T   T   T
 11.3176304054989814 19.0047077441817613  4.1290036121376730   T   T   T
 19.5771823709400437 19.2526056436175601  6.1871104433535171   T   T   T
 19.5833775514839985 11.9291703906936881  3.8928658134583620   T   T   T
 16.8099002933388739 11.6016456346592793  0.9158613358683172   T   T   T
 14.1656730945199421 10.7997239114729346  8.4973036734485916   T   T   T
 16.5909627633058108 19.3932685887243785  9.3652894119996759   T   T   T
 14.0980090405301048 18.9415802408389169  1.1228191674724448   T   T   T
 11.7618689582151816 15.6135451421149742  1.4657797602019333   T   T   T
 19.3395247133342281 14.0518237689986094  1.0735849467767600   T   T   T
 19.6784634651241390 16.5264729331262288  8.5387744266583834   T   T   T
 10.7128610613310009 13.9949039058195126  9.2219410754073436   T   T   T
 16.8803715773402807 16.1825808102331798  6.6245364286941832   T   T   T
 16.4286272909118694 14.2519435753362949  4.1137374751191125   T   T   T
 13.7326358370314257 14.0029163260251384  6.3232019288311125   T   T   T
 14.0182246899991227 16.4961510251382109  4.3122735137165566   T   T   T
 13.0998066159428213 12.2299006443341600  2.8528683349199211   T   T   T
 12.5716804001754614 17.9464736297103187  7.8025603364173843   T   T   T
 17.7303055715627238 18.0897914718050501  2.5988428794450744   T   T   T
 17.8835370671613099 12.4535644609449712  8.0450932672483457   T   T   T
 11.2346326907435028 12.1654029014713778 16.2113361613893581   T   T   T
 11.4249711081315830 19.7380170411655556 14.5239067649767168   T   T   T
 19.9697632265864620 19.7024941928726953 16.8153123096267478   T   T   T
 19.3415057481126844 12.1770149425438916 14.1324755184422024   T   T   T
 16.5698091117695334 11.5690524081273978 10.8433898851152453   T   T   T
 14.2734890918489512 11.1643597725944854 19.3018501097229880   T   T   T
 16.0990125536539246 18.4998529287367717 19.1689235105680460   T   T   T
 14.3792496665793230 19.5311636635646586 11.6100894670849311   T   T   T
 11.3717153565538123 16.5421245440312710 11.7048766863938845   T   T   T
 19.5089234102288387 14.5750023080850770 11.2803919804782868   T   T   T
 18.8062547114289984 16.6335538415553685 19.8487209764084476   T   T   T
 10.9364772441341014 13.7838531850266914 19.3967950551587549   T   T   T
 16.5384306658699636 17.0075953803988504 16.2208882569797019   T   T   T
 16.8840805018059434 14.5468702484550789 13.8860023269083825   T   T   T
 14.5073800960165631 14.4379830515402752 16.1947693947585272   T   T   T
 14.1848086996978235 16.6886362966257451 13.7792662726784574   T   T   T
 12.6234704044353947 12.6045469974068407 12.4446048691683284   T   T   T
 12.4010605161913396 18.1264431933755397 17.9254895619013972   T   T   T
 18.3763256507429098 18.4080975578355392 13.1273988804593369   T   T   T
 17.5095446375962496 13.2631357717314540 17.9866481418863700   T   T   T
  0.1098263062465423  0.1745806754998847 -0.1179718411036603   T   T   T
  5.4307209734025248  5.7741404319465062 -0.1736913174605415   T   T   T
  4.8897270478081705 -0.4798647237968868  5.7545299069479272   T   T   T
  0.0594768683050874  4.7799033820107297  5.1958276984457425   T   T   T
  0.0995475391755198  0.2343589353204106 10.0677081293288762   T   T   T
  5.0738486510994436  4.8479906518727454 10.4448795574824089   T   T   T
  4.8120484945514495  0.1797272550796360 15.9015623515605089   T   T   T
  0.0233669119049540  5.8368499839643402 15.3274473118651944   T   T   T
  0.2546748254656389 10.6318362323104054 -0.1138800492785357   T   T   T
  4.4355306683856739 15.0643919534178963  0.1465950478464513   T   T   T
  4.9076121787738449  9.9604185898353368  5.4790201701429107   T   T   T
 -0.2362089410584772 15.4455472878434072  5.0472159234625291   T   T   T
  0.3845511188937564 10.2408314188508829 10.1907531032167018   T   T   T
  4.8065546858184174 15.3823277761285730 10.2163921245525735   T   T   T
  4.8928972990693502 10.1843178312850515 15.4794862555200208   T   T   T
 -0.0317699719484747 15.8485896257318863 15.7333591946383642   T   T   T
 10.0052294232101122 -0.0238237013902584 -0.1931213282825517   T   T   T
 15.4277682134865959  4.5273644999214957  0.5093313376930895   T   T   T
 15.3819100100919801 -0.7542366804531495  5.4413613682062110   T   T   T
 10.5368040440114559  5.0857239930748870  5.5811429762134477   T   T   T
 10.8297800444933738 -0.1321304921862539 10.4985065272056683   T   T   T
 15.5915310114556789  5.2897199642288406 10.3492772554229546   T   T   T
 15.3015429032543366 -0.2218275396262287 15.1499320530441519   T   T   T
 10.4011332878350871  5.4956216854748794 15.6524413743738471   T   T   T