Li P  S  Cl
 1.0000000000000000
    20.5609999999999999    0.0000000000000000    0.0000000000000013
     0.0000000000000033   20.5609999999999999    0.0000000000000013
     0.0000000000000000    0.0000000000000000   20.5609999999999999
 Li  P   S   Cl 
 191  32 160  32
Selective dynamics
Cartesian
  2.2661394552943053  1.1562786212715856  0.4888390491356785   T   T   T
  4.8737439142088661  8.2238286457898493  7.6023473678676288   T   T   T
  9.6482138663810808  5.9059504908348082  2.9033325967325978   T   T   T
  6.9105472168782631  0.2019219320519933  7.6006431377009172   T   T   T
  2.4655616422154036  5.8265312271736525  9.1934996147964458   T   T   T
  3.1125312585717113  4.0405978455997102  0.9588921380032112   T   T   T
  7.0136356495666039  1.9777032443291831  5.6423651730601749   T   T   T
  9.8287418557136998  9.2928644066967063  2.0588858960946359   T   T   T
  8.7498444801651676  2.2191639622928476  9.9232954989471711   T   T   T
  8.5199490475032320  7.0254769195369269  4.7780848859212108   T   T   T
  3.0893870501450564  0.0713096282645341  3.0574858374508005   T   T   T
  2.5986328984866631  8.9118353415297964  5.7108508527953745   T   T   T
  7.7285872035282841  7.1431298975928579  0.0614897775011256   T   T   T
  9.4474481300340276  2.6601864897532894  6.7597485638965695   T   T   T
  5.0969330426780024  2.6248195713999039  2.7844268517377677   T   T   T
  2.5108472999308793  5.8168117678131441  5.4623330476964993   T   T   T
  4.9338269261132979  3.1981556592214022  8.5768344144644431   T   T   T
  6.1784927799151408  8.9659333262359624  3.0056019337760302   T   T   T
  0.2648344394772104  6.8578916256100948  7.2287344932745441   T   T   T
  3.3548289611510627  2.0275459995433933  5.0595383092770092   T   T   T
  0.7432171714103200  2.9462438283625287  3.7306905429172765   T   T   T
  1.8826354425857073  9.4129888502960473  9.1097456394834122   T   T   T
  6.5922420565026849  4.9440423179047208  7.9804691520840887   T   T   T
  5.8725614358429947  6.0156343746785605  2.1349939480119353   T   T   T
  2.2753436289596438  3.2411069568376121 15.4605517012982467   T   T   T
  2.8246519635441332  7.4555840130996716 20.4595484475099099   T   T   T
  9.7748562048863530  7.3765830384294482 13.5114815174109975   T   T   T
  6.2948115637420141  0.5899894169614288 17.5493395773671139   T   T   T
  3.0460605550375601 10.0952977553350287 16.9794680075768269   T   T   T
  4.9367887588284436  1.8079019106078464 13.5315921549048603   T   T   T
  9.5618538755140694  0.7818074935014864 18.1319157688912327   T   T   T
  7.9899377123237123  7.2097247515194818 15.6397130059655645   T   T   T
  8.7936265743288597  2.2144686085609111 20.1585514873265197   T   T   T
  7.0339465962431484  9.9314688983637662 14.1402037828314118   T   T   T
  2.4974644876229832  2.6658303867891009 11.0717800527312882   T   T   T
  1.2210806121093694  5.8494596758902500 18.2916453510428241   T   T   T
  5.4204986912870092  7.0714012647095679 12.1701883333075855   T   T   T
  8.5657438267252424  4.5082572139336765 17.4285694586678304   T   T   T
  3.6300098584511877  4.7264180929678385 12.5049547466445503   T   T   T
  0.7254026249953284  9.1436949347828911 18.7320658702465295   T   T   T
  5.9129208734780878  3.4488487511377692 18.6839052157133239   T   T   T
  8.4636324513434218  8.4408465829700798 11.1641549692502693   T   T   T
  4.9644170604377447  7.7420308350303992 17.8026584102112224   T   T   T
  2.4856803138957724 -0.0062689500492231 13.0625814996577567   T   T   T
 -0.0757713871298057  2.4362718176310345 13.1595845652609214   T   T   T
  1.8818194744848997  6.9429699559426199 15.6577048707473470   T   T   T
  7.7506092530925361  2.1670799870626358 15.6730335633930924   T   T   T
  7.6834168455851337  5.3395889228170672 13.3884001319429427   T   T   T
  4.7340395308917946 12.5602103331194872  3.0795315878519598   T   T   T
  0.7309075027751667 20.1690675991900292  8.0028752988828753   T   T   T
  7.9411767690445876 15.2606577151131226  1.9308221396117877   T   T   T
  5.1559887640432249 12.3244416602128428  6.9969471148070772   T   T   T
  0.1300014636569218 17.2009350896427549  6.9777414159510576   T   T   T
  3.2853944370964672 13.8614686529892275  0.4993231678014344   T   T   T
  7.3940325221448076 12.8579412120680470 10.4869244738667220   T   T   T
  7.5995852925730407 17.8346787058739338  4.8413405259351059   T   T   T
  7.2504652888932881 12.3724054554833618  5.6145372511435028   T   T   T
  8.1480901317464358 20.2845597855359827  2.0731255215189099   T   T   T
  2.8457585431254424 10.6645122497049449  2.6108330624759390   T   T   T
  4.0521105653184968 19.9838138353377701  7.7394545015200471   T   T   T
  9.9353484386567494 17.7830104850829329  2.6148997218415921   T   T   T
  7.4483702423739544 14.9808303193255323  8.0048255052012713   T   T   T
  1.8685335678967090 14.9987280711036828  3.8065849189225132   T   T   T
  1.6249150984015319 18.2248889203422877 10.0172449371817542   T   T   T
  9.7831658328118198 12.7011189400306108  7.9652261749963671   T   T   T
  7.9078505581193141 18.3156033917484962  0.0617505704649882   T   T   T
  2.7358567079977245 18.2190777241660200  5.3170178207258667   T   T   T
  0.4717077834495579 12.4001788857169277  1.4010703090931962   T   T   T
  2.6149427475471003 12.4060830953849930  4.9112873009935036   T   T   T
  3.8917380142423750 16.5282929800177953  7.9548583159041426   T   T   T
  8.3114820780507159 10.3296197170100399  8.7136455379168414   T   T   T
  5.1360707010272080 17.5194101642736939  1.7705601652725083   T   T   T
  0.3529081288180840 13.6476901099773222 14.0113433687192188   T   T   T
  5.0325518420482807 17.3917677658252217 18.6936767405486393   T   T   T
  9.1184064078632154 17.3306367022802945 14.3599266738723195   T   T   T
  5.3686344610384795 12.2404220769040855 17.5683314157978927   T   T   T
  2.5756949512106146 16.9989089740709289 20.4004882811896380   T   T   T
  3.7737789438830274 13.9206120350283697 14.3635929751761946   T   T   T
  9.8087651806137170 12.9977198350461247 18.1289094051082742   T   T   T
  8.0222832391712160 20.2807269185369350 12.0523089443921840   T   T   T
  7.1938978645251579 10.5485714178970635 17.9043350127076337   T   T   T
  9.3951389005615020 18.2087658307687832 10.7037693676941839   T   T   T
  3.4928166933231890 11.0451422378891841 13.9208457856060352   T   T   T
  0.5068580967598126 19.0000373202693709 18.5293693734356850   T   T   T
  5.7330695022668197 17.6944092353267735 10.9448022816078616   T   T   T
  7.7666169283385278 12.3654076176619654 20.5141901096057779   T   T   T
  0.6732828266449751 11.6862210110712059 12.0319886531271720   T   T   T
 -0.1175649708548467 23.1888638549121069 17.3573443427312384   T   T   T
  6.3234557287377635 14.8140342785223815 18.5590458897141417   T   T   T
  7.0349225200447547 15.6939767172100151 12.5163179039713892   T   T   T
  2.6778006525921398 17.7405895432707794 16.2021594134194302   T   T   T
  4.2449104397460227 12.9561396809705585 11.0629756723672390   T   T   T
  3.0602731039984463 15.1571003119204804 11.9129572017581076   T   T   T
  3.1951534558446943 20.4285489731694909 17.6805098789467934   T   T   T
  8.1564369437594628 14.6883014267360448 16.4293108958757301   T   T   T
  5.8581374968850666 18.5174559787987292 14.5731020042040846   T   T   T
 12.8031658626140175  0.3635155123387323  1.1973675234205241   T   T   T
 17.3348566941971463 10.0424365216442180  3.0456024460782842   T   T   T
 20.2339467455314619  7.2472386002815741  3.1033108697382028   T   T   T
 18.9645873110760306  1.6666408088274174  9.7830856499335859   T   T   T
 14.8458877898429833  7.7806054033320180  7.3657195711697065   T   T   T
 12.0567168336532760  7.3108089877181488  5.4433365103207274   T   T   T
 17.6783307821829929  4.8917027886122613  8.0643003774239972   T   T   T
 17.4393957480052748  7.7297282696721323  4.6495337904889675   T   T   T
 20.0805475077201834  3.7067442017985446  6.8114686750461413   T   T   T
 17.3302270416482571  5.2239713753275545  2.4343308110728703   T   T   T
 13.5510730282067566  4.2835040918136125  1.1395662101891020   T   T   T
 13.2146854769505850  5.2689486856025560  8.1279518737157961   T   T   T
 15.6115088777105342  7.4409856610096723  2.3401966983965008   T   T   T
 15.7898867575867676  2.2572364544069932  7.0908415879226698   T   T   T
 10.7050459604627992  2.7890401178615005  2.9671700489802024   T   T   T
 10.5316430350086669  7.2331208112623999  7.8560164627116080   T   T   T
 17.8060801119984440  2.1702008035054208  5.0856747517023964   T   T   T
 12.5997101936265938  9.9215624461264493  7.6167069182900562   T   T   T
 12.7547821680913422  2.1817084460801959  4.8041615998682667   T   T   T
 15.2503899991713237  1.5010331040325711  2.9234750823100555   T   T   T
 12.4665213822567384  7.3987231136632348  9.9705057699092325   T   T   T
 17.3334768031311697  0.1450492715558049  7.0935310187025991   T   T   T
 18.6695142292502823  8.2979692361899886  0.0987330022672531   T   T   T
 13.2834451439444621  3.3666885942467166 10.3133544960756183   T   T   T
 13.1962372330184348  7.3876791799770727 20.3620977826265701   T   T   T
 17.6515125411707352 10.2341345486848780 13.3695454117311083   T   T   T
 19.2227688037880391  1.7818704301317498 20.3300728270772382   T   T   T
 15.3282070975084341  8.2568908358854003 17.7929618961609819   T   T   T
 15.3608023236242861  2.6217662380110038 13.1410968772709040   T   T   T
 17.7732169297584441  4.7625323828625108 19.8411575350398621   T   T   T
 18.9921065004786378  5.7012213148821820 13.2067385203114167   T   T   T
 18.2662235461500977  4.6218654344897159 17.0353334173063615   T   T   T
 18.3577954072482079  7.5298429428990934 15.1149055549063860   T   T   T
 12.6377994087976564  0.9865599074114850 12.5907918290354512   T   T   T
 11.0379224723015845  6.7976328952617120 17.3717008512060858   T   T   T
 15.6291835269164263  7.3164471915991127 12.3534596923068669   T   T   T
 16.9735857777251411  2.1376050368068982 15.3705149690795526   T   T   T
 13.0919423205060479  2.1663265537169401 15.0435980518212506   T   T   T
 13.4174786923955001  8.9615949213210513 15.8038861142077955   T   T   T
 15.7750877300448273  2.9071943575793884 19.1794923147784075   T   T   T
 18.4785765215400488  8.4463328490097354 10.3401481047976667   T   T   T
 11.2929017458702372  9.5065446010603871 18.6961982349410079   T   T   T
 13.5187525906444428  5.2756891216412107 12.4590272550030630   T   T   T
 10.9165579107849968  3.5464995088941453 13.3713656512045969   T   T   T
 13.1622276639347557  5.4082716756953229 18.1411610430029171   T   T   T
 17.2180851498479299  0.4320068638853397 17.6673300191051723   T   T   T
 20.5206711304312677  7.9143246238412450 12.8913003174238092   T   T   T
 12.4775290476901652 15.1668025759212970  2.9589000336581610   T   T   T
 15.2633114139896460 17.1157419822301549  7.7621818313159814   T   T   T
 20.5843264720179704 18.2366779308387237  2.1577945157871641   T   T   T
 20.6131476614364004 13.7252516265764282  6.3125005182889700   T   T   T
 13.2228783829361980 17.2568255431354771  9.8839320016997707   T   T   T
 10.6597532480101567 12.6640861422524900  3.1002349423954425   T   T   T
 16.5982847200125079 11.0369660806287602  7.4800418492537375   T   T   T
 17.7534116240723918 18.8073469842829368  4.6439917612245152   T   T   T
 16.9797563841243928 13.5465909608951165  9.8051385453275692   T   T   T
 18.6334631790392145 20.3019735535261532  1.6031238879824239   T   T   T
 12.7220851724980282 12.2194684183002700  0.2815522439524267   T   T   T
 10.5999846958064268 19.3159660744609667  7.8413599268718519   T   T   T
 17.4021701920426715 17.1940422465918630  0.1891238525477536   T   T   T
 17.8224997599868082 12.6147731283803566  5.0633799860191875   T   T   T
 13.7767414795991510 10.7681490071908961  3.3428039369865692   T   T   T
 13.9404734213768453 18.6616057957476613  5.2914419951915299   T   T   T
 20.1939240675534286 11.8167188750570311  8.2664145523635533   T   T   T
 18.9518649417469582 15.9525851568529760  3.1506950826609628   T   T   T
 11.9217084518231395 16.0656849854592210  6.7110757391540581   T   T   T
 15.2019196319145724 13.4491710355597842  1.9057540993899285   T   T   T
 12.7007588809176291 13.5274392957438199  4.8164205987272419   T   T   T
 12.9900644664060092 20.3426993672986711  7.9014296742735528   T   T   T
 18.1390504822282495 15.2188818802128765  6.9295211176095917   T   T   T
 15.7116313251056763 18.1424117902564035  2.3438138642070183   T   T   T
 11.8474903910038005 14.9495881881269224 13.6480591170033030   T   T   T
 12.4683577969287605 20.3856229360646353 17.8497938795064925   T   T   T
 17.8606857179706253 15.3837771092302127 12.1837068100149146   T   T   T
 19.9423248016636379 14.2259399955562031 17.7855742308890754   T   T   T
 13.6994410496394039 17.1566443837415505 19.8793844092976144   T   T   T
 10.3818269915267063 11.5211367145805212 12.4950060716933073   T   T   T
 16.6434900527364320 13.7353596821146056 19.6070527701376065   T   T   T
 18.8129874514218081 17.0955453452978645 15.0821085895929503   T   T   T
 18.4065529719027126 11.5771165017647952 19.6201686447319901   T   T   T
 20.1652260873703142 18.1915283089277935 12.6652594214266241   T   T   T
 12.4885258914919923 12.0482884596962130 10.4167327295210619   T   T   T
 15.0181137740510415 18.4278521368721897 17.3945474896729877   T   T   T
 16.6637344779585881 19.6384389500932315 13.6574731682766650   T   T   T
 18.2019336850140370 14.3208377414606645 15.5377622064443148   T   T   T
 13.1097619095368838 12.4403909400345825 14.9165831973292935   T   T   T
 12.6321190860979033 15.7284607853340095 17.6029687964258486   T   T   T
 15.5936156037315214 12.6158470944744945 16.6732804467191329   T   T   T
 18.6881110907918213 18.3820871748299410 10.4864990552938746   T   T   T
 12.9703801758836459 17.7805838877829530 15.4221778410890629   T   T   T
 14.5845543725174469 13.6958254453474719 12.2559908412624097   T   T   T
 14.2170944938210528 10.8683435960955013 13.0029970937217154   T   T   T
 10.2222487755678664 17.4404479366328999 17.2968116954588353   T   T   T
 17.9601630795480425 10.9660875739443089 16.5166438036556045   T   T   T
 15.6491704641794591 17.4210638139837002 12.0005449456380830   T   T   T
  0.1597753769149572  0.1157247505501609  4.9931641701183649   T   T   T
  5.4847817433679396  0.1345342432297711 -0.0544876697791561   T   T   T
  0.0240752507107982  5.0325057730434359  0.0778745638382435   T   T   T
  5.3764765256902205  5.3541925682722038  5.0015765392343345   T   T   T
 -0.0049101215472972 -0.2421050007586821 15.4529493688463759   T   T   T
  4.8631857560304077  0.1008633978585580 10.4097206994831843   T   T   T
 -0.0224111349786086  4.9150211376630857 10.4012591402509642   T   T   T
  5.2136050266569312  4.9284643633113463 15.6450448175677632   T   T   T
 -0.0770263859896373 10.1090038602365198  4.7362647962857576   T   T   T
  5.1473048906265157 10.1214231490490238  0.0412240847906731   T   T   T
 -0.1895193171584322 15.4685559102440280  0.1980901107614843   T   T   T
  5.1198879052246156 15.3077053914980237  5.1235372733985374   T   T   T
  0.1669285493784677 10.3028336659999447 15.4825662890406122   T   T   T
  5.1185348204814902 10.0476882899817888 10.6830958150307094   T   T   T
 -0.0832010127385812 15.3083734296105956  9.9016887143763235   T   T   T
  5.4577731853107654 15.3872977119258199 15.5483382776725172   T   T   T
 10.0474814318785022 -0.2771342951006825  5.1935991042194232   T   T   T
 15.4211459942569107 -0.1916725870279135 -0.2394616759606793   T   T   T
 10.6838257381690163  4.8163149384211739  0.0556170335256872   T   T   T
 15.1184385908238461  4.9423733074631953  5.1881862037028448   T   T   T
 10.0756123676763440 -0.0685379967354648 15.1560787331264297   T   T   T
 15.3693193764135589  0.2332639022493702 10.2128446000058446   T   T   T
 10.0323622642688868  5.1542415884259416 10.5257591099768106   T   T   T
 15.3772479262590327  5.5220251020850499 15.5337757703412116   T   T   T
 10.3268804858935983 10.3359766529945247  5.3262485651400651   T   T   T
 15.6282797005662974 10.5277393038016260 -0.3665837171771045   T   T   T
 10.6940307595578226 15.3613660320163596 -0.1328427854862871   T   T   T
 15.8650726390697088 15.6223462649662395  5.0407064183093828   T   T   T
 10.3362581410075833 10.3758473846699086 15.7889642384985223   T   T   T
 15.3824864982105805 10.2806449042971444 10.2582722883353075   T   T   T
 10.0815313836083984 15.3762565157227655 10.0327944631284147   T   T   T
 15.2207859599300424 15.5595422841134390 15.2000809425039165   T   T   T
  1.2705279517007400  1.5001545567513224  6.0067752390821045   T   T   T
  1.1905520671348637  8.9914237929877174  3.5641348887997202   T   T   T
  9.3824279788920570  8.9521322900214866  6.7397455379732003   T   T   T
  9.3066483462928193  1.2693588535192297  3.9813356736142551   T   T   T
  6.4298004537229820  1.4325002656587438  1.1593012075148701   T   T   T
  3.6568382509259729  1.4199652992302128  9.5400451346932069   T   T   T
  6.2039213318180462  8.6292012173739536  9.6961282074835733   T   T   T
  4.1296205001650419  8.8528658455293812  1.3040104079663055   T   T   T
  1.1831835934534438  6.1105305468875990  1.3460915651012280   T   T   T
  9.3333835947328065  3.8869792170308171  1.3785849636831631   T   T   T
  8.7096574053305371  6.3830907888562320  9.3980968808926590   T   T   T
  1.0695667728558600  3.5278276814008698  9.2822479836573031   T   T   T
  6.4836508405694486  6.5071331969447144  6.2515705518970819   T   T   T
  6.6392776322414697  4.0359657028542530  3.8032683396920741   T   T   T
  4.0921568789446088  4.3114967187460707  6.3256811771507948   T   T   T
  4.3623288045069675  6.5552334203114873  3.7734749882480636   T   T   T
  2.9555482345326745  2.4332912325588119  2.6441556689440717   T   T   T
  2.5047746059403959  7.4960850490994737  7.4349168456986510   T   T   T
  8.1037174978755573  7.6805441515558242  2.4847512921308494   T   T   T
  7.2134287904512986  2.5570511340625517  7.6835972403743265   T   T   T
  1.2855420308509291  1.0102725107411794 16.5705052081408439   T   T   T
  1.4394418755414877  9.0530167116025897 14.3927368997236087   T   T   T
  9.3615684371743697  8.9490133493227102 17.0312123608428436   T   T   T
  8.9709399066236077  1.1822514501666070 13.7861184336136446   T   T   T
  6.1668778010358256  1.2882831416990830 11.4896805924428342   T   T   T
  4.2849154359184496  1.2271008179310399 19.2715221675373556   T   T   T
  6.4140459675501438  8.9276493754105140 19.4580699144016833   T   T   T
  3.8528464671389888  9.0401506911887068 11.8586540221638348   T   T   T
  1.2249158916412504  6.0190193956800675 11.4798466466441553   T   T   T
  8.7565034025851745  4.0761647966888859 11.6558020205295829   T   T   T
  9.5259470851577248  6.0247141611162656 19.2725858635769782   T   T   T
  1.3801356600489691  3.8833943061991256 19.3619030846788576   T   T   T
  6.4307743098035361  6.0193690352002580 16.9129987566199347   T   T   T
  6.4994329151926626  3.7611508217435397 14.4584868294270450   T   T   T
  4.1078369790205009  3.7274410661517314 16.9412766606032861   T   T   T
  3.9826759813397725  5.9575562357848346 14.3470985008672809   T   T   T
  2.6962404839364789  2.5259188882107995 13.3250236185714837   T   T   T
  2.6211903890631398  7.9225562925715041 18.0889580387173012   T   T   T
  7.5655563608305210  7.6083176149615701 13.2077270636200694   T   T   T
  7.7369096102038473  2.3855732607822469 18.1699880246991867   T   T   T
  1.1389156043643973 11.1829196507489055  6.2674730544574970   T   T   T
  1.1808498228747406 19.1722312375735982  4.0787920560744304   T   T   T
  8.5637394686337984 19.3047357259741972  6.3626152015330284   T   T   T
  8.8903562466272597 11.2119052431449315  4.2350584144375292   T   T   T
  6.2991893936566319 11.1223805149359851  1.3205198154180831   T   T   T
  4.0172948395157402 11.0165433688997272  9.1598312596547018   T   T   T
  5.9002129000979444 19.4929830906812001  9.1568697115995494   T   T   T
  4.1065110668056715 19.4584375892807060  0.9511578792750043   T   T   T
  1.1416524140836739 16.4146312216336554  1.4748687980959476   T   T   T
  9.5515889041359117 13.9719626353924156  1.0343714907494894   T   T   T
  8.8334734264041703 16.6025981875062243  8.9525091716694725   T   T   T
  1.2828085300400871 14.5450084839766749  8.5926854752977881   T   T   T
  6.1078204906140483 16.3751306572173974  6.5946366397768985   T   T   T
  6.3336253962045088 14.2205400814659377  3.9106304554736071   T   T   T
  3.7527485335145507 14.3728131520626832  6.4054906636598421   T   T   T
  3.8663179270628762 16.5291019155874821  3.7955303521412098   T   T   T
  2.4257958589170188 12.9028121435997836  2.7305929792199253   T   T   T
  2.2924452390185075 18.3453337352298576  7.6189014758594746   T   T   T
  7.6761040473152349 17.5724017083912543  2.3581771194916583   T   T   T
  7.4908637545164964 12.6423512972542618  7.9188536488651602   T   T   T
  1.1349439967773669 11.6311351500170304 16.7487780439954861   T   T   T
  1.1340808041720281 19.1283706903989383 14.5105320981848021   T   T   T
  8.9498744476056906 19.3852152449073571 16.5442194779617395   T   T   T
  8.9667379511530143 11.5830570112159030 14.8048296254869367   T   T   T
  6.3080490175720563 11.2703799231529462 11.8033607364084236   T   T   T
  3.9353866052595996 11.3612254134020585 19.4255773058088153   T   T   T
  6.6696099420188419 19.4574093868497329 19.2229935323980143   T   T   T
  3.8116718276585888 19.1325297429501688 11.4533444067281813   T   T   T
  0.7403627359104641 16.3358433500437741 11.3837186150755247   T   T   T
  8.9886868443951400 14.3754650325112845 11.4969931981605384   T   T   T
  9.3278719443219522 16.3237199611077557 19.2417589891446852   T   T   T
  0.9487446279644747 14.1427307925304806 19.6502210263186186   T   T   T
  6.3019698315586536 16.7023007228145204 16.8272541650276040   T   T   T
  6.8571079179925425 14.3875996766432497 14.5177600000070264   T   T   T
  4.2184210294058300 14.1876090212661765 16.8343393633098586   T   T   T
  4.1684691411730874 16.4547543266039540 14.2443801067844049   T   T   T
  2.5812810866646063 13.0255725802281912 12.8605535301560163   T   T   T
  2.8218041488562573 18.3194034870462588 18.2549691549988893   T   T   T
  7.5519162633719841 17.8765970626860238 12.4967148196699309   T   T   T
  7.4960279598935555 12.8606866195660405 18.1068662267852574   T   T   T
 11.1686137007614512  0.9360044828491916  6.5726457095473760   T   T   T
 11.5271997559048298  9.1423176789800564  4.0431855245511299   T   T   T
 19.4157268190109065  8.7108444335659883  5.8593778608908513   T   T   T
 19.4567633288981732  1.1747209342539382  3.6467735499491507   T   T   T
 16.5580368493738916  1.0457751530197748  0.9745267504834464   T   T   T
 14.1800185075211864  1.4128967642846433  8.8965103926694304   T   T   T
 16.5873963430686331  9.1888258632434052  9.0601270595505756   T   T   T
 14.1898765533232005  9.2921708827922007  0.7815997046093974   T   T   T
 11.8375408356339076  6.0004110807824835  1.3110430212800950   T   T   T
 19.4767094592280543  3.6640986647198930  1.2596174308513561   T   T   T
 19.4518592250759141  6.2074244871836415  9.0922491549342919   T   T   T
 10.9928506672320889  4.0181692492681069  9.1703111092571383   T   T   T
 16.2973128354468457  6.0464055807240218  6.5099390835291171   T   T   T
 16.4526504188647174  3.8307182538825444  4.1763535943553016   T   T   T
 13.8848652938743822  3.6531624034181327  6.2177231235821049   T   T   T
 13.9195100603924651  6.0490086805611964  4.0048424551121728   T   T   T
 13.2538461676958690  2.2772728223336594  2.4889097079949991   T   T   T
 12.7067275018927610  7.6539430576025858  7.7691117015739151   T   T   T
 17.9443836926759417  7.6765194624389563  2.3607074223879065   T   T   T
 18.0426586754477150  2.5165414211747721  7.4646030283217470   T   T   T
 11.1246107824246003  1.4481974380050981 16.4099297611938297   T   T   T
 11.2924905050340048  9.1493425821991430 14.4356137529160176   T   T   T
 19.4579542676111501  9.1602407686174434 16.5513372964637355   T   T   T
 19.2244366252920891  0.8600083292183363 14.4610235329949823   T   T   T
 16.6634981232696120  1.2788554822449090 11.3360434998437949   T   T   T
 14.0786286789444528  1.0363473622788764 19.1677424233811280   T   T   T
 16.9922209704828333  9.4097033091700713 19.0690198703933405   T   T   T
 14.1541240065228298  9.0665372606390378 11.4769391217494796   T   T   T
 11.1833866584472545  6.4348272318054693 11.6808755396597750   T   T   T
 19.1002485447007153  3.8296000647349304 11.6768568931171419   T   T   T
 19.3158634092940815  6.2567288769767346 19.4758995645033011   T   T   T
 11.6473330794753540  3.6016497993516503 19.3319290641349042   T   T   T
 16.6607095860498156  6.6736533820392809 16.7486663612768893   T   T   T
 16.8533024501832180  4.5495046731566218 14.4267750727109192   T   T   T
 14.3666007588651734  4.0477906005158042 16.6492010733817963   T   T   T
 14.1024793531177455  6.5900611814988723 14.2977790921109840   T   T   T
 12.9830374949411382  3.1015520297929533 13.0627690417588198   T   T   T
 13.1827551020012397  7.7280233818853121 17.9994129667978200   T   T   T
 18.2060390785137898  7.8204043609880234 12.7439995687232255   T   T   T
 18.0007797613711134  2.4699402341349668 18.0337407388696391   T   T   T
 11.4596254450517048 11.6902166810607788  6.5247457025612086   T   T   T
 11.1634001259093267 19.0802040384616589  4.0923676282617345   T   T   T
 19.5475611105768969 19.7200594720906466  6.2778522992913102   T   T   T
 19.3959345141642459 11.3670997923497907  3.7378323186638629   T   T   T
 16.8191050551284853 11.5259818083393242  1.0251225136525570   T   T   T
 14.2839943275930157 11.3660597929990281  8.8243558972902818   T   T   T
 16.6997458354540669 19.4202219624255079  9.0890458012598287   T   T   T
 14.2074960773409966 19.1737064296853177  0.9900652836892854   T   T   T
 11.5991603486867767 16.6165971978558602  1.1956054523999147   T   T   T
 19.1868998820895484 14.3720953262445672  1.3273125870872617   T   T   T
 19.0852799963532362 16.5634460063682525  8.7553084255624078   T   T   T
 11.2290566394391291 14.2651837321411872  8.7197077006681187   T   T   T
 16.8453293037362322 17.1804835906693825  5.9635887931425886   T   T   T
 16.7627960705898715 14.4525267042147885  3.6985347808041804   T   T   T
 14.9916985803360081 14.7023577259096356  6.6122330773869553   T   T   T
 14.3208924543349916 16.6664865913532978  3.9538447130139391   T   T   T
 12.8853586629045065 12.9201152944046189  2.5961676533922455   T   T   T
 12.7739069946876871 18.1669552494577999  7.5388544597093281   T   T   T
 18.0696346472099343 18.1363945484636417  2.6069330549619214   T   T   T
 18.3618181202315718 12.7802808656967368  7.4639730782955231   T   T   T
 11.4647269352199821 11.6907212877745561 16.7153255322606711   T   T   T
 11.2766937730624281 19.3813207986245644 13.9346001542884590   T   T   T
 19.3865400811252506 19.2479387028274544 16.8804264973243221   T   T   T
 19.5642302906367647 11.5254849219090829 14.3028448093605896   T   T   T
 16.2400826921481709 11.5647389788290216 11.5776087187090102   T   T   T
 14.3919896001550729 11.6417642308273237 19.2334509720623998   T   T   T
 16.7529354190829132 19.2423295118595234 19.1911422306589614   T   T   T
 14.0496896386960106 19.6917393870166251 11.2685485930469174   T   T   T
 11.3056450855666668 16.7255061544941697 11.1354169151190181   T   T   T
 19.1790660466832676 13.8729224929949613 10.9259804019212119   T   T   T
 19.2768703754489792 16.7285420098718731 19.5060021715714100   T   T   T
 12.0039475725236766 14.2273274385379001 19.3111814345750261   T   T   T
 16.4771853620320243 16.6742060116241575 16.5244619117990084   T   T   T
 16.3494122202799197 14.2796220921661394 14.0166036457043326   T   T   T
 14.0013053678162507 14.3961262046989251 16.2797782175613293   T   T   T
 14.0073097799090878 16.5092156688844653 13.8136685631871643   T   T   T
 12.6533578650336462 12.6874219368842152 12.7450424328971756   T   T   T
 12.5327852364589987 18.1118999927568538 17.8702244429139654   T   T   T
 17.8241725432421774 17.9064122001887114 12.8889560642648231   T   T   T
 17.9189461883832983 13.1146800039571367 17.7330515111374325   T   T   T
  0.2875671889403397 -0.0617974395520725 -0.1302446480168996   T   T   T
  5.0749749443713519  5.3600124185715696  0.0087766073392237   T   T   T
  4.9276774192562351  0.3251953823908810  5.5775951321752562   T   T   T
  0.3645679510024732  5.0105617231693946  5.0014772938697254   T   T   T
 -0.0234795711621188 -0.1670909987596702 10.3773446053191698   T   T   T
  4.5162061812548142  5.0046591979917645  9.9726567133086359   T   T   T
  5.4462580722246576  0.1884425121915624 15.5218059179605046   T   T   T
  0.0279100281601005  5.0691487883258937 15.9480686802058749   T   T   T
  0.0992956321525132 10.1725253550564307  0.0242235274334642   T   T   T
  4.8789837128648941 15.6314769918376104  0.0148993504990281   T   T   T
  4.8401793776353781 10.7668277889144122  4.7426782063166337   T   T   T
  0.0705715943666061 15.5953739114976990  5.1648113030412066   T   T   T
  0.2643970735258129 10.2322133967317939 10.3920594722264816   T   T   T
  5.0055378945758120 15.4418653546884581 10.7142309950121568   T   T   T
  5.4052148601998917 10.2389365333210982 16.1800013100333970   T   T   T
 -0.3983868624854599 15.3997577892734512 15.2818597474428657   T   T   T
  9.9349736552615280 -0.5605178793616222  0.7204997763796995   T   T   T
 15.7937450312521950  4.7195113523143126  0.1392129980443701   T   T   T
 15.9701730720721038  0.3396129325259440  5.2872033150692710   T   T   T
 10.2034601392510620  5.2100805541110926  4.9432215975680522   T   T   T
  9.8629361185447237  0.0058507298310459 10.3873129384416210   T   T   T
 14.5789857360045705  5.3723695690567803 10.3538969150205311   T   T   T
 15.1499958029966866  0.7961545201807984 14.7716427273709368   T   T   T