Li P  S  Cl
 1.0000000000000000
    25.1819793006824639    0.0000000000000000    0.0000000000000015
    -0.0000000000000009   14.5388225279766061    0.0000000000000009
     0.0000000000000000    0.0000000000000000   37.2126966544236950
 Li  P   S   Cl 
 286  48 240  48
Selective dynamics
Cartesian
  0.2473295157888601  3.6795321098066620  8.8567531322589961   T   T   T
 14.0315372288834244 13.4116547310066672  5.9630201666370874   T   T   T
 21.3095432615904450  5.3766528246286347 13.0787819981033593   T   T   T
  6.8596917508194384  8.3027930636941392 18.8129799279440455   T   T   T
  7.9756779203117798  1.5848779169325198  5.4302930408022325   T   T   T
 24.6671526671130437 -2.9211045520605459 -1.8330065219824738   T   T   T
  1.2297817931890647  6.6482028052484932  7.3622023609296035   T   T   T
  6.3795191981646315 12.0448517733811009 16.9941360508375183   T   T   T
 19.5586156628570293  7.6687796973882572 15.2528453089040958   T   T   T
  4.7095181958123380 13.7557290948260516 14.6787732526227490   T   T   T
  8.4449370997351867  4.4832379295791132  3.5255523906880315   T   T   T
 18.1721038206319001 10.6574051532942740 -1.1413558922289724   T   T   T
  5.3254478093546203  3.5624863588764182 13.3854925238015365   T   T   T
 15.0022550886103030 14.5004838077551703  8.3920342685836875   T   T   T
 28.6433231467941951 14.1967369043604670 24.1865012560122565   T   T   T
  8.5761385138116104 10.9619166861296158  7.7947074750212142   T   T   T
 19.2865908673617206  8.1853492575492268 -3.2774458429100992   T   T   T
 17.7720379273952069 14.0988303216031063  1.2313100195453059   T   T   T
  1.1067318637301902  3.5361787968907978  5.5951069775086513   T   T   T
 17.9509582187505110 18.1060332626374354 12.5925274688350299   T   T   T
 19.6787009093669951 14.4006412474066714 13.8652235751343511   T   T   T
  7.4165232712057154 14.5220688116425727 14.3925141291449776   T   T   T
 15.6633044558171477  0.1038698598473863 -0.2734567549851010   T   T   T
 25.8104420305899573  5.9473589507620179 -2.4307993613632908   T   T   T
  7.5824312209354963  3.1756881430376813  7.4475896013782892   T   T   T
 15.1041746668807697  8.5579140442249262 -3.4358375008896673   T   T   T
 15.3019618993464412  0.9164883735835682 15.5558523679621032   T   T   T
 12.1825904365846682 17.6065251488947929 11.4478649695597650   T   T   T
 17.1606727192769810  7.9395778697593098 -1.2583034604005929   T   T   T
 20.9976752106415177 12.5255336477601311  2.9791985889317014   T   T   T
  5.8670973324740334  7.8969403386741712 13.7655198029004957   T   T   T
 11.7875547696647693 13.9815365660361373 13.1200458842649912   T   T   T
 24.6389610307759277 15.3392674463612586 18.2692523277838497   T   T   T
 10.1290344977125333 16.9020593653272684  9.1895632960043176   T   T   T
 12.1845161861375271  3.7724829999378087  2.7071523874701144   T   T   T
 28.5675508982258144 18.0861792956664971 -0.3122275645651334   T   T   T
 24.3700122567888151 17.8259720558380650 11.5889522326663297   T   T   T
 10.1789588575554095  1.2661086947118860 15.1050087263676787   T   T   T
 13.1290205625952172 16.6703411777350397 -1.0782785390049441   T   T   T
  1.2352263336405405  1.5917212792422812 -7.3842208348450544   T   T   T
 13.3911797433481183 13.1796777956830944  0.9097494589262166   T   T   T
 19.9104335047793448  6.7357936133592453  5.7898721263259478   T   T   T
 21.6023604918504333 -2.1934475455933513 12.2063064354651072   T   T   T
 12.7822732606099496 13.4788278832434472 21.0586441168851870   T   T   T
 14.0770276638903731 -9.2669760225994189  1.2524698302003450   T   T   T
  2.3044615478818700  9.5424178921673182  1.9535228736936889   T   T   T
  6.8601167660942677  0.8954688936034835  9.3453325892888266   T   T   T
 11.1343111065914204  7.5095871793358624 14.2785897154316075   T   T   T
  0.1849732384247521 -2.8837690758686052 13.0059414521755627   T   T   T
 17.5796454205240522  3.3179345009713730 21.8276837415245097   T   T   T
 13.2219976876936851 -1.9829906458285507  9.4498925645495309   T   T   T
 -5.4687646813805264  6.5489160598773060 -0.7071158644139599   T   T   T
 15.2172809980633996  9.6861109613119396  3.6643579011446654   T   T   T
 23.8487361528352650  8.9684127795846678 10.5583640812831749   T   T   T
  2.4059335780462274  1.1504808714295229 15.0381288550390035   T   T   T
 12.2188656966839044  3.3511132048738901 14.8805942066432220   T   T   T
 14.6143441888888095 -6.0876542180697415  0.0667040140847911   T   T   T
  5.6297422494228027  5.9259394281421658  2.6589501334961683   T   T   T
  0.4117714336860767 -4.0959714928361732  8.0903109667490618   T   T   T
 18.8147830497008144  9.1506160593615853  8.7954790906283247   T   T   T
 -4.7238964747289307 17.4396810575417724 16.5051272277031060   T   T   T
 14.1610653312306383  8.7544735154010986 11.2567351568031722   T   T   T
 13.5644477638049246  6.1539801850264029  5.3334487480999622   T   T   T
  3.9654813057564282  4.2644717276841124  6.3698414052557242   T   T   T
 13.4743642312510072 17.5252764412148210  7.1371128872374641   T   T   T
 22.8762704717587617  7.6541935994311068  7.2981779492787515   T   T   T
 34.2466737787776339  2.0154109163078391 20.6464408620686122   T   T   T
  2.7589072509595636 16.2880849636962175 20.4497717432286166   T   T   T
 23.8045329095618570  5.5263189752113462  0.3844354455245771   T   T   T
  5.0224701280783979  7.1677506412362444 -1.1682531006573538   T   T   T
  6.9884670289240782 -1.8556768453434598  6.3074592083045111   T   T   T
 11.4158364066837432  6.6497651238611279 18.1445970802788246   T   T   T
  2.1383197494651993 15.8867295128072854 12.0558549024634818   T   T   T
 14.6596997280978503  3.3557823308792503  9.4876178783907381   T   T   T
 14.2263380358765907 10.3531147500787917 14.4267294058601081   T   T   T
  2.4857308395769682  1.6179616623975515  8.1639360301882409   T   T   T
 13.6925297953942842 16.0539392007041641 -8.6472913714721216   T   T   T
 25.1738238000754180 -2.5279822116108979  3.7000254666667312   T   T   T
  5.5554192704943848 20.8647851641716926 11.6190437905888100   T   T   T
 17.7198299452675485  7.0399352687490060 13.0785963525566409   T   T   T
 17.1011345240518686 12.1841278145455973  6.4043868045226873   T   T   T
  4.9926745424883014 11.5565941417141822 13.0306576476310187   T   T   T
 -2.2290443846597912  7.9886492696766922 -7.3897793539735801   T   T   T
 26.5833363166142718  9.9935668350241684 14.9699081993122718   T   T   T
  1.7730944312028152 13.5436554242868326  6.2985561354086315   T   T   T
 19.6575526718010067  3.0002979608747546  9.3634778411826538   T   T   T
 19.1958513319517721 10.7350329471136661 14.6196650109740762   T   T   T
  8.3394296190473760 11.6540120405536136 13.6626252948660039   T   T   T
 14.1843647517050080 11.1771119725154016 -3.3718629630813823   T   T   T
 20.9304450350559286  9.7448179171834042  5.5694709807545619   T   T   T
  6.8602976400609812  8.1618804680896098  9.4971550641690321   T   T   T
 17.0078260611228735  5.5359560589184271  8.0312177007952208   T   T   T
 28.9418244496978083 19.4713588248759315  8.9792395099190720   T   T   T
 10.9693289221252357  0.4565976767682252 23.0692885656147837   T   T   T
 11.1333657918561428  7.4214106122083008  3.4157775580993937   T   T   T
 16.1315058142947976  4.7927714678548927  5.3415725496247575   T   T   T
  4.1375535452803289 10.3364191076856038  7.2243351888928329   T   T   T
  8.6499683424769103 -0.8775008140477132  8.9984197438847460   T   T   T
 22.0478304785109742  9.6468355928683991 18.2365124757900254   T   T   T
  8.0174068986429745  5.4719201867018734 15.3825921084242516   T   T   T
  9.0033567111152948  6.2000874502428953  9.0550990485390042   T   T   T
 18.9791836817294843 -0.0790571333535453  8.1456477474834976   T   T   T
  0.4140763375424922 13.3003994402535000  8.5382447760477440   T   T   T
 14.5756851021816622  6.8724830736610842  9.0833109122986624   T   T   T
 18.1999194060999692 13.9112711096948871 11.6482229764969230   T   T   T
 10.9599321428610654  1.0683617119233844  6.7630346809944433   T   T   T
 16.2329960018702408 18.3054483499971461 -0.6508713347207539   T   T   T
 20.9827582680854405  4.6120269428674963  1.3290164231710397   T   T   T
 22.7354257237997253 16.7586886819370235  3.5266226116153061   T   T   T
 -0.0765616853867386  4.6927613081685378  2.9389777852308345   T   T   T
 17.3366022654212593 13.0780326890091203 14.7152568290107695   T   T   T
 27.6941125361775988  8.3535623279535933 12.6595797214878676   T   T   T
 10.0217028452482033 10.7875519866764407 -2.9888160966657411   T   T   T
  9.0687872483279666  8.3692379323079322  5.2166720636002744   T   T   T
 16.2823138394841926 11.7351279528939934  9.3372730767832159   T   T   T
 25.4163111164437261  4.2093492926120808 13.6016246228944926   T   T   T
 23.5198429899339949  9.8235957586606517 14.3110261524124933   T   T   T
 -2.8740304606605322 -0.1737828697153576  8.6036260572764203   T   T   T
 13.2770886346110899 10.5118032137256421  8.0261423656004354   T   T   T
 19.9202740294456113  3.2021849022709024  6.7236170969885114   T   T   T
 10.8161357672073422  8.5438304192268291  8.1052028348024798   T   T   T
 11.7516704812160651  7.3893880134764034 11.3877168667913100   T   T   T
  2.9280631479566046  9.0197670657946176 17.3144873794866143   T   T   T
  6.9610694318034136 -0.1984432012380519  2.3801926441850290   T   T   T
 17.5980035148839988 17.2490969278694770  2.5420855855696471   T   T   T
 26.8037798330600445 -3.7608402917449193  5.4457770111809651   T   T   T
  6.7941499617748429  7.5513371826555158  6.2406423588039832   T   T   T
 24.7171481939099813  2.5990150471258855 15.8336317625934857   T   T   T
 -0.6209116672461737  6.6748503318000081 12.8543637619401618   T   T   T
 -5.0041525118872325 -0.9612606170044382 -0.2154765707247644   T   T   T
 23.4982445071635659 13.0533300515923933  0.2517321517361237   T   T   T
 23.0130652694642777 16.9149533437575741  7.1500122844662553   T   T   T
  3.4589009048215460 12.8290020229083161  9.2441462498351896   T   T   T
 14.3470842994708239  7.4370658461633568 14.1757184768960691   T   T   T
  3.7729814876405943  6.1441665253264537 15.3943578646050394   T   T   T
 -4.0811589601285831 25.2382873597187114  7.8037552445349148   T   T   T
 20.5189271504196213 14.4846504801872094  5.3866764616936331   T   T   T
 23.4118538892658989  1.0401726012101684 13.6658188682948207   T   T   T
 12.4153276370498222 13.4511413748617059 16.2064487678311693   T   T   T
 20.3195796096002184 -0.1594411531002132 17.9406830934895467   T   T   T
 21.5741280687250168  6.0116891179268830  9.3177157251211931   T   T   T
  0.9705076525909047 -5.4923675282741833 -0.5684194037082759   T   T   T
 22.7048399356542738  8.4395347939655814  2.1740837522087926   T   T   T
  7.5772421786474125 -1.7185434350573596 28.2297950962827713   T   T   T
 19.3332626158553964  3.8112018779571493 28.9524481691833699   T   T   T
 23.7569269473811637 -2.9029067472451402 20.6536060894604958   T   T   T
  4.4374528359360559  4.5746640410712027 31.9892754712812639   T   T   T
 15.0517574067241355 -0.3305885158198907 34.0503997454233343   T   T   T
  0.5204374595500524  1.6862719845077450 32.4981145936764051   T   T   T
  3.7528568596676717 13.8138065510917656 28.7157017732336790   T   T   T
 17.2900045975221417  4.5927976529880654 31.9002371903197535   T   T   T
 15.8846721760909126 19.7399067379225528 19.6563513443704743   T   T   T
  9.8986505874588495 10.3703862065734604 18.8299472620629729   T   T   T
 11.7346024547420420 11.8556107745975083 36.9836758303708990   T   T   T
  6.3232899044098909  9.5987461298072354 38.4885082162648757   T   T   T
  5.5890938996673194 10.9781165211105503 28.2067386858152318   T   T   T
 18.2345793759703625  7.1333067549998148 28.2459652981543314   T   T   T
 30.5104871411078165 15.5600188648609254 23.0746454073426577   T   T   T
  9.5597082371337372  4.7428363764950081 25.7103782284981719   T   T   T
 11.8928905399450855 13.6614732556182510 34.0724921825988218   T   T   T
  7.7868175820455674  5.5810328800444182 35.8305350119688910   T   T   T
  4.6324968687857444 -3.5375092756337123 31.1079543124182294   T   T   T
 16.1995730681322847  4.4868504735571433 28.8250782437216237   T   T   T
 20.9714041663049287 14.4930668900753119 22.3137055069059649   T   T   T
 10.2897253302616640  6.7888068087541589 21.1897432198720210   T   T   T
 10.6193663781175029 14.7887794029409250 30.6725961376684211   T   T   T
  3.6311020899409390 10.8687651655774111 36.4579210392299871   T   T   T
  6.8447371705072459 -0.8825246089069946 31.8984529279807809   T   T   T
 16.8558466590011733  2.7504132558334198 25.9222676798047722   T   T   T
 22.0242808512304613 -1.2379432990226567 25.1424534706839893   T   T   T
 18.4551299030763438  6.8374770944661583 18.5037744522213181   T   T   T
 17.4182687679627790 -2.1743354775439023 32.2365445983869563   T   T   T
  6.7286807534310089  6.8645276338710266 32.4919977005933731   T   T   T
  3.5812446606988226  7.4231160976397659 30.4212999397050865   T   T   T
 16.7928533021890054  7.4187963427860470 30.0837643050101029   T   T   T
 18.7424842842743971 10.8543208472888146 11.5976460586413950   T   T   T
  2.8776857270197094  7.5067394574532944 21.5664624716237867   T   T   T
 15.2296960220743554 20.2471134121787877 33.9650478324628295   T   T   T
  3.8244827798753476  0.2391318040087425 33.6638052813884627   T   T   T
  2.5673588014492674  3.9814803078706391 23.2010799903968099   T   T   T
 17.1518833146479928 11.5675130252848390 22.5313411315263323   T   T   T
 20.1333628271434897 -0.6661173731254932 30.4472092746544263   T   T   T
  9.5726632882716327 12.2395230286828287 40.8576466663314477   T   T   T
  9.2377714816143559  1.6708669282889279 28.2131766635370589   T   T   T
 26.3898173094051636  8.3531689932285040 28.4772784297076988   T   T   T
 -3.2019580030560113  6.6763969550199569 25.1402598207084083   T   T   T
 18.6643958130412173  8.5142442709287920 23.9926313664626463   T   T   T
 23.6373366889190564 10.8125292815975200 31.7214070278642772   T   T   T
  2.9015665842262393  6.1562872358715852 38.1396727345537983   T   T   T
 12.0101222700072388  3.8266554092912966 28.0738925090879086   T   T   T
 24.8971359045899341 14.3276669339320968 23.3990093654365623   T   T   T
  5.8415076313313614  2.1899481080999945 25.9208977442740647   T   T   T
 16.0714034260294270  5.5073264084237641 23.9046300309416715   T   T   T
 24.8154343583414736  6.0129018682209354 29.4169074770751955   T   T   T
  9.5895913221478999  3.6912679429856148 37.1351365779353131   T   T   T
 10.2868308096583601  3.5081859030881715 23.3410458289978848   T   T   T
 -1.9814211475964796  3.9838077603049804 30.9764910472168964   T   T   T
  2.6703247759303799  4.5652952900176063 27.8933222663263471   T   T   T
 11.2760131648177939 10.4677198974337387 12.8547059326433732   T   T   T
 21.5734753134245061 10.7996313995464313 34.5319787705252139   T   T   T
  7.7570409141088552 11.3304537761944921 23.9371595237725749   T   T   T
  9.6479544296789772 -2.3931608147696704 26.1033831242674950   T   T   T
  1.5957394940781287 10.7794957479310050 29.9516532622589118   T   T   T
  8.5237092176588547  5.0073312446941660 12.0074569686552728   T   T   T
 15.4231536468321124  8.2895748798241229 25.1518264523786570   T   T   T
 17.4735700123500628  0.3728325811022502 34.4045078095056596   T   T   T
  5.5322884085459210 15.1845847113400012 29.6868316062037074   T   T   T
 11.8955082394169249  0.1302959650581311 27.6262551176829909   T   T   T
  0.3163212017895925  8.8114142715451536 31.8882717812606025   T   T   T
  2.3641199869354557  2.0001388373642000 26.2874214855830779   T   T   T
 16.8595347219646428 -1.9497188614809557 18.7411149603576916   T   T   T
 18.5414745758004216 -4.6997268658984339 39.9631757937472685   T   T   T
  0.5531327791270806  3.0751823588196547 35.4820924993795757   T   T   T
 10.7144835795282471  3.6949900615437716 30.7689533842501781   T   T   T
 20.5940735041097192 11.6614686726309635 22.5557585790680903   T   T   T
  9.8946006066124124  0.7295392188497557 34.5874554752024039   T   T   T
 16.4414413756423450 -0.1544209269346294 27.9688839558388231   T   T   T
 18.5373748477490032  3.8673023729733660 18.3462899662993202   T   T   T
 12.5373582057568544 -2.4683983204938134 23.9397714275058604   T   T   T
 12.8955273968503743 10.8878561016689979 31.5020387387407084   T   T   T
 -5.2007512189182181  7.4287226632860923 39.0248173621081094   T   T   T
  4.5854546736688766  5.4734533302523385 18.5801909132227507   T   T   T
 22.1986644218089815 10.4375846543603892 24.1908887340293006   T   T   T
 25.7183107367305759  7.3287327985849506 18.5597452930901845   T   T   T
  7.8909094040196024 12.9145252699674842 20.2260775241151514   T   T   T
 12.3259581743936319  4.8146737957632375 36.4221494087223618   T   T   T
  9.9481439640411153  7.1253854181165952 37.1490744708858642   T   T   T
 14.1110623377862829  9.9284134543875417 28.7397683507399471   T   T   T
 21.9440526364899533  2.7830387253811661 24.2861893363992856   T   T   T
  2.6435974341201747 10.4300178245640005 21.9932589178035975   T   T   T
 12.0279048596482596  7.0939352218802592 34.7265496374303382   T   T   T
  6.0328346543454918  4.2272333843494634 29.0420598545721056   T   T   T
  8.6941874659445499  6.6340194497661242 29.6062783387117960   T   T   T
 10.0117635954152799 10.0987554227862653 21.9616959215939929   T   T   T
 24.3249936518956744  5.4914766477471533 22.0334851630775681   T   T   T
 -0.0235007623730734 11.4595109649204794 24.1244651878738487   T   T   T
 20.0650067664001170  2.0101978889354526 38.3168307237362029   T   T   T
  9.0495086196820473  9.8562253400826805 37.8519372452987994   T   T   T
 11.6179619331121255  6.4415780078336926 25.4603533669965572   T   T   T
 17.3838449530591355  1.1143451533135897 30.4749510187808816   T   T   T
 20.5211616814747231  7.1234130172358938 22.2696870855742475   T   T   T
 13.7190371768570412  1.7761006479558603 19.7546876324358500   T   T   T
 10.3430858853290193 10.8997070494712354 28.4932025719438755   T   T   T
  3.5162875101801818  1.7729341667175189 40.8823824031780418   T   T   T
  5.8744396434604171  7.5456049012502548 28.7590070536913558   T   T   T
 19.1382139222778171 13.2295974079824177 27.6734857730396193   T   T   T
 25.0387803870803829  5.3636057342268044 25.2882312975699861   T   T   T
  8.2401691977858285 14.5301466913620310 24.7220391426146122   T   T   T
 14.1889203440495226  2.5229859418326956 33.5363293430165754   T   T   T
  4.6940003894590339 11.3436026243333394 40.5017766136217716   T   T   T
 24.7383259137665696 -3.0437560112905557 27.7255447560022894   T   T   T
 11.0530982122401564  8.5237436617238380 31.7189447379742795   T   T   T
 17.3110110154141346  0.2380205062507139 22.1415552468154182   T   T   T
  2.3853097595945334 13.3863692622900885 18.2491263805289243   T   T   T
  6.1812430899611401  1.6634875352683822 37.5112434463395630   T   T   T
 15.0237484810346977 11.3523317570424176 36.3623728248199711   T   T   T
 20.2112234574821272  4.5819462267254822 22.0982406067432251   T   T   T
 11.1642670216125861  8.6098612528458176 27.9971370900576666   T   T   T
 15.8319578995067278  1.1158200593852448 12.3679994902738191   T   T   T
  5.7753999194276071  8.4310814185393284 24.1790348351562834   T   T   T
  9.9347785157734698  4.3231491831650999 33.9776453463806121   T   T   T
 18.2112541627667355 10.5602477679376783 29.2436497723989497   T   T   T
 -1.1273855283098264 -0.7521116444375442 30.1468337991215272   T   T   T
  7.4683755067671855  4.7254069165267873 22.9328280888434506   T   T   T
 15.6679361839817197 11.2920761531253717 24.4456485013250955   T   T   T
  3.1005922402664035  6.9221431855318638 24.3389590738939816   T   T   T
  7.2900517675716623 -3.0518904918946297 34.0334844455130536   T   T   T
 20.7400982903698647 10.9479093684668634 37.6269386758462616   T   T   T
 -1.9656560060604502  1.0163744522653677 32.5749678471904502   T   T   T
 12.4458288869689113  7.2061961249296971 29.7149682396325296   T   T   T
 12.2239061020124549  5.6106694321008206 22.8957205916370015   T   T   T
 -2.0975809226741502 13.1992808957204595 16.7439763545056444   T   T   T
 10.3407302169972457  1.5543849096386788 38.5730481923007886   T   T   T
 21.3230528865516575 11.2346419466031016 29.6686365265216239   T   T   T
 -6.1442388997509436  2.0589439824908542 24.5063036121710383   T   T   T
 16.9327616787207802  9.8980070828891229 17.4736105640096504   T   T   T
 15.7321184388516713  8.2747734658155530 21.6291618685278770   T   T   T
  2.9110003770334658 10.6994151398554607 24.8907958472801347   T   T   T
  7.7278088125709550 -0.8434709636987694 35.6843964274062415   T   T   T
 21.4101708568937283 14.9540496718145413 34.5209045568632718   T   T   T
 23.8074151946728669  1.6684657598381580 28.2994590228213099   T   T   T
 20.6041533679921436  5.5813917000490036 30.5229627799358880   T   T   T
 15.1948828395453539  0.3330493674747188 24.5879579596760784   T   T   T
  9.0816449821352965  7.6208049543338126 24.9755621007391433   T   T   T
  7.4505173488039214  2.2127355574462033 34.2048009016657346   T   T   T
 22.1799602944440259  9.0422622546060012 36.5245918912398366   T   T   T
 -3.2198040783602666  0.1634871231779391  2.0478694085991549   T   T   T
  7.4990316312059973  7.2917942002551337  1.5498663899601239   T   T   T
 16.8645884713686343  1.0756408458163624  6.0554221799077697   T   T   T
  4.4464629119532493  8.3658750465805163  4.5730614220028452   T   T   T
  8.8303398208005177  1.3177976539345779 11.6914508963093020   T   T   T
 20.8655880931556297  8.6016563570063411 11.9777372863436913   T   T   T
 23.2879385520402806 12.0781585190100706  6.1961724065267241   T   T   T
 10.8192608757070037  4.8621253894178409  6.2387959935706130   T   T   T
 14.7798114086479480 12.4759956825832994 12.1889135409931821   T   T   T
  2.3283123540780490  5.3987585529839786 11.7729556897023304   T   T   T
  6.3336002540522527 11.9948031669394339  0.3776424280521555   T   T   T
 17.7571398389202635  5.1567488566411885  2.3501352605891692   T   T   T
  4.6937260978003801  0.7964274856743914  6.3050427643533311   T   T   T
 16.8236614987860555  8.0675606488554834  5.9903821646604181   T   T   T
 21.3039757810975097  1.6371712131850067 11.7356605642191543   T   T   T
  8.3291175186466226  8.8256055499743766 12.2671371306148469   T   T   T
 12.0753712252665650 -4.6313805751684161  1.7103897016249112   T   T   T
 -0.1755124272738956 10.6308283900805023  1.7353673065791515   T   T   T
 23.0891894039094687  4.8392261750358676  5.4677351360243573   T   T   T
 10.9713543597004932 11.8554476018921235  6.0171190091523057   T   T   T
 14.8229554227494624  5.4148655536285615 12.0715745206192793   T   T   T
  2.3053164499994159 12.4607450112150104 11.6051618117558704   T   T   T
  3.4077702101476008  0.2116471396322959 -0.0109807388500875   T   T   T
 23.3872514178156123 15.8805535712566019  1.0167916354940116   T   T   T
  7.9432085208951539  4.9909686770792856 19.1869911324160398   T   T   T
 19.4398887806426721 10.8367950030926217 18.2822111613469929   T   T   T
 19.8562067354179277  2.2142861499913287 31.9564284156201914   T   T   T
  7.7412129724358154  9.4927229806371969 31.3673416863868724   T   T   T
 12.2617067133921331  2.6707439124355501 25.3625562976646322   T   T   T
 24.5722631275757664  8.8931383719021966 25.6346205483854135   T   T   T
  1.2289732929753301  5.8595250292619534 31.8204070195673658   T   T   T
 13.9438634544769879 13.5198533747322287 30.8353325546429460   T   T   T
 18.9484236580731498  5.6244599624931189 25.4387753841353188   T   T   T
  5.8025430563262148 13.1176229200216845 25.9160124000647443   T   T   T
 13.0546039256712643  9.4637355329350505 17.8110180757736636   T   T   T
 26.2768655978454646 18.6176628154953825 19.5551545753650196   T   T   T
  7.7607872434496423  2.5391319220649828 31.4007235706881183   T   T   T
 20.4911302689952635  9.2668865809082206 31.0936153460997460   T   T   T
 24.6172354629264305  1.5304405683253319 25.3857645810350583   T   T   T
 12.5432728462573220  9.6756882094971814 25.5685036555721581   T   T   T
 16.8189391977450171  1.1390842793510576 18.5502478273789535   T   T   T
  4.7431375040278967 13.7841679570912952 20.0140428687917691   T   T   T
  1.2636359773532295 -1.4086766770978003 31.5883391138792433   T   T   T
 14.0102757117626879  5.3432048456119512 31.1382178150688098   T   T   T
 18.5457733808219629 13.0147265200791153 24.7653934504741144   T   T   T
  5.8498565000080296  6.0932371303279762 25.9202479501673544   T   T   T
 11.0418870078460412 14.5935965721349561 18.7863309738186715   T   T   T
 25.3515757441681622 10.7337870284933850 18.1470710092704977   T   T   T
  4.8317472860612192  0.6071331389429816  8.3512269198271074   T   T   T
 17.0902167883448186  7.9744043045075879  8.0437640372731973   T   T   T
 21.2007797194109138  1.6005931596334009 13.7877218337513288   T   T   T
  8.8940079155049805  8.5280225389878019 14.2873380766353613   T   T   T
 14.1801952854306599 -4.0846358505793274  1.5083020128886926   T   T   T
 -0.0573797861992591  8.5985546636154453  1.4731564396698149   T   T   T
 21.6637606203437230  3.5580417064965086 11.2477649944025977   T   T   T
  9.0815447578687927 10.6443342061041122 11.5684685774660085   T   T   T
 10.4577247835399518 -2.0634834434114215 21.1393876771332252   T   T   T
  6.7689468589893051  5.7407443863857015 17.6592355780018408   T   T   T
  5.6991853960554666  2.6984929250735403  6.1057313775817335   T   T   T
 17.3239857281173393 10.0497227945696608  5.3484966374934846   T   T   T
 22.2539103729872139  6.9102445596025577 11.6461568786521870   T   T   T
  7.8445996724920830 14.0115922459522331 11.2629242185573180   T   T   T
 14.3864578216378796  3.6261157162717210 18.6098759597628884   T   T   T
  1.3140149553750420 15.4705534136312082 16.9094865653066684   T   T   T
  5.2247507502018244  6.4890084453040693  4.6413509930677117   T   T   T
 17.9994665491980435 13.9972553925073271  5.3878405243322636   T   T   T
  8.1975196204607670  3.0907413877263306 10.3114763436408445   T   T   T
 18.9384607126574842  8.3699005993373241 11.1530348519445415   T   T   T
 25.1576533787125989  5.6870287608368457 19.9074735195394581   T   T   T
 14.4541395014137191 10.7866656243643568 16.9992022507748608   T   T   T
 14.8715773323827172  0.9670622614716411  5.6578280329299711   T   T   T
  4.5509373357334049  8.4963165503690661  2.4244171577608884   T   T   T
  2.1236480710798764  4.2916521799881497  7.5987089978792417   T   T   T
 14.7786181042009428 12.5294916832928038  7.8230867373390689   T   T   T
 19.3313769597712017  5.6608130214417880 14.1923988891860482   T   T   T
  6.4967085621243559 12.4170495536295746 14.4880277290189010   T   T   T
 12.0653624562486375  3.0686313254654398  0.6812767499301355   T   T   T
 23.0568795260865969 10.8943697906680406  1.1306665508951985   T   T   T
 23.2335270098531090  4.8156805617148279  7.6214681128387127   T   T   T
 10.8748844916180261 12.0218217807292120  8.0791949734669313   T   T   T
 14.6334772924469458  5.0191336518200202 14.0311417451671900   T   T   T
  2.5757906032807489 12.7548947735706513 13.6780582935072310   T   T   T
  4.5421959497679563  0.8621085676650654  1.8050914639027285   T   T   T
 18.9061889138385801 12.0827222696663341  1.3290180220967911   T   T   T
  2.7976281872516360 14.2773007085548862 10.6814943360760459   T   T   T
 15.8794274322816733  7.0900133444068505 11.4567047960107935   T   T   T
 22.1104195118286810 15.9621611152181835 18.1968028411998084   T   T   T
 11.2360346877015544  4.5966460701734801 20.0917157396878068   T   T   T
 11.3953603450943515 13.5596209241285237  5.1790545573068183   T   T   T
 23.6407227837021345  6.1797013406814836  4.0274656792885812   T   T   T
  3.0846261778599375  3.6335157419257365 11.0887746444270974   T   T   T
 15.6205493455297777 10.6400999117524400 11.4633742442326607   T   T   T
 19.6295898054369253  5.1282468858028318 16.4092805617044242   T   T   T
  7.5759021636199275 10.4415396047596616 17.8759434168605722   T   T   T
 11.8759043850357422  3.3681870697990512  5.0871266334265748   T   T   T
 24.0501282575675539 10.2130205083299295  5.7759782664823280   T   T   T
  0.3023805431279919  5.1718526785287038 11.2677935806044545   T   T   T
 12.7564122253812045 12.4517645234716561 11.8394409617325582   T   T   T
 18.7560496280242290  1.5245340818595365 18.5852483985504087   T   T   T
  4.8544278813438844 13.8669230371897854 18.0436015502770850   T   T   T
  8.7195538765167697  4.5798093834686391  5.6894486303659226   T   T   T
 21.3349340973463200 12.1611558871341181  5.5159264040516671   T   T   T
  0.5817318596311771  1.9626959039075087 13.8086581002703745   T   T   T
 12.7469587416009578  8.9243768502211296 13.3291579423947848   T   T   T
 13.6754311345666668 -1.4390209365823470 -1.4321235483872310   T   T   T
  8.9124581795216056  8.4540472055810660  2.4327320063928659   T   T   T
  8.9596100598895489  0.7010992302492769  7.4414898772625300   T   T   T
 20.9109606489621065  8.5537094816172790  7.5057462795019791   T   T   T
 20.4743921320739197  1.2058218834180296  3.1382492986968811   T   T   T
  8.2112196790337286  5.2782461320394454  1.3806093065900973   T   T   T
 16.9194812681227198  1.2851893418779674  8.1525496294069928   T   T   T
  2.6821054026018079  8.2667476253862517  5.7503225049403319   T   T   T
  8.1876406007927844  1.9671896736854741 13.6084763958710777   T   T   T
 20.8863505187082126  9.1893883096060023 13.9986679402768406   T   T   T
 21.5545139759633244 10.0970060903197627 10.8127298330349539   T   T   T
 10.6477934039396107  0.9095339757075541 11.2948265640023138   T   T   T
 15.6177412036743135  7.9574457927509146 19.2593047321506816   T   T   T
  2.4825979230702999  2.3451605140826830 17.5028317553059054   T   T   T
  5.7430662381575894  9.7984332510227325  5.4711421036249819   T   T   T
 17.7637927050615438  2.8994344899975175  5.3723996741686060   T   T   T