Cl48Li286P48S240 E=-2511.942288 eV
 1.0000000000000000
    25.1819793006824639    0.0000000000000000    0.0000000000000015
    -0.0000000000000009   14.5388225279766061    0.0000000000000009
     0.0000000000000000    0.0000000000000000   37.2126966544236950
 Li  P   S   Cl 
 286  48 240  48
Cartesian
  0.9943186874645209  1.6262579574330627  7.0493541325333480
 13.4156260077540104  8.8041509838262240  7.1796062193875745
 18.0147420213093774  1.7181770213670606 13.0692892999524091
  5.5029256117868250  9.1037033427457033 12.9063312218183324
 10.4668535654299486  1.5822642822890849  0.5413750451791164
 20.9441688659009202  9.3579813391041817  1.0498769588364767
  0.2285229139051791  3.6482673050511583  9.3064950459176004
 12.8149864662381763 10.8976693718436337  9.4839765482900713
 16.9195385431307592  2.4159631951234770 15.5339654240396250
  4.3046329384660087  9.7794685551423655 15.3362684193626375
  8.7279669652376963  3.2865656544271658  2.9805430642896575
 21.0823031879374696 10.4472635476464397  3.6361912645152499
  3.0763622952775647  5.2543372049263075  9.2760544552526429
 18.9094607209669370  5.9369670630381055 15.3574020902977058
  6.3107277008654039 13.2278113029048363 15.3754196984463523
 11.5768193072711458  5.2434399070151105  3.1771312123097943
 24.2631078647634020 12.2803652379065138  3.2637087192997036
  4.3391743760810035  3.6512021578174987  6.8875526963451241
 16.4784479027344233 10.9088094201212122  6.7943191436573516
 20.9199095710802858  3.7852660676067131 12.9787125803359231
  8.3634687490122133 11.0859207980147083 13.0368492137597745
 13.0027545152658366  4.2141396497419068  0.2683540781904047
 24.9456949618681101  9.8620206860345103  1.1823125635966534
  3.1509043315751790  2.0141376933942605  9.2874470655088874
 15.8066763662667586  9.4885516165508861  9.4808419411906524
 20.8932841332112211  2.4221336724960945 15.4346221507992514
  8.3725106483685963  9.7023180326444542 15.5033054553999552
 12.0224309580727304  2.2013603079120014  3.0554167633041707
 23.4956386156955332  8.8191330468559812  3.3974168529321784
  0.9666211158582017  5.5472577151256122  6.9561790936546668
 13.7641450421721423 12.6478434616258291  7.0964839866590683
 17.7460371140887432  5.1838712547739521 12.9414054026995533
  5.1591078157885955 12.5586705677876900 12.9357078825192229
  9.7554789929486176  5.9771556434498923  0.8527828507186568
 20.8379618801832862 12.1974126155367948  1.6972759600806600
 24.2560518470446347 12.6870716325555151 12.9537371260885141
 11.7024571982703254  5.3777224525250782 12.9096287627258022
 15.4593444507240143 12.5492172067195398  1.0873708969634854
  3.2327509110905011  4.7147991756857337  0.6006085506346460
  7.1828118603487781 12.6540930503492408  7.1747744318079656
 19.9273185722191180  5.2868088945125127  7.1056017951791981
 23.1219339468640896 -1.2089502253036746 15.4991074670060396
 10.5345865681475495  6.1483442676758733 15.2974979010635739
 14.8655995669879619 -0.1409538021754837  3.5954006927222539
  2.2522713812414055  7.4985271301591316  3.2042721217220009
  6.5657381052295429  0.3357273049868104  9.4088696573486548
 19.0869958262255537  6.9813473226105680  9.4112292955344845
  0.0443699010857522  2.3031908109965449 15.2825552690518940
 12.4914805284222155  9.4899667785206478 15.3459631854598140
 17.8720550559825782  1.5536661008072474  3.1595713491819990
  5.5171870221732302  8.7194113175363679  3.3624842171615632
  9.8183408790360414  1.4677408140744470  9.3373335569483924
 21.4797082235643408  9.2639124865384517  9.3630993778912259
  1.8641757709716287  0.1662374541648204 12.7400702825531091
 14.5431731938590882  7.3847359550586145 12.8485561262447714
 18.4584880731119156 -1.0477339300818496  0.8697565556205258
  6.2929885296963723  7.8256626734568160  0.7375461580256691
 10.5538766436991356  0.2235766922992374  6.9696973293717859
 23.2343252734003478  7.2928325240012706  7.0716972666447351
  1.9915633254630478 13.5849351339637376 15.3747643520420390
 14.6121370808895641  6.0827287266438628 15.3682973404347223
 17.6438706380748265 12.8051111198421239  3.5447872959129532
  5.0885858595646924  5.5813823395046214  3.1310666329857693
  9.2894429084380317 12.8887992684226216  9.3701543721794636
 22.2294104722996089  5.8205601428135614  9.4133455502462002
 23.9996231639494795  1.6368312964470664 12.8836353187350401
 11.4796440893632692  8.7492511879326180 12.7650255131723540
 14.8274497279659982  1.2891830896082737  0.9655482309672979
  3.8478830236153021  9.7361635943285894  1.2100450132608642
  7.3264903571599156  2.0250858335237241  7.0201304578466095
 19.8412595467907558  9.1834150173697537  7.1226589027951865
  1.0172498720697265  8.8970196080491721  7.0862349341823530
 13.5375900262690507  1.8252205660693579  6.9126517164464394
 18.0054029663224888  9.0178598961975620 12.9570524815253236
  5.4264683150720483  1.7970862724187124 12.9937516385691207
  8.4414000058177034  9.8758208472710116  1.5799597622936270
 21.0865925842033697  1.9982845999911514  1.0128318230547804
  0.3128552998465541 10.8920913211857329  9.4046112554184162
 12.7190963662018586  3.0146782506035423  9.3228997915111442
 16.8332834971552607  9.7398327070059736 15.3565894963858582
  4.2728392658252750  2.4852555082650967 15.4785164595709794
  8.5457065256235385 11.7811270573172386  3.5362955999774313
 21.2183988742187779  3.9509744862830987  3.3399443757293610
  3.1861267986462689 12.5426965064297846  9.3220559093002624
 15.5219454265832422  5.3434046610573249  9.3476662761699263
 18.9370273883896623 13.2041943577234413 15.3165951587499087
  6.2861898290002118  5.9430696223811781 15.3759856162639519
 11.9160781851352873 12.2277420129905590  3.8040701075153640
 24.2167261882490443  4.9310385809880621  3.2151474881749378
  4.3448466295952963 10.9412368156315711  6.9546097594947263
 16.9086219122047119  3.6309059885764547  7.0363194941586951
 20.6952034318544840 11.0587422314114932 12.7191110022256790
  8.4012421511863149  3.8825729422852633 12.9931566065574362
 12.6546316797800120 11.7320343023168245  1.1533653592624731
 25.2307308769497922  2.4675312506952465  1.5573406595073624
  3.3498240214335300  9.3536284701731915  9.3374420568160463
 15.8088062756282355  2.1289815291911527  9.3673785770701397
 20.8980226987630680  9.9362497677276025 15.3777766124708997
  8.2663142893714081  2.5031675399064737 15.3453534288462610
 11.1242852992681751  9.2109390561218945  3.2785483704109395
 23.4662661444738880  1.4939639534700031  3.4343561303528687
  1.0044063544106310 12.8489355776444008  7.0598739389014975
 13.3400020575946918  5.4983800546044526  7.1114636694953202
 17.6678221952416052 12.5257018923742169 12.8916369674526692
  5.1897591936534200  5.2541411687204977 12.8693163121654095
 10.5686319863165412 13.5293758300273179  1.7526679410659216
 22.1283502676831070  6.5673204314558919  0.3166504069034424
 19.8883221911041943 12.6428391593263338  7.0717049061933590
  7.3459641789203678  5.2745194215842464  6.9370323823060822
 11.7226616196451996 12.6944008977056626 12.9207879074094656
 24.3828506722793499  5.4057006730129231 12.9584252361245262
  2.0557717782110854 13.3202423647854413  1.5882668398147826
 14.5492178902578058  6.0100405754085546  1.9776518279776460
 19.0730217276918737  0.1327691711461330  9.3871429824444466
  6.5253502470633142  6.8641878649627177  9.2924334197429150
 10.5802224737921584 -1.1373360319791788 15.3683200970043643
 23.1884349455362546  6.1471914265179377 15.3458291415247761
  2.4503060963221999  0.9763406078823040  3.4251316779065197
 14.9047646169477304  8.3600819364415742  3.4213310730996005
 22.0038369824266447  1.6068989406793759  9.3563045803221296
  9.1663030393299518  8.9220877321892988  9.3623838315373842
 12.9195030561406607  2.1644487460724724 15.3039077807708814
  0.0450095383699883  9.6084268580351377 15.3435787098207559
  5.5683153970578738  1.4570425661734328  3.1718276008529291
 18.1092154291405478  8.7109139051279580  3.4065633805812006
 23.2762800048330583 -0.0964093015138133  7.1645590301109143
 10.4817907226085083  7.3472079911305181  6.7862095995763569
 14.4673230045991073  0.1224923902383604 12.7384071702774619
  2.0803498939038838  7.4094341259032470 12.9554842937932069
  7.1591496585540497  0.1650346380809083  0.2957166886196044
 18.8709602853512131  6.1110658600743442  1.8131203162469292
 21.4855622917448770 12.5789679536183474  9.3629075771386283
  9.9643036709482082  5.9781705764858355  9.1961855197069049
 14.6426008141071655 13.3990608198164480 15.3265656124565464
  1.9858624471953241  6.0663784904198446 15.4181884393773512
  4.9043504853875506 12.7786587525448123  3.2324785804035123
 17.0112992416544841  5.3969231907345723  3.6129504567633548
 19.8093649060648680  1.9220639850828958  7.0471674627122640
  7.2024293030479605  9.2345354442658696  7.0748178897939784
 11.3816220177135072  1.6990922401486337 13.0022015877585826
 24.0696220308256095  8.8646823176751735 12.8861030467013773
  3.5218499733945783  1.9966251065039189  0.8282722443882060
 16.8258539029148260  9.3388782427091872  0.7533407562065298
  9.3285122797845244 12.8253369655271090 30.1884471044815257
 21.9738020626025481  5.5512018373093328 30.2798365169345018
  0.8528381227344073 12.6579876879628728 24.1767606373150308
 13.6921277952405855  5.2271334394285658 24.5773075010369411
 17.3052850573335100 12.0486536528413239 35.8382021018300776
  4.7904902815929162  4.7895365071615448 35.7281380623124107
  8.6026719217397574 11.2121191293615166 27.8089213300617573
 21.2044572017869228  3.6869913144003847 27.9392568590127581
  0.2241758452689829  9.7253644645142536 21.9155791855890598
 12.8656267749657918  2.6069582428951517 21.9835890740249198
 16.8960968259184092 10.6193216314117347 33.7386457134419402
  4.1920361901719421  3.2156557124363263 33.6475125091052760
 10.9424699520561521  8.9506089806659332 27.8492412206143136
 24.6591101413880445  2.3391525569832190 27.9956540240820466
  4.0725574807115397  9.8052539182134346 21.8828536424913658
 16.6562246882985434  2.6945721461218195 21.8495684767169465
 20.5762003469379557  9.4421081831483225 33.6667457609040426
  7.5544852809467784  1.9402453080458166 33.5034625705552145
 12.7579157523509608 10.7209198011354356 29.9751400781066906
 25.2087454851675510  3.6765594532574410 30.4388030340594611
  4.1431500857452681 11.1205322384530962 24.2949215920058350
 16.8187882282746699  3.8168356824777274 24.3472861440986570
 20.9078983533264662 11.2031876963451875 36.0971501969222928
  7.9855318602396741  2.6765129420575917 36.0960009421321715
 11.5371623398802328 12.4461441821521426 27.8219441213294445
 23.9408705315391863  5.3786255496014057 27.9635828111730405
  2.0873478001575050 13.1389312115419088 21.8442718415393387
 14.3388944328461356  5.6975794695231805 21.7394677022837790
 19.4843570596063920 13.1928176922085711 33.9920272805568260
  7.7380015669243418  5.3518112845627233 33.8311491566449547
  9.3042161298893742  8.9880873428149126 30.1091161177371234
 22.0233131256065988  1.6131956626390691 30.0216472087294051
  1.3394244938149638  9.2373976010030034 24.5014830065475415
 13.9087939793561937  1.8749094793385643 24.4565812242929610
 19.0534227237544123  8.8237683416233690 35.9051742339391780
  5.8087070515498880  1.3500652197272727 35.4924026087289377
  7.2987228927870644  1.5901732308145540 24.3801261098509237
 19.7745280649946764  9.0311673471218334 24.2022613800326774
 23.5272994005016187  1.6062063774674802 36.3282915818948595
 10.8631584768797964  8.3018925389771461 36.2687954024099142
 15.7226467971349244  2.0319279322355031 30.0684556735899768
  2.6691990220816471  9.0377334038682005 29.7777850097821393
  6.5125410282126035 -1.1562937437668444 21.8452534820024411
 19.0805145828786351  6.1585147854844031 21.9016849295902531
 22.9283403650103104  0.2193448428948174 33.9401956669174396
 10.7518540024075335  7.7679524581161044 33.6734925256694950
 14.8585793514350417  0.1054070093512259 27.8405996173488184
 10.3877100022061342 13.4591957050387681 21.8447918134062853
 22.9426577515985208  6.2259770818723981 21.8505842702276780
  1.0254948635950398 12.5991621966609912 34.1935862291790542
 13.5438472393110683  5.2713322704992800 33.8800115495236085
 17.8972511451990393 13.0386334937613757 27.7858452888419620
  5.0482060010164771  5.7314790413947199 27.7991059270813352
 10.4325320242750106  0.1503284069665203 24.3125239703345990
 23.0764376942075167  7.4490738799361802 24.2970609092328296
  2.1561606263485409  0.8517588556605823 35.7173791496471082
 14.5551940904230719  6.7026435491588998 36.2748524821953282
 19.0345961557447794 -0.0145588513218035 30.1164646881527744
  5.8343920735520438  7.2911076554826417 30.7322135651941686
  8.3117117392856041  2.2503055211493384 21.8498374606919548
 21.0042216693870003  9.4920876701821992 21.8605752252696313
  0.5356694050553127  2.3515934266292868 34.1288067436170195
 13.7910056846957261  9.3215839411520740 34.3289631711977137
 17.8248916397501489  1.6985211888184035 27.8792390209254428
  5.0526526824967357  8.8848566497582624 27.8157363279360226
  7.5625861886508341 12.7204404421260460 24.3022874930529831
 20.1811763885414237  5.5190274951640061 24.3926198406056756
 24.1948013465077985 13.0571661735254967 36.5011285482215584
 10.7726600901491363  5.5053852268935639 35.2335103965912708
 15.6839344106819407 12.5548036052000338 29.9487992726340124
  2.6749658259050593  5.5152178853663933 29.8237932949478228
  9.3821114892228739  5.5937065187205475 30.0981149652385049
 22.0061750883575122 12.8894808769413505 30.0811142927787429
  1.1774824400290653  5.1309857364445977 24.7079561285864280
 13.4744258390088518 12.6125229047521632 24.2479795235171167
 17.7393389975525793  5.2962714844525935 36.4055357399628221
  4.3756267424573645 11.9109837858162759 36.1545451615444051
  8.5956992113387454  3.6464746794260505 27.7799300914643226
 21.2860314500981609 11.0738911714302173 27.8319831303157095
  0.2175348384675970  2.9347800677718574 21.9389431677605273
 12.7774521030646504  9.7738035439484818 21.8455558974975936
 16.5784147682207106  3.3892300768602466 34.1447941800018953
  4.1660298425878635 11.0954520484543355 33.5634574777635564
 11.6072217018638391  2.1967680208910663 27.7550163084681571
 24.2541557919304331  9.2519030743765676 27.9617769339410351
  3.9839060842750742  2.6330175182282805 21.7908456822505379
 16.6845019526576372  9.8455104225377976 21.9162640111531353
 19.9856439394817151  2.1342841087492204 33.7137266700196037
  7.7958768475656566  9.0321259804042864 34.0544727891446186
 12.7919489362806491  3.8105611048614283 29.9860011576182472
 25.1590860131425877 10.9235233925201438 30.4377248708618566
  4.3026870692383214  3.7966377926104480 24.2404862200685542
 16.5968527233245027 11.0366972541590069 24.4699204432927573
 21.1280449432175850  3.3335488654425594 35.7312796758651743
  8.1495436878769407 11.2659461821653810 36.1148830210361922
 11.0210072235425312  5.6953261553500489 27.8506291141316673
 24.6352432575669305 12.2368606999135530 27.9817490106913418
  1.9217419189242211  5.8994738614583149 21.9541749495209011
 14.6557958148010385 13.1099380586299024 21.8511990204809372
 19.7075844576015555  5.9019590913821816 34.1170399627772767
  6.7493375692357471 13.0655812360474499 33.9838884828682950
  9.4037278465661878  1.6578767750704333 29.9455623450741513
 22.0100508300735491  8.8661834219893088 30.0822985493590238
  1.2417843134321975  1.7299844966323970 24.2477308346332912
 13.7758218622321529  8.9812660462866170 24.2440503190310324
 18.8977266857354955  1.6785641383177254 36.1735309248522583
  4.5590396206925305  9.1928920903089963 35.3947493860716094
  2.9525116918329664  1.9224311306431907 30.1524919882046945
 15.6468604415925050  9.2316582456894647 30.1956241996624684
 20.0463065691803841  1.5396067543949521 24.6914824584470125
  7.3371370354847114  8.8103185051094179 24.5161775518948595
 12.6048342203166328  1.8202917543351369 35.8962514171586733
 23.5042135908961249  8.7704454950446600 35.8814230598453179
  2.2699193850449828  0.0182155363960099 27.8536411625146272
 14.9821591142272403  7.4174805851500381 27.8756435481896077
 19.1299025571362513 -0.7213567637081505 21.9687419459185094
  6.5954735019102761  6.0256820874674695 21.8216543630616790
 10.3809994446672320  0.5763135127134751 33.9914187369185328
 23.1322343979787419  6.7351941196098490 34.0632835917986156
  5.2497184055914277 12.9111012890200598 27.8653168361015631
 17.6810041936438296  5.6656513551330177 27.8644747608830556
 22.9331460752043554 13.5566086798200001 21.8767684523106603
 10.2305884805740419  6.1748978747358327 21.8507134744302292
 13.7385170178569602 12.6291476446559585 33.5002646794988479
  1.8875158258232561  5.6802888172745831 34.2081534390135786
  6.3939541853883517 -0.0773663964484556 30.1169002592403636
 19.1167874647306348  7.2208346930226899 30.1213914809321786
 23.0936695747723810  0.1165033535579994 24.4813019384501764
 10.5266949676124284  7.4605956171422401 24.2305724326794696
 14.4645303367725369 -0.9082792849321319 35.7995397323992890
  1.7990238236588236  8.2577128523788090 36.2903644581833831
  5.1835564710124880  1.6373364315600611 27.8713949464814696
 17.7364360998249282  9.0286525871110932 27.9241442726312314
 20.7926001789055626  2.1913971854137881 21.8960120702391485
  8.2315346563156382  9.4447503534014174 21.8548506937052736
 13.7492375879768129  1.7067696435405626 33.6231564259309224
  1.2299565430270094  9.0090448228948024 33.8519788472513170
  2.9312691700272113 12.6082180549894343 30.1360546766607769
 15.7192252085699593  5.3589135496954325 30.1983528334365907
 20.1620581261867962 12.5821400506654406 24.2339627543534597
  7.5919192797256096  5.5751056615774610 24.4859746533114802
 11.4814054023174990 12.8191527132160950 35.9155680331775287
 24.8870854250904259  5.3326557902343410 36.3195168119463219
  0.3807161264409558  0.3184971549439444  0.5102009272255880
 12.4178528414026559  6.7937548314722420  0.6789937803628933
 16.7815321957500672  0.0298657236483296  6.5534983710517682
  4.2099917307167116  7.2618153156312566  6.3159747032198030
  8.4018921156173327  0.0238206895191584 12.4906537498684447
 21.0031074090400658  7.2713040654644869 12.5375397393039325
 23.1473948008596544 10.8936654479833503  6.4668514956831817
 10.4614296497175019  3.6682225939505519  6.2264245942953229
 14.6725953330434109 10.9035873871001794 12.5820501754240510
  2.1320744057519199  3.6332653382917846 12.4368440282669468
  6.2443512347145900 10.4609151759997019  0.3954244302620588
 19.2949879443804271  3.9130368536333742  0.6465041283840031
  4.2633289010071405  0.0155512617607782  6.3276587882505275
 16.7287652981031449  7.3205783421797834  6.5052753242166839
 20.9842513730267548 -0.0113015565625103 12.4752214309586513
  8.3833927003126085  7.2724671642853478 12.4276228286438553
 12.6774810322650886 -0.2046569830204836  0.4669545811199603
 -0.5269260398376400  7.4105671602985241  0.5950915393892842
 23.0713534477472173  3.5969269966401214  6.4005983914820472
 10.4853660287091142 10.9833107781267358  6.5488638389860654
 14.7158259722509772  3.6208736736494500 12.4775867293992793
  2.1306750304266631 10.9147824998287213 12.5020844970729890
  5.8061366691961576  3.2012344043897505  0.4425222642375484
 18.9073863262703767 10.8992040150362293  0.4564408096927294
  8.4012916520517607  0.0359070331280648 18.6003178825894508
 20.9936292517956318  7.2897117238271933 18.5935930143925781
 25.1819111337842152  0.0123463902179296 30.9987821285433895
 12.6540659082238776  7.3348798832614701 30.8333223470215536
 16.8232912486310084  0.0210368970041536 24.7060891841495440
  4.1892149107520344  7.3003541831339929 24.6273196231706670
  6.2558961984103405  3.7041898026917615 30.6442793632832569
 18.9388183061279918 10.9862927539823669 30.7853380984635514
 23.1453438603865571  3.6622728044969999 24.7848061341008830
 10.4846574253958558 10.8906326983275630 24.6939423818717678
 14.5632946985727418  3.4463820270857268 18.6250663255007254
  2.1462850382907082 10.9154962967537532 18.5869534744940594
 12.5327207593390995  0.0405974662571103 30.6529608998739498
 25.1451577514111548  7.2221473236027931 30.9750566256568263
  4.2275882029962863  0.0036082853222625 24.7098655675203531
 16.8220758022957746  7.3021514405804551 24.7334531487499909
 20.7947033764257618 -0.2510788640338643 18.6027770058142430
  8.6093235612982344  7.1636865335675566 18.5812234073077498
  6.2432287447533641 10.8593376872045759 30.7745379613073382
 18.8592634506381636  3.6751113646151610 30.9071901000370488
 23.1517715237832675 10.9014406414394909 24.7766955333395167
 10.5141497534472794  3.6580355722861477 24.6658019230244037
 14.6619538850914797 10.9311552991917456 18.5907131936440386
  1.8290764457778330  3.4111810333814758 18.5967221270342726
  4.3070543419450082  0.0164678763150393  8.4175121152608963
 16.7535576167194158  7.3440399961392870  8.5858895260201944
 21.0003713145017059 -0.0108092880415893 14.5227996984992433
  8.3692947611680122  7.2439561565371386 14.4744373493427450
 12.6339290791579373 -0.2328491271536998  2.7496448595085932
 -0.1011421100292537  7.1526320622418584  2.6971972845002399
 21.8343772513111958  1.7430123277267164 11.7611334352093913
  9.2396160087697705  9.0430458462076722 11.7727430246498823
 13.6676498522207375  1.8935089907285458 17.5028485125728075
  0.8259165806347680  9.3602134454816870 17.7517583024845216
  5.2226855980634292  1.6803372530898510  5.5971775473237839
 17.6946903436705654  9.0186726609593073  5.8036375016047916
 22.0955233141344856  5.6533430694386837 11.8462985639930878
  9.4640624331189542 12.9228182595745640 11.8020975953264422
 14.0358377404712797  5.3928533292770693 17.7258265482342914
  1.4493319817587360 12.8203225185774095 17.7476538331921105
  5.2001348632311961  5.6250583529345866  5.5692018594929493
 17.7080842941173984 12.8211829118412659  5.9166274464307742
  6.4526353375420875 -0.1090712192450655 11.8019727154931644
 19.0566844753648006  7.1007079764695646 11.8432270053544304
 22.9570723862677539 -0.3776661276476593 17.8691816323439632
 10.3392731489199097  7.2696775762504924 17.3620133069390157
 14.8037917002591684 -0.0431227169310854  5.9237761616074289
  2.2686532229569578  7.2723816592292305  5.6414090358079889
  2.1172928410880654  3.6110992444696826  7.9219528778095114
 14.5415779994905741 10.6882143292696732  7.9977733685133146
 18.9147574896816195  3.6042094504985034 14.3266502314187214
  6.3052032904116269 10.9223819924411440 14.2973304688302321
 10.6723246837998502  3.7398637663984569  1.6051762249340082
 22.7972108087496288 10.7140242792713050  2.0436081652087870
 23.0860217791025768  3.6512079700742412  8.4862031643366933
 10.4582335616123654 10.8450787334831347  8.6174115697907805
 14.7495964884996642  3.6491156703755041 14.5268065315117703
  2.1402137379640944 10.9590562811607182 14.5548944255903763
  6.3616591058009462  3.6431606611325424  2.4536331219966412
 18.9327227220656731 10.9122794652162067  2.7550629886523650
  2.9950424960560547 12.6510294737895688 11.7664033245615176
 15.5863612220249035  5.3639929128584756 11.7637156621620171
 20.0446816151426646 12.7433692878786573 17.3545517571127057
  7.1909922252761840  5.6811203755142614 17.6736199179429718
 11.5135077208546228 12.6996359521247992  6.0501842344979639
 24.0064331559294821  5.2600500126891063  5.6389319729959038
  3.2003645159595631  1.9999473668078960 11.7372159992523883
 15.7454402018273516  9.2600175558016016 11.8861419345645452
 20.2071202688165670  1.7222976408143502 17.7335056238509132
  7.6707240948946476  9.1591510148220312 17.8212718945567978
 11.4847250319195417  2.0247203475086319  5.5013740071772999
 24.0734818930998280  9.2107468917252007  5.7257246036429104
  0.1820254906411601  3.5032599517128200 11.7395119458076138
 12.7160914807113503 10.7223807642478057 11.8867269986062265
 16.6996387040235170  3.2357640093542912 17.8782027639770931
  4.1511838591383352 10.5600764715514135 17.7363453063439636
  8.5436666069051945  3.6079362367080163  5.4788062807170235
 21.1680446340797985 10.8934594702778806  5.8830636388630433
 -0.0317530136783753 -0.0068335018736565 14.1997563535227069
 12.5951868212634626  7.2082509990457355 14.2030801212155531
 16.5709166467805638 -0.1626050771085032  2.0453558915581449
  4.1862038927448380  7.3714515993864316  1.8037694107335416
  8.3961736156908788  0.0531706590070442  8.0189321517690786
 20.9832259603997748  7.2720452380943508  8.0638482159335521
 25.2879560596360768  0.0312993141500227  2.6892288098164445
 12.6867137377249399  7.3500362895579414  2.7620196283304304
 16.7981360481266364  0.0768140836556000  8.5838855985285161
  4.2257453539750340  7.2288738577103366  8.4004871202161411
  8.4020929093564956  0.0277012310718218 14.5520408607113740
 20.9982187479089113  7.3052654003102147 14.5910711190710725
 21.8564948633876490  9.0102064758124456 11.8142074363344580
  9.2519711415255532  1.7531863170648061 11.7595178230246216
 13.3479386753974740  9.3780984955703666 17.7742882505041742
  1.0925918744638166  1.8703841165090311 17.3387512280099116
  5.1601819606397958  8.9750626848416353  5.6774750938916814
 17.7079854771803831  1.6391684028397817  5.6543586359590314
 22.0398848586889144 12.8985759063918337 11.7583517201957903
  9.4837727313683384  5.6930112818542282 11.6725057460698753
 13.9819206567948005 12.8353480717136001 17.7255391639673867
  1.2579493828495663  5.3970070548323577 17.7119838274888544
  5.2342711378330344 12.8689331901969517  5.6409923350820907
 17.7631194288312884  5.6722873506093210  5.8372175526660515
  2.3197133432007062 -0.0091077709498145  5.6709438279662523
 14.8135121304927235  7.2554232983772993  5.7622044168952735
 19.0334542274927649 -0.1332256682038636 11.7941184067315188
  6.4371653372264284  7.1516271179533231 11.7166535825262894
 10.3982205708352176 -0.3413253508561972 17.7629665907700378
 22.9956476188101391  6.9115963359057613 17.7481329873046541
  2.1661996172477975 10.8890633129834704  8.0007205953030898
 14.6477340750798906  3.6506404315706700  8.0062545672649001
 18.8359246288620312 10.8777877439194821 14.2170134043215768
  6.3015821145866235  3.6485505890955068 14.2682663935066287
 10.4587878589317729 11.2018516301071447  2.1768743342937009
 22.9948991348537071  3.2585998970545025  1.9074106454847006
 23.2335743364948080 10.9279072706823275  8.5296395547434791
 10.4121306033238099  3.6973874703476759  8.2936593305947373
 14.6364198162382593 10.8690129046394937 14.6452784466361781
  2.1173968878050031  3.6334679589201366 14.4829933402361490
  6.3645673847561977 10.9067553855754493  2.5808243317829040
 18.8163410884641245  3.8024686447273104  2.7577792694731396
 24.0814241440337646 12.5593218978761616  5.6943610219414813
 11.4104117694680376  5.3673817712176923  5.5440884401477453
 15.4908999594720438 12.5964409797047505 11.8107075526180036
  3.0018217568225984  5.3713697392117377 11.7167594293019501
  7.0767079376224205 13.0194564311505996 17.7684080399476088
 19.6576292144137774  5.7439678155576841 17.7682441360100185
 24.0264626350398771  1.8954078335989677  5.7537397636473813
 11.4555515672543251  9.3732077802388662  5.6951821214319489
 15.7931240197801266  1.9963629796191000 11.7906427702183567
  3.2085504377126837  9.2889925803972879 11.8031411445558856
  7.7192204232866422  1.9485640710090761 17.7590075763971065
 20.3251131801822815  9.2051223721127098 17.7481115685580235
  0.1838273794621312 10.7812858123670008 11.8170172458854754
 12.7704439958312754  3.4813795544098833 11.7828488709438233
 16.6590690440862019 10.5528838545116184 17.7612758682364706
  4.0166097160789507  3.2678658378131518 17.8505084568598100
  8.5596375662286555 11.0475472320754129  5.8357211728139191
 21.1240580703384246  3.5862109696217206  5.7267761746459955
 20.9770091559344927 -0.0026294604186149  8.0309430209837096
  8.3686288618440070  7.2742953030596773  7.9213713776995665
 12.5843607581944976 -0.0319098592406915 14.2235046634721982
 25.2211856648381847  7.2630418645671018 14.2704073377459508
  4.1399631832822088  0.0121193440741306  1.9379278920429237
 16.6886965145867627  7.2332701898132958  2.1344530361728911
 12.4761652313291282  0.0649119537872887 28.5661641480467026
 25.2325281387001823  7.1910322689639488 28.9220372108573187
  4.2192739021316044  0.0172473362003486 22.6554360884568027
 16.8094802290234036  7.3062034211397267 22.6900231740449030
 21.1542601119241169  0.9111676253931736 35.4345488544483942
  8.9786819883480486  7.1075240202036891 35.0602801648345945
  5.3173639846914833 12.9275420269478349 25.4210318611009427
 17.9023391586659244  5.6866244630147111 25.4573317768566305
 22.3442727818896927 12.9827217643868007 19.5140202951624069
  9.7219954901192782  5.7080793668583762 19.6094263860129274
 13.5188438302722940 12.8491716241772984 31.1637406682855271
  1.0028023873780960  5.5828262496277850 31.6963040653647141
  5.0791659525414392  9.0437300564177150 25.3513159945995028
 17.7193933149990315  1.7396457298700079 25.4529268011694043
 21.6212292581421011  9.2255944191519585 19.4336105761175091
  9.0163357157369912  1.9584881905827425 19.4445353657265620
 13.5673572313126591  9.0122119058653087 31.6202827104848190
  0.9573121642301302  1.7002289928204699 31.7038089557285012
 14.8873462316705876 -0.1171932472342263 25.4332089242008763
  2.3006994001098393  7.1993950266879230 25.3745948772229291
  6.4215348967890540 -0.3943976338879055 19.4501414096352754
 19.0194260803864807  6.8677298958293305 19.4584570309491021
 23.1900529223228098  0.0027050122546650 31.5461831936910038
 10.6718595938567464  7.2860185329782237 31.4067043853350363
 10.4580952666243423 10.8952544692792532 29.1849314663025119
 23.0959835673299700  3.6381255912781776 29.2872765165185172
  2.1289673507809264 10.9321401960429565 23.0049154332164179
 14.7495748847742441  3.6670719224081676 23.1607201246371801
 19.0680977476781415 10.9452124654257119 34.6846364028389829
  6.3538768805536003  3.5627150460508723 34.5867330080498192
  6.3412550170566151 10.8537865470537955 28.6896913610874726
 18.8543185282853791  3.7457455640335584 28.8180915819699415