Li P  S  Cl
 1.0000000000000000
    25.1819793006824639    0.0000000000000000    0.0000000000000015
    -0.0000000000000009   14.5388225279766061    0.0000000000000009
     0.0000000000000000    0.0000000000000000   37.2126966544236950
 Li  P   S   Cl 
 287  48 240  48
Selective dynamics
Cartesian
  1.8401146324222513  4.9478665773733637  8.5978574681597628   T   T   T
 16.5079153773361327 11.1155654267784918  8.1714960966190127   T   T   T
 17.0187150467308257  5.1349902824274878 13.7425218608420909   T   T   T
  5.8573493074827585  7.9073608684233720 13.9950717832701592   T   T   T
  6.1884967429155209  8.5984174571736176  2.8752591599143655   T   T   T
 20.9904277535640560  9.8679152737055595  2.9820525715116637   T   T   T
  4.2946069300359611  3.3174737168087653  6.4393678897568414   T   T   T
 14.3997188071484619  7.8806909471113480 13.7681617339149991   T   T   T
 17.3497682970868894  0.0632864309157336 18.2059861111862666   T   T   T
  6.1786220399994898  8.7927155074270971 11.0494536538303532   T   T   T
  8.8720521488972253  2.4347430227363120 -1.5433014155457929   T   T   T
 21.8601238869878429 13.0590097276999160  8.2248485711325614   T   T   T
 -2.1082928623511781  7.2641022903670045 13.8121528692728823   T   T   T
 17.8104138570799293  9.6024847310238535 11.6260222032628384   T   T   T
 18.6404920630314663  2.6941484646773670 16.5715396657145497   T   T   T
  5.4477405476674488 11.7784677212883437 18.4191605082816210   T   T   T
  8.1561912006319819  5.0143006594680291 -2.9774544075454541   T   T   T
 31.5280233067485298 15.7505581563042938 -0.7855796432967004   T   T   T
  5.6025712870690292  0.6908887154128950 13.6122048521726082   T   T   T
 14.5968230477579581  8.6484750121899481  9.0980136373513965   T   T   T
 17.2099656632539677  1.4189903131813801 14.0607108394978813   T   T   T
 11.6963187939780155 12.0812396650940137 14.5284414314327819   T   T   T
 13.1384999085338503  4.3228648224245916  5.9625585879326701   T   T   T
 20.5226496222142316 10.7313052481381739  0.3211697610173873   T   T   T
 -6.1339545009663574 -2.0013051662328731  2.8353562512779349   T   T   T
 12.0802699467758892  9.9667030627668112  8.8449458557037062   T   T   T
 20.4989555972472104  4.7112569949961962 14.0995953934876432   T   T   T
  6.4590451370629500 10.4686892526679287 15.9576261474980647   T   T   T
  8.8034876796147650 -4.8854571192083016  7.6055903654621497   T   T   T
 19.2129065890085045  8.7517947232623179  6.4597454526038005   T   T   T
  2.5094587767692671  2.0532725391898343  5.0561128563746003   T   T   T
 14.0584750425478138 10.7896820186685467  5.3426211323858013   T   T   T
 21.9977063108627036  3.0823265533476887 18.6590206548550732   T   T   T
  6.5161011501079740  8.5568035767066384 21.9324855097746756   T   T   T
 10.6794024061201416 -0.7958716351909414 -2.8732331213174023   T   T   T
 22.9214155571813194 13.2608765975951925  2.5268557125826381   T   T   T
 21.0673531900028621 10.7618334634963269 18.7537091416741433   T   T   T
 12.0969595528070393  9.3298452061922887 14.2767677370426878   T   T   T
 13.3645894716966893 16.7100137517340954 -1.0354615923336468   T   T   T
 -0.4575331502486417  2.6523933158468203  7.9058699574173712   T   T   T
  8.7851045664345460 22.5544206124246358  4.7791135431604292   T   T   T
 19.0458323569193411  7.5997207025993658  8.8858831670267602   T   T   T
 23.3414665344167673 -1.1373141524389885 14.5407970152715222   T   T   T
  3.4163614931633060  6.0193870010546906 18.7806211153612033   T   T   T
 14.9304890818474192  1.5121291429069454  9.1810982784701824   T   T   T
  0.1234442703969872  9.7671405029891467 13.6062927353690490   T   T   T
  9.2637023091502346 -0.9941157646300867  4.9722060509473165   T   T   T
 24.7031295124515964  4.9205678428065625 13.2204835276415302   T   T   T
  1.6433008551954398 -1.0424388239570654 11.7993238223082741   T   T   T
 11.2752472425771835  8.3087180458257741 11.9583424531527083   T   T   T
 10.4579460398227226  6.4341925280350152 -3.3124633666110639   T   T   T
 21.3484655201903166  1.9151540098479498 13.5794356180912636   T   T   T
 11.6732637295530441 -1.1218581981408171 11.2352544944061528   T   T   T
 23.1442770277671244  6.7001627257742138  6.7305073595835454   T   T   T
  8.6244610710216296 -5.7612851056280929 13.5120165877065048   T   T   T
 10.1197082108573557  5.5341054045916271 13.5592582460112681   T   T   T
 17.7363370321496063 -4.6348850596968161 -3.7001269438238809   T   T   T
  7.1845808498271930  1.4298629116636330  5.7964774173981866   T   T   T
  6.4189331647849466 -1.4421092057680216  3.1064049871033275   T   T   T
 19.7735275823343741  5.5165287910267180  9.4017517662827306   T   T   T
  1.4210231090739112 11.2351611659622819 17.9299656062620052   T   T   T
 19.2124351161597957  9.4801324098287054 24.2037521735518908   T   T   T
 15.7497549948537401  7.8370840585403876  3.1469737598423841   T   T   T
  0.7075487558486624  5.0823446375592090  4.7772818136020057   T   T   T
  8.5707599749829733 16.3500714576015369  8.4248267014064115   T   T   T
 17.8404358410708639  2.8142989188040617 11.7612161400077468   T   T   T
 24.2018539392875240  1.6963084932068457 14.0095760762808794   T   T   T
 12.3392253302276593  5.6171185233260719 11.6403644636104300   T   T   T
 18.8750208880597441 -6.5139269438046448  2.5346316238947213   T   T   T
  1.1063213489748080  8.3774293340347974  6.1319338160131309   T   T   T
  7.9990264336405943  3.1714409420701450 11.6022681272589043   T   T   T
 22.5495954401500285  8.8076344383706022  9.1765748325026379   T   T   T
  1.3217759064859194  8.9974805619404385  8.9582621747657107   T   T   T
 12.4881092120052983 -0.5459452638896188 16.0894748391785960   T   T   T
 19.8576325184714690 12.0617184163668441 16.3824927753319862   T   T   T
  5.1583573706840156  5.1881170985182745 12.3430255391146790   T   T   T
  8.8060625189871722  4.4015397402336616  3.0621888846874787   T   T   T
 17.3186034508957007 -4.2067289336652411  3.7039167089535523   T   T   T
  1.3085634125974672 11.4475647575789807  5.0098230592844599   T   T   T
 12.1433206279583725  3.3936235472244580  3.0135847931969697   T   T   T
 21.9371829995635181  6.2099050558803102 18.2796958666475362   T   T   T
  6.4017776028426958  4.4986800996548126 14.4608471820866633   T   T   T
  3.4260436912640704 13.0470514390015069  2.7541172038067199   T   T   T
 22.9375791596993466  0.0524443614457030  6.0849134828032962   T   T   T
  0.3232984863135799 11.9033270559680915  7.8404938806812350   T   T   T
 16.6943777402875000 11.0335297887652573 15.2165913324719764   T   T   T
  6.3225516638555055  2.9520840380886266 20.3570916305117784   T   T   T
 13.4082269108746956  7.8789892051339150  6.8673036869481470   T   T   T
 26.7425762192228120  3.9454740685235574  0.5485386557536525   T   T   T
  4.6284644061359410 17.0447099848259569 -4.3803548863195498   T   T   T
 15.0733570454636876  4.2773481499160368  8.6510769897515303   T   T   T
 18.5911621031713707  8.8351771114708946 14.6508176991435040   T   T   T
 -1.8098704706539281  0.2471652447393240 18.5319771582097204   T   T   T
 14.4883242875437190 10.9709843160515703  1.1351388556496216   T   T   T
 30.3897254422752852  6.6076887473301813 -0.7857798813063261   T   T   T
  2.8311970253989460  7.9690472509133308 12.9654524620148592   T   T   T
 12.9539787269300213  4.8890952257838087 15.3545446776440802   T   T   T
 19.7284751844522930  8.5177761738879525 17.8861427234578088   T   T   T
  2.7163408793312356  4.4318621074166265 13.1735678036864083   T   T   T
  7.8203925364902194  5.7598828609142592  8.8971625956784752   T   T   T
 24.3809763781189375 -2.1342163243580647 -0.0761970361821713   T   T   T
 -0.6364009803487012 10.8117757543297301  3.0105226489843253   T   T   T
 15.6453474853430095  2.4972881702456284  5.6273918914363996   T   T   T
 19.9643796482704232 11.2502425729991131 10.7269699131044298   T   T   T
  2.2792308758196111  1.2201837188211566  8.3871849894287429   T   T   T
 -0.9600849823832360 17.1113348445461000  2.7803296665449531   T   T   T
 17.4697856400232823  4.6220292362072675 -0.0779158971850225   T   T   T
 18.6934586570946522 14.8245301435314687  8.6929394923762491   T   T   T
 11.8381545186551058  8.6599454851610602  3.2437189725715783   T   T   T
 10.8961710908900837 15.9478623263071242 13.0619137190480803   T   T   T
 25.5661889948720784  7.1332978594931653 11.3216788291832611   T   T   T
  4.0471671571630718  9.3441238195680398  6.8359656287273074   T   T   T
 13.7003573723472591 12.5709236805332480  8.0857246980975486   T   T   T
 20.8341928177808313  2.0825847338385701  8.2450538540453078   T   T   T
  3.5896856368867933 11.3945140340309443  7.9038088397166764   T   T   T
  8.9444648542563314 -2.4202133465415274 13.2464348756596983   T   T   T
 18.3894993175919836 -1.4188161951552067 13.1589098505849229   T   T   T
  8.1479791889623971 -5.1785205482380912 -2.0947635478648907   T   T   T
  6.2901217592537053 14.6048202105494198  8.0729450875161177   T   T   T
 19.0267168597367444  5.4730839093898345  6.4968835232811193   T   T   T
 10.5437565073041206  6.3403803778211572  7.0722448334109576   T   T   T
 15.6992757119171191  8.1744041820683222 18.1478572188270775   T   T   T
 -0.8654401597293107  3.6871618605787151 17.1803140381916464   T   T   T
 14.3112785446568758 -0.0670766686488210 12.7240198566850022   T   T   T
 21.7611067572164743  1.7710923104921956  2.6728077864183604   T   T   T
 20.9523268635520665 -7.7110387533265685  0.5903128933238353   T   T   T
  6.5399451202083787 11.2889835464875574 11.6542681100960621   T   T   T
  9.3703040700695386  2.4215689310768260 16.8968137726138572   T   T   T
 -4.1605260542413571 10.6422089254869086 13.3151391896083275   T   T   T
 11.7631546081365368  2.0020746004648000  9.1281868851344967   T   T   T
 21.5025368800807755  5.2591622271871259  3.3385209815496637   T   T   T
 19.3414106857536154 12.4198795065409797  6.5784522957786944   T   T   T
  6.1210822878398119  7.7547446526461927  7.6896534588492873   T   T   T
 13.0222119341831437 16.4206539493616184 14.9791571974859448   T   T   T
  5.4217877203757174  2.0684271697801564 10.9039480600115830   T   T   T
  8.4455781155612648 12.8834133408166984  8.6383529176838039   T   T   T
 19.5612652299553744  1.4731443589850395  5.6178096959999113   T   T   T
 23.7141190611277466 -2.1735539863874402 11.9709785141959113   T   T   T
  7.3411668083430266  5.2692943532433594  6.1787698516310421   T   T   T
  7.0185396532304214  0.6010815978041143 17.1977632782660486   T   T   T
 25.3543313470041554  7.3103789045538869 16.1417235492059383   T   T   T
  3.9361841934266368 -0.8925633468221783 -0.8886665423334670   T   T   T
 10.5437140680191916  5.9531301122920661  0.1124732418822071   T   T   T
  9.5212016401505970 17.5228371478991889 27.8817974188015967   T   T   T
 27.7595363528715993  2.7610965975421187 30.3485540222581065   T   T   T
  2.3519029497268282  9.2559828542984626 22.7145848373901060   T   T   T
  8.6178938598509625  5.8862749778201442 26.5919626276264260   T   T   T
 21.7873151136396999 19.1888749625695425 35.9899125798363997   T   T   T
 14.3287155644933062 -1.5958908394940787 34.3727451748196984   T   T   T
  8.5751564954106847 12.5608138598034529 23.4900023928015145   T   T   T
 24.4342901486041129  5.0627511962906731 28.9451660083765852   T   T   T
  1.8137196572542349 15.5900148520729154 13.6997692916176845   T   T   T
 11.2222470466172783 -3.3721408395401378 18.9840886605655115   T   T   T
 16.9771788754832613 16.4828680883197087 36.0196595272178968   T   T   T
  7.6084395684018249 12.9897467574613614 37.4957060906278343   T   T   T
  8.1911887153490657 14.4494158855875554 20.2966873601306261   T   T   T
 24.0747011575013659  2.5033777060384752 32.5462498752327178   T   T   T
  4.1613834820564950 11.4331709190887771 13.9588706459987062   T   T   T
 15.5744745429132756  1.1980385821522876 20.0974137522663483   T   T   T
 15.7888064376418278 16.0756728741840575 39.1791293824929312   T   T   T
 12.2524775008497304  1.8583017952315253 33.2246978840531710   T   T   T
 10.0127551010524929  9.9754459083863800 31.8013747047144477   T   T   T
 26.8587929493641866  5.8761072588343799 35.4480067900413474   T   T   T
  4.1881300838919415 11.5307000951416398 24.5765166015147010   T   T   T
 10.1759157999381742  6.0660891872251694 23.2643782132381070   T   T   T
 23.6278287676515575 20.5549703877556631 37.2607885088684583   T   T   T
 11.3967100415316498  9.3777464308568810 35.6124295647709062   T   T   T
  9.8831181698826835 13.2753956535835229 31.1466826329966402   T   T   T
 28.3514270169554834  5.1286722823803528 25.9426154423257138   T   T   T
 -7.3692603065660469 18.4310740540463485 20.6872839430485413   T   T   T
 12.7884934957025216  2.9130511727605057 29.5493730666344518   T   T   T
 22.1032304217070887 11.6376615118252147 28.1295178487117745   T   T   T
  2.9514305500317484  6.7895439059931650 31.8976101202020459   T   T   T
 11.4393588430645607 13.1214168495292647 28.5099322464247464   T   T   T
 21.3163251782804721  4.9370299471786261 29.6999175472555521   T   T   T
  0.6265936609228592  7.8802370230266883 20.3287592096391876   T   T   T
 14.3795445279330654  7.1653557755232882 21.1250552121032982   T   T   T
 23.7940370044082812  9.3990830582428160 36.8581213646225763   T   T   T
 13.2777039504263161  0.6033499425408944 44.5266683205828429   T   T   T
 10.7619142437979978  1.4368798917627721 23.4203084299597712   T   T   T
 18.9585540135317672  8.1280144669552392 21.7272988528946698   T   T   T
 19.2584028144512445  0.5321884057050340 38.2499551043569852   T   T   T
 12.9565705431561984 13.5409100085918084 36.8962630003196921   T   T   T
 16.8352952566591654 -1.7422445254482273 36.1691800241278116   T   T   T
  5.1858082883794312  6.3913068503392401 28.3646240719999021   T   T   T
  1.7976162616055438  0.1884585451431123 23.6099529380383579   T   T   T
 21.4214886235777513  5.6860438416775532 23.9268965091793717   T   T   T
 17.7845607905256600  5.3918322541549326 34.2479986650403418   T   T   T
  7.5576724004184657  7.4714850277901528 37.6818008916765734   T   T   T
 16.9820267363538235  1.6522987724088420 31.9851361039866227   T   T   T
  3.1358112599483650  9.6456611947567730 30.7055964711634388   T   T   T
  6.9893659892300883 16.8947177340892409 22.9655212649883822   T   T   T
 14.5556823117156320 11.2240086166841273 22.1161685570748645   T   T   T
 -2.0452862034631254 16.7140782788892217 36.1910343788632076   T   T   T
 14.6598380023593613  9.1109148828834243 34.9758578812433285   T   T   T
 22.6201896315337621  8.3180723613428817 29.8023470256437939   T   T   T
 11.2034821747582622  9.6948152699418984 28.6648385678445585   T   T   T
  6.1471619260044879 -0.8216433434161954 22.6526257610548001   T   T   T
 23.3858735701787310  0.8026303251792224 24.2703271456189178   T   T   T
  6.4480807957286022  0.9073203908501197 39.6662173912368985   T   T   T
 14.4979838173254372  5.0277054059288462 34.7398082797048460   T   T   T
 15.5919133356264457  1.2929798871039702 28.5076421029069031   T   T   T
  4.1488828266570534  9.8100182740838520 28.0969911231576894   T   T   T
  8.5434161810109579 -2.2860469201470166 28.6120330460130035   T   T   T
 28.3491534124885831 11.3761199462414062 21.4349890833071584   T   T   T
 -2.3863034317848029  1.9659247761136116 28.1878209900437717   T   T   T
  7.5853980829813166 13.1225683642365318 34.4175397303884978   T   T   T
 17.8661019524367148 -1.0740105781766678 32.2501461859722269   T   T   T
  7.2842122746471958  7.5804296286821211 19.0887162287613421   T   T   T
 14.4754361194748302 15.7342119708789951 23.1110214787980794   T   T   T
 21.8944885192905900  8.2544008901930042 26.1663965974356749   T   T   T
 27.6076732697963365  8.5080515545418081 35.5734692713946146   T   T   T
 19.7297212578318621  3.4869177720229985 37.9163521086553459   T   T   T
 15.4564689844287955 13.0085854778529786 29.7141999760926225   T   T   T
  2.3552835369864353  7.2475392944202683 28.5289936847885492   T   T   T
  4.1642475249555835  2.7654020569889677 28.1186054241571917   T   T   T
 22.7873995263036733  8.4564990099836415 22.4608834489780165   T   T   T
  0.6344363928099196  6.1548665231778452 24.6002692531441944   T   T   T
 21.1827419097424325 12.7429067723448028 23.0615827280010919   T   T   T
 15.5757742955048784  6.7556660803271615 36.8225565247782072   T   T   T
  4.4848172590820363 18.1571658479530278 36.3872750166330690   T   T   T
  9.4169197027179976  2.3182509030888445 31.1731155873877270   T   T   T
 24.2351791796157841 13.2921206062977326 34.3717461305189005   T   T   T
 -1.4620661937499511  0.7702347547595354 10.8419562898859301   T   T   T
 16.8203319808591019 11.2450424171579577 24.3623499446784173   T   T   T
 21.7403160516840686  2.0741235603535104 31.8902814745250680   T   T   T
 -0.3581864634770887 10.3104942960606998 28.2306117695289807   T   T   T
  8.8670586628231014  5.4321015225827978 29.6570819173775391   T   T   T
 22.8795962904010821  5.0117185399528124 32.0589929586605251   T   T   T
  1.4194244486004541  2.7835797366419262 25.6644150045206452   T   T   T
 12.8163338458957661 12.6584134939065329 23.6747138472005680   T   T   T
 26.8718328997968214  0.5906240313696118 34.0087765890583000   T   T   T
  3.0420050938683310  8.9069760223362309 40.2692902032689801   T   T   T
 15.9438328990611584  4.2286563550573941 25.9484313352106284   T   T   T
 23.5369256530906696  9.6453484420746207 32.3500262184409735   T   T   T
  3.8688280968268578  3.3845982999262318 22.5825368017116119   T   T   T
 12.9405478507316847  9.1906320121884022 24.4054503544852857   T   T   T
 30.4407275076738699  4.6458235812399069 39.8257070799100177   T   T   T
  8.2194248485777397  9.0955644790637109 29.4297455007042394   T   T   T
 11.5161053453441156  5.4221918412742527 28.6853989436242465   T   T   T
 19.6289673524630928 15.4412168669161041 22.1900868109341616   T   T   T
  2.3442021286594303  6.2490304674549568 22.4074521599929639   T   T   T
 15.0688830555322575  9.8079278998137305 26.2236598755503536   T   T   T
 20.5746819468193962  6.6061578352416612 34.6032150133635952   T   T   T
  7.6690263465153787  9.8414909471093353 24.6207675234736243   T   T   T
 18.2847175319159092 13.2760775671870057 28.5098041443854981   T   T   T
 25.4929466357248060 11.0099059100757692 31.0415661775917755   T   T   T
  0.8495332113604037  3.3924800617766189 22.1718613921548560   T   T   T
 13.9111994006815269 12.7168959291453767 26.0697836660256037   T   T   T
 16.7755850395042216  5.3660760240808454 40.3948942046930597   T   T   T
  5.6888618755007263  7.6372404318959086 31.4137091136553899   T   T   T
 11.6490228527433075  4.8316440832512333 32.1155879695897255   T   T   T
 18.1163307097831066  9.4357232244937563 28.4231852404130478   T   T   T
 20.1100652055942035 -0.6642460921487316 25.6794934308929150   T   T   T
  8.0099460001935832 14.0728394564710122 25.9115003995373954   T   T   T
 10.3895879025726359  1.0607178127619135 37.5365820350399844   T   T   T
 21.0172163393672093 10.8470754884851743 33.5616045915706280   T   T   T
  5.2159904352743984 -0.7979518147903019 28.9505353245228036   T   T   T
 15.4961172852571387  9.6083625119617153 30.3976011024425077   T   T   T
 17.3733079293951675 -3.0855684718882781 19.9665393335451355   T   T   T
  1.9607744369961910  3.1126750808074535 18.4465844925163864   T   T   T
 10.5029148339273064 -2.9070793799586334 39.6261993047122445   T   T   T
 22.3050346421160839 13.0086007590934081 30.5547920946589073   T   T   T
  0.6890237798230656 11.2313962975360973 25.0490159062614097   T   T   T
 16.3725287924498559  6.1583524221717951 31.7707164312863917   T   T   T
 23.1206928131439895 13.3137066411144076 21.3841900980202482   T   T   T
  8.4978410205483801  4.8253664335843185 21.2782936294884557   T   T   T
 12.9001838307128747 11.2766707134683557 30.4962265296355213   T   T   T
  4.8626948920282622 10.7776233977128584 34.1337958922886173   T   T   T
  6.2153721826307766  1.2651165378902396 30.5968073110837011   T   T   T
 19.1883524126679532  7.3625350120001016 30.7689099563270752   T   T   T
 19.6981734544762972  2.3513574184872810 25.2927609227595021   T   T   T
 10.7399555825302588  8.9060304275819071 22.4317829945447684   T   T   T
 20.4696884337976073  2.8059332324978539 34.7344541825409578   T   T   T
 -0.9435608319535094  7.4105826108033259 34.7142656043555746   T   T   T
  2.1519210863842240 -0.3251328718930348 28.3969178895908954   T   T   T
 17.5796657171551658  5.9809671718985316 28.4025859166745533   T   T   T
 21.3907601128432603  2.6125134194419957 23.0725794878705308   T   T   T
  0.2956936468510887 12.4484665637188705 21.6461293329318458   T   T   T
 14.8004237927687683  4.4720387542936573 38.5949607306388884   T   T   T
 -6.2575679677960743 16.2428465749437052 29.1684927234838369   T   T   T
  3.8005604911410349 14.2228966465082536 31.8095042648711939   T   T   T
 14.9591652911884729  6.6575131376042522 28.5645384945166896   T   T   T
 18.3594457723946221  5.6426476212869048 23.9106902618400525   T   T   T
  7.6316917951121317  5.5187693939607323 24.0929572942857533   T   T   T
 17.4876134564961134 10.0013020185912112 37.4130675244980466   T   T   T
 27.4472152687166258  7.2437228175423813 37.9951664480971516   T   T   T
  0.5497137068874347  1.2412221844390996  0.3966261976500853   T   T   T
 12.9826171037200702  8.3349708542783034  0.7396198118192618   T   T   T
 16.1979668075774654 -0.8721097395016696  5.8540730031554116   T   T   T
  3.9607616651777215  6.8436148854614700  5.2891782230131090   T   T   T
  8.0736918773916262 -0.2376787468793769 11.4024778894850378   T   T   T
 20.4890326489745647  7.2318675207735064 12.0493143725545231   T   T   T
 22.8284111645009560 10.6178138636642387  5.8712729094797425   T   T   T
  9.8644796617402495  2.9920571965360816  5.6803415518455642   T   T   T
 14.1218678325932512 10.6881594514801357 12.3332539979132285   T   T   T
  1.3912241720184193  3.0162688013324988 11.2172427099875005   T   T   T
  6.4641617820494330  9.9458937840466888 -0.2218130521103672   T   T   T
 21.3257895301605274 -1.0731619346237442 -1.2227860332497804   T   T   T
  3.8890041715206043 -0.7552840644515635  5.4532394755097506   T   T   T
 16.4182858126974551  6.5773826865026317  5.8011465905895374   T   T   T
 20.5980620097161307 -0.1293808887373281 11.6840728106965113   T   T   T
  8.1887102899455666  6.5298991385134766 11.3411555090004459   T   T   T
 12.6225725394906707  0.2899954154993423  2.0891644550075599   T   T   T
  4.3618205492353628 10.3397713571428085  0.5465270756184348   T   T   T
 22.3375954945426329  3.7206867650230242  5.7301078572456632   T   T   T
 10.5946768723491811 10.5632067786969834  5.5079016228812385   T   T   T
 14.7312820098507036  2.8833631497070282 12.2172627124882034   T   T   T
  2.1638292575474640 10.2959257408185323 11.2942560933405485   T   T   T
  6.9782432801507266  4.5075629637865831  0.2156103703546979   T   T   T
 19.3528767505756036 12.3401795520593431 -1.5280301251387847   T   T   T
  9.3072676378575672 -1.5159077691174527 17.7188381951904752   T   T   T
 23.5127829219343596  9.7020686705453372 16.9222899910482703   T   T   T
 25.3819265365720668 -0.0891349362682484 31.3253369753350803   T   T   T
 12.8045186142148122  7.5313716688013326 31.5135143734170704   T   T   T
 16.6467483521590793  0.6002605613688542 25.4266211680250827   T   T   T
  4.3672618907377920  7.8322700378759320 24.9912908606386743   T   T   T
  6.3561620914575450  4.3617955857214437 31.1755966000607785   T   T   T
 19.1776369195334766 11.1344047330789984 31.0873836641016830   T   T   T
 23.2191170058732865  3.9148818655727129 26.2523625205690330   T   T   T
 10.4913810163292816 11.2569628733136184 25.4465814034961006   T   T   T
 15.4216823746228027  5.0447083823510050 19.3689032201175380   T   T   T
  4.0055192294514708  8.5617681165464212 18.7946805115855717   T   T   T
 13.3872521274871392  0.1926147643643481 31.0862806285211413   T   T   T
 25.3041099224087915  6.9145414358794763 31.9018356325882806   T   T   T
  4.0447140637329539  0.9143177779331867 25.4258960603960524   T   T   T
 16.6758555288619590  7.3702295687338450 25.2428631113169715   T   T   T
 20.1407629706459943  0.0218850815267966 19.5225088119808490   T   T   T
  7.5044851745168648  4.7213716030420390 17.8150325019817508   T   T   T
  6.4267299728898113 11.6318649843261532 31.3633720477683617   T   T   T
 18.7485924684463683  4.1061786686778783 31.7404344135150360   T   T   T
 23.0102155795626615 11.5961105008891003 25.2877157767842604   T   T   T
  9.8049520595204847  3.7713796352785991 25.3306771560360140   T   T   T
 13.9861631833508078 10.5358376506677374 19.6472041214443429   T   T   T
  0.2337619593306640  5.7420499275413128 18.9688488460715448   T   T   T
  3.7268085900499126 -0.7651297856667355  7.6095859479709649   T   T   T
 16.3634893095114720  6.9398624417558574  7.8982290130931556   T   T   T
 20.7523999874868039 -0.5539050446045595 13.6069381942577650   T   T   T
  7.8716902780341149  6.3974718514204847 13.3579949776693994   T   T   T
 11.1504787217320480 -0.9730487560446752  1.2852771703537293   T   T   T
  3.1494256283955613 10.6692261053831849 -1.2687993189695446   T   T   T
 21.7040642805817470 -1.5146363648125512 10.7320127215601779   T   T   T
  8.8042806832879101  8.3687178089395253 10.8902146867322376   T   T   T
 15.4312540365242050  3.2517987209520967 17.2744583361810733   T   T   T
  5.7299760416893140  9.6361950721782996 19.5073212078839475   T   T   T
  4.8261128510830735  1.0174613185560704  4.8309834643800826   T   T   T
 17.6718041945936264  8.0254851410805941  4.9435238193693856   T   T   T
 21.7735418456909073  5.7352802799622307 11.5119952775599810   T   T   T
  8.9165274333047577 12.4535383977603757 10.8839544292979404   T   T   T
 13.9452863639436302  6.4108222663623824 19.0016070968502433   T   T   T
  1.0921380501512730 15.4781983875600346 17.4715108647398623   T   T   T
  5.0835672444165150  5.1521273175376470  5.0410086747500067   T   T   T
 17.4705248168202161 11.9639426068236290  5.5601664471625494   T   T   T
  6.1182537210950398 -0.3773666213387698 10.5485641042947673   T   T   T
 18.4962862363004064  6.7171933018400622 11.4562732243038976   T   T   T
 20.8079597169244082 -1.8389107722353697 20.1688226035025586   T   T   T
  8.2951214907263431  7.7146929490077527 23.6604514562341564   T   T   T
 14.2885943138905489 -1.3812595211278988  5.5778469543077582   T   T   T
  2.1447194000701835  7.1996153155672138  4.4798815629371616   T   T   T
  1.8592037676360742  3.1705541674401303  7.0190346418694496   T   T   T
 13.9821806201332421 10.3730124627483242  7.9309374631186706   T   T   T
 18.9523425734864261  3.0195830789332869 14.1241326665079576   T   T   T
  6.1705722449476710 10.2580047822167124 13.4797914581629534   T   T   T
  9.0145277186145680  3.8315786377408259  0.4801974112064195   T   T   T
 22.6228351165724675 11.1464655448675174  1.3318725708996946   T   T   T
 22.5838689363502638  3.6408910203891502  7.7356322303249163   T   T   T
 10.4767717123700184 11.3501188499625947  7.4136496076448539   T   T   T
 14.7937829628489261  3.1878994192210408 14.2861182741006196   T   T   T
  2.2235593848493509 10.4917466490052007 13.2365763894114394   T   T   T
  5.8823680893882733  2.8868258572242125  1.0321835626950076   T   T   T
 18.9723179608136192 10.4621997765038905  1.8227794076631973   T   T   T
  3.1784726022118210 11.9137997997049148 10.7008729039940960   T   T   T
 15.8677581300614854  4.3138399288185694 11.2997362417437675   T   T   T
 18.8323549931256053 11.1336564935314186 18.1149191356822996   T   T   T
  7.3627477323465831  3.1591568973164033 16.3230263197756607   T   T   T
 11.8446993305136470 11.6068003478406254  4.3611480367894995   T   T   T
 23.2747764199811300  5.4287792186220232  4.8123912694383275   T   T   T
  2.5461678591547865  1.2818467006329723 10.6308538271328121   T   T   T
 15.0161114265544171  9.0048151513081152 11.6551774604047029   T   T   T
 20.0851073663149364  0.1514347683523798 17.3926327600267108   T   T   T
  8.2308550793961341  6.5078082170126645 17.0605619237560653   T   T   T
 12.2318154225136997  2.3158864226480511  1.2223059185703573   T   T   T
 23.4833787861663055  8.9667304592062713  4.9896421559388404   T   T   T
 -0.4271190036029618  3.2737165339736953 10.6183101562084179   T   T   T
 12.1853363011430904 10.5435078981762622 11.6078619333599384   T   T   T
 19.5537460696866177  4.9362124435221970 19.6426498881070160   T   T   T
  3.9324207389384203 11.3767857037063784 16.6405534918032387   T   T   T
  8.0270326808569532  3.2796492797865575  4.9233350899330199   T   T   T
 20.8085004387503503 10.7508841025060136  5.5100916100711244   T   T   T
 -0.0705335604021493 -0.2718863728816976 12.7657120052655770   T   T   T
 12.2227989665301191  6.8574739215637184 13.7384497691872802   T   T   T
 14.4180554354072878 -0.3855119226021047  1.3683641353151463   T   T   T
  4.5165986381688592  8.1045171885449463  0.9940067049992625   T   T   T
  8.3473340821996640 -0.0319925095361779  6.7974442038355569   T   T   T
 20.6605636430348909  7.0920247461602752  7.6242452240912684   T   T   T
 23.7438870834396170  0.7311113287305039  1.1716458501909781   T   T   T
 11.8866757713941400  9.9241137793857845  0.7948065386909861   T   T   T
 16.2914942402520353 -0.5657573840329965  7.9382229918629053   T   T   T
  3.8208559264576722  7.0466374782289014  7.4147492909278059   T   T   T
  8.0552615582694038 -0.2287377194057251 13.4202448553338485   T   T   T
 20.4897277100824127  7.5419800059590711 14.1080368412936465   T   T   T
 21.1064529580082194  9.0612769011099914 11.1146598351767416   T   T   T
  9.2786699520708922  1.3192641225801993 10.7921625322246069   T   T   T
 13.4246193467355948  9.6509955208233578 17.9128172137613255   T   T   T
 -0.8777185738366877  1.3728534085123574 16.6239530083473781   T   T   T
  4.9579452906675590  8.6177551778985553  4.8846322203900021   T   T   T