Li P  S  Cl
 1.0000000000000000
    25.1819793006824639    0.0000000000000000    0.0000000000000015
    -0.0000000000000009   14.5388225279766061    0.0000000000000009
     0.0000000000000000    0.0000000000000000   37.2126966544236950
 Li  P   S   Cl 
 288  48 240  48
Selective dynamics
Cartesian
  4.4268673390533841  3.0267717058584385  6.4159684988135446   T   T   T
  9.8313184077408806 13.5649667707185806  5.3372242153174216   T   T   T
 26.1177398939453020  8.9048205618932155 18.7281548462881098   T   T   T
  9.2622763652728874 11.9347491388360680 13.5909045241616209   T   T   T
 -1.0599496090598113  1.5048768908108661  2.3642431845279703   T   T   T
 30.9427131373986803 15.7104666411992540  2.8249290356525525   T   T   T
  4.7122470618280330  3.2855362319083583 15.4019294205831248   T   T   T
 12.1492517445478878 11.9194723793333299 13.3647995978504373   T   T   T
 26.0684724414481650  4.0724489138413924 14.0372175158909016   T   T   T
  4.1560179383442506 24.8450657971179787 18.8968437831468492   T   T   T
  4.8444109107765172  1.0537604843368211 -0.4876420209124510   T   T   T
 24.7966962510951419 11.6629074402743935  0.5277730300928536   T   T   T
  1.2116892426809842 -0.1409595642941171 11.2716798074881837   T   T   T
 18.2410317647561726  7.8657848304804032 12.5248866787183264   T   T   T
 21.7586700155504396  2.4231512728197573 16.0397922694498796   T   T   T
 10.6357968948501416  5.4052592082901674 13.7106283117842231   T   T   T
 10.5657701711327849  0.0111666070240245  2.3792538447490519   T   T   T
 31.7735001414322795 20.9218111750110758 -0.0416861183642036   T   T   T
  6.5224342583163448  7.4561433700495501  8.2195250015812267   T   T   T
 15.9432841359999209  9.4346655330210520  9.0094697433610804   T   T   T
 18.1202805283087365  1.5229457178713803 12.7004905611019012   T   T   T
  7.7438851337477841  8.9769824025276765 14.3296200145933685   T   T   T
 17.8929698928492122 -5.2780511227402789  0.4959116945948195   T   T   T
 24.8852369441745900  9.3279381915982462 -0.9008753773375414   T   T   T
  1.3169059116166533  2.2780065034819788  5.2981567356797461   T   T   T
 13.0855218306837724  4.3367014319329353 14.3090561439896167   T   T   T
 29.1893943356241330 -0.4925811336762007 17.1916555109871183   T   T   T
  2.0006189426976140  8.2525291587426999  8.5013762840922311   T   T   T
 13.3818236976077092 -3.0217557596882991  5.9662072441246385   T   T   T
 34.5437270088923043 13.7194610385481166 -1.4787483780219288   T   T   T
  0.5399381363676793  2.6091397478203899  8.5852871019806702   T   T   T
 18.7540197846292038 11.7835309573431015 11.1195316579426500   T   T   T
 18.6724857016013779  3.9327775293233440 10.2522733623363482   T   T   T
  9.9488183334137634  7.1096299775712239  8.8133809992578414   T   T   T
 12.0135359364134118  2.5818871517100868  3.4150229558277836   T   T   T
 35.2126863050556693  4.5662521546744239  0.1059903529087116   T   T   T
 20.6201713027896041  9.1302667844360510 14.4820042215886637   T   T   T
 15.8685793239218533  2.7565592695595269 18.7678662674165544   T   T   T
 23.6408295752168449 16.6140187215563664 -3.0376224926673352   T   T   T
  3.6824675562243852  2.1536674902478543  9.3016340632444585   T   T   T
  6.9084388587172656 15.4297630587787307  8.0100860988690599   T   T   T
 23.8191305619752036  8.0233290685214431  7.7865261201481832   T   T   T
 23.9357564441716839  0.6940385570010328 13.8569344333494797   T   T   T
  6.6302945360506769 12.4770283152945964 14.9224887845154832   T   T   T
 15.7930561970735734 -3.3175240704447844 -2.4479360410313280   T   T   T
 -1.6271549331139128  7.6315100020512157 13.6021728669056881   T   T   T
 11.9460745787297054 -3.5603668017411816  2.5549335655206074   T   T   T
 22.7067884216869942 -1.4436880602243323 18.1515174694359516   T   T   T
 -0.0612483613529998 -4.1450953216071040 12.8378239413993072   T   T   T
 11.8335915318834495  8.9224792457461479 13.6899532342063157   T   T   T
 25.4635706666329895 -3.3954574082992246  8.4921680274358682   T   T   T
 -2.9778819890727801  7.8672366192348884  0.4917325772282017   T   T   T
 10.4130047387267997  0.3101081082129616  8.3183246471702024   T   T   T
 19.6074955465431096 12.2231612043772380 13.8130965027570234   T   T   T
  2.4242481019422630  0.5848792358930542 13.6774276984186169   T   T   T
 15.9977242741004364  9.4161668468654547 18.7660230107137238   T   T   T
 21.5219706291783730  3.3724967736628786 -5.4328506613443812   T   T   T
  2.5452117726999708 16.3398657038685862 -5.2706526627493755   T   T   T
  7.1525881878213609  0.0576132495952508  5.4142752875439273   T   T   T
 16.9504855606061398 10.2110368136423695  6.3602356451036615   T   T   T
  2.5706781798498479 12.2648219918174455 13.1829100093490439   T   T   T
 14.7676314653306822  6.8456961340415887 12.5237248431171242   T   T   T
 20.8851820734875737 14.8915023401950162  5.2428668622549841   T   T   T
 -3.5414091059785835 -0.7558978145063437 -3.1256207675850787   T   T   T
 14.1023183669955792  7.9331969707464651  6.5329468357056939   T   T   T
 22.3546190743489568  5.4521454187447906  8.2279691248318709   T   T   T
 28.5208992234395389  5.8819005490391509 16.0360739968683177   T   T   T
 11.1325381442110789 13.4964356226998490 15.2944511803033105   T   T   T
 15.4268397163974811  2.0465374875898177  5.2656730739231978   T   T   T
  1.5792479135733957  6.6213596214811377 -7.8899574671793316   T   T   T
  1.7086207999330065  0.1899803686771179  7.4790163874891542   T   T   T
 19.8805130875861629  8.2870863532527146  5.7804925700466177   T   T   T
  1.6228198707619821 11.5535404797028338  5.1957531113066002   T   T   T
 14.8576910326568878  0.8785187700280859  8.6646720942918076   T   T   T
 18.7150096914140853 11.9487632021026116 20.9877401175811755   T   T   T
 12.1929914550228276  3.9601158420076796 19.1682576281817276   T   T   T
  7.9532478789713110  7.9300336234503366  5.5936714629922148   T   T   T
 17.5566731248961254  0.8972893971336909  2.8165333503422465   T   T   T
  2.1445726879705411 14.9696497609136827  2.3488065261908622   T   T   T
 18.9815357703110763  6.8229898853275053  8.5321768680651360   T   T   T
 20.8639421014539934  2.6437547347752286 11.9466160626941171   T   T   T
  8.5887777604216335  2.1985722907814940 15.6349715528016944   T   T   T
 10.0122097504551810  7.4874549252253306 -0.5235822364737179   T   T   T
 22.3082274272760266  8.8665633687070891  3.3236124065190737   T   T   T
  3.8632504846779354 10.4684039631309265  8.7577390439348761   T   T   T
 12.1632448261344059 16.2824609244262675 12.4859425609715480   T   T   T
 18.1645050526085008 14.2284553744501512 23.5874859578413023   T   T   T
  8.6145874074626079  1.2969423971010008 20.0312488797928836   T   T   T
 14.9437357420423638 12.4110496153437406  8.6253308329693699   T   T   T
 19.7168790575556834  4.5311883202103367  5.9992070112913236   T   T   T
  4.2548242352086341  9.9350123372861532  5.4520759794664420   T   T   T
 15.6554423999382895  4.8229209255684848  8.8692650318365587   T   T   T
 19.6866346010730169  4.0849378164404948 19.5692220492346820   T   T   T
  5.5350985294988719  0.7279385843424545 13.0010363763085284   T   T   T
 18.6913345512800149  5.7935478690059909 -0.3788954904946008   T   T   T
 31.0359876448327299  5.7328498398260450  2.6775148429956541   T   T   T
 -5.5278195211597358 12.3739896171734998  4.0610970624479865   T   T   T
 14.0281951186690641  4.3924121887319503  5.3996530425577713   T   T   T
 17.5385456071395005 10.3014130487514119 14.5271777486597458   T   T   T
  7.5964369167189982  4.8734292143126767 14.6726527449970057   T   T   T
 15.2930642979535119  6.0559561100090322  0.1802096554350834   T   T   T
 25.7570503828122597  7.3733636958797018 -2.9260194749616115   T   T   T
  1.3619150811384348  8.7078022043545538  5.2299152655309156   T   T   T
 14.1156545293381388  6.7364531271754560 15.5893836341569312   T   T   T
 11.9959724918188115  5.8800669484468564 10.9032531643677988   T   T   T
  8.5365120320616068  2.6769205522547237 12.7978659202442344   T   T   T
  9.1551154183915511  3.8498853252509484  2.5910553333387747   T   T   T
 21.4145522111949660 10.1341121759699533 -0.2663236180817572   T   T   T
 23.7284369822439913 14.0932462556878821  6.4481134938628566   T   T   T
  7.9376575399217977  4.5370019911887312  9.2424917023666140   T   T   T
 12.8861714141810531 13.4468678505194728 11.1630324433558688   T   T   T
 23.7981433674495513  5.3819076878008794 14.4720574466161196   T   T   T
  1.1544283236580364 17.1931807224027189  0.3441957698179406   T   T   T
 12.7720801897208567  8.9183826044936154  8.6614984205437544   T   T   T
 19.5735879181085686 -0.2718466579220454  8.7636156730717474   T   T   T
  5.7229054778238488 18.8967239035286561 12.4351824908687476   T   T   T
 13.8990049965583573  1.7910037815817490 22.2176114999260825   T   T   T
 27.6830070966581019  7.2302706924736615 12.3087403438709320   T   T   T
  1.8159443786707912 13.6811267532331069 -0.0613105448678407   T   T   T
 17.3005979361452162  2.0260946817604832  7.3795780142476648   T   T   T
 18.3604212188738600  2.4759306751190011 15.8171821209104291   T   T   T
  8.2532429928262108  9.7497307892024114 -0.3321020349144326   T   T   T
 14.2687916746403953  1.2238098814654585 14.9699572653682083   T   T   T
  7.5022936338401403  9.3456193733187902 11.1720859551722604   T   T   T
  6.0881780253227120 -1.3833774191452175 -0.1781937500383856   T   T   T
 25.2376041499084032  8.9735492382504969  2.3086562546056029   T   T   T
 20.9689642330427759 -2.9264332188763058  7.3830310230356098   T   T   T
 12.4031839342464281  8.6732261472988323  0.1938641823068696   T   T   T
 15.4100022915336705 -0.7786787253496891 12.8736274049419226   T   T   T
 -0.5012803342029289  5.1509420615122750 11.5537967118565987   T   T   T
  9.0415175645469521 -5.3090144362519611  2.8625574200705186   T   T   T
 25.0277724430382165  4.9022012683886569  1.9949514487553006   T   T   T
 20.9688457507291552  9.8083837764550541 10.7527635657950729   T   T   T
 10.2281945268262326  6.2675683298324447  5.6601361817958225   T   T   T
 13.0402941531826588 16.1867742281279163  6.9529972389978072   T   T   T
  5.1672802300718415  8.7222594225521348 13.3657365844189915   T   T   T
  8.2031668296441769 12.1100281834467918  9.3297728001925933   T   T   T
 16.2083153158884343  8.3548054334010651  3.2154296252349575   T   T   T
 22.8951307829073514 -0.5272119429726655  9.4504648656008747   T   T   T
  7.5948522380061583 11.2891160865349782  6.8662649530406572   T   T   T
 19.8331874220740616  0.3326849601185534 15.2254467494442149   T   T   T
 23.7860234835628788 12.2338527916950177 14.0038786655263703   T   T   T
  3.7556901790705690  8.5653921260129504  2.6696198272715055   T   T   T
 13.4932073254940903 13.6083445621422285 -2.2575510418787417   T   T   T
 10.2573631108045511  4.6990922384600893 31.8933177739128269   T   T   T
 20.9539778773634424  9.7102867288500629 29.4724852630488776   T   T   T
  2.8770385661531837  5.8290347175914592 22.6685464495981108   T   T   T
 13.1380253214820009 12.5348237686284882 26.3787634481884794   T   T   T
 16.3865189276853549 -2.9017730295686359 40.6784576230157882   T   T   T
  6.2435230964902502 -0.3212002889276667 34.1810733549181407   T   T   T
  6.5383595419459644  5.7812030417665072 25.0122801881475958   T   T   T
 23.3314256331205350 12.9618178879434236 28.6580723331273290   T   T   T
 -2.9959651552797157 -3.2703005981131534 20.4916730892888488   T   T   T
  5.4995147160862237 12.1509430257541524 12.0403676998769527   T   T   T
 19.3057999244891043  6.8858300718285923 39.0750810903258383   T   T   T
 -0.4239590845430800 11.3381570428816918 31.0614675774977407   T   T   T
 12.0646717955984197  4.9677334169540011 29.5683570978165911   T   T   T
 21.3790765268221428  6.7914869249414354 25.5566511747000078   T   T   T
  2.0085165718053273  2.0697360843382295 22.4777332542470027   T   T   T
 15.0348764657986518 13.4469523652832770 22.9984645223189439   T   T   T
 23.8825992956612438  5.2193138989041055 28.2053316671819729   T   T   T
  4.9280616540300493  6.5704050955810018 31.8153659251611636   T   T   T
  8.2477637147746101  2.4713409998268587 28.5703627152115232   T   T   T
 22.0264871730296399  7.6700010596395742 17.4704142410695695   T   T   T
 -4.1016149413566705 -1.9078174849346397 24.0716841435526057   T   T   T
 21.3578057983599940  5.9726146812372036 22.8433742706691092   T   T   T
 21.3094037419801090  0.2209603801455878 38.1908359310578192   T   T   T
  7.9507590549329210  5.7886258370154344 34.7200522544696213   T   T   T
 11.5701759699848523  1.2990182833527215 33.8879164052161030   T   T   T
 20.8329618525368936 12.9290639091647410 30.1779826796774593   T   T   T
  4.8857778116846537  0.5578476446018542 32.1077458093368620   T   T   T
 13.0536301861868882  9.5220985578215132 24.6152606969701715   T   T   T
 17.8448555996103622  9.6387223790366736 28.4194903793387255   T   T   T
 19.5564267568450738 16.7586899891819030 34.1575148310079726   T   T   T
  8.9981195729805705  5.4407888707403353 28.3115832369493994   T   T   T
 18.4790053190214500  5.8875314154468379 23.9049026143545014   T   T   T
  4.0080781845673412  3.8240117812927088 24.9677202067247812   T   T   T
  8.4820875466424823  7.8899961631026931 18.4833839334161425   T   T   T
 21.6211331623833622  2.0287625548791524 44.9805079479689454   T   T   T
 14.5047654213485675  8.3579677490794211 34.6906680054528209   T   T   T
  4.8576773634685617  7.9970720214153204 18.4993489598153289   T   T   T
 13.8194229081905320  7.4021005484575451 22.8344739338731770   T   T   T
 21.1296664531487473  2.1670104401532173 36.5764948990733529   T   T   T
 11.5264743230803983 -3.2366894604646497 36.2065729886807048   T   T   T
 18.1138583128487269  6.7303628417820285 28.0516939850836167   T   T   T
  4.1107885735130401  4.6005525192909360 35.0039311319495141   T   T   T
 -1.3118495760384141 14.3770838979770623 20.5905840652728997   T   T   T
 20.9748896206160218 16.6384065378900026 23.0339747105948760   T   T   T
 16.5618933169174873  4.9328834719874655 33.7419183739622355   T   T   T
  6.5809988000111188  2.5355989888138399 35.2302938607750633   T   T   T
 13.0137845089997182  4.6038503614127952 38.5682027694176384   T   T   T
 -2.6440386730178749 23.0470476836177092 23.4030998995953325   T   T   T
  6.2081940935474478  7.0477151185059173 22.4191623704689960   T   T   T
 19.2498645234099079 16.5192999716011606 25.8445282695438969   T   T   T
 -3.2114995231209176  6.8078289932593119 34.3102716782207580   T   T   T
 17.7336161539735500 16.2248933136118225 29.2872709775822031   T   T   T
 14.9493347750794747  9.1330315636020138 30.4273569117429084   T   T   T
  1.5866368962357971 12.6160890673459889 34.3911305117414230   T   T   T
  7.1558315525067240  8.6032960687941582 26.4473841875171587   T   T   T
 25.8795680906649679 13.5409943766978387 24.3634185661210374   T   T   T
  3.7853751963695039 11.4978144646597116 37.4684777204829373   T   T   T
 16.7396395091648564  5.8071614134473455 40.4322733444056013   T   T   T
 15.0047679580205280  5.4346376788055277 29.6478285190898632   T   T   T
  8.6463667263152200 17.3912238249437330 32.3487678731885779   T   T   T
  3.5394113363573250 10.0158758570867246 22.4456082882530019   T   T   T
 21.7543426198524266  0.5657314287902586 26.1876585011489986   T   T   T
 -2.9886901856862145 11.8098704152746272 39.6399644692060207   T   T   T
 14.4471540567991390 -2.7415124863462661 37.7149329100348183   T   T   T
 10.1434476285527850  7.7356465131266727 25.1479584226800590   T   T   T
 11.6735448243901416  2.5468133738191692 28.3482865760930203   T   T   T
  9.0830374772347753  6.9039366620689062 22.7022899389324735   T   T   T
 20.1896495500793378  4.7781159993419351 15.0475452733468629   T   T   T
 29.0082717003130810 16.5560813915856251 28.8263335360593729   T   T   T
  5.7595762440945473  8.8493317303350043 35.4584359232184170   T   T   T
 17.3167091655681560  7.7454082893636729 32.0284584184162213   T   T   T
  1.9113663576389051 14.3912153307648332 29.0259942698963798   T   T   T
  7.8923525078287309 10.8129777171534691 28.6522700184688404   T   T   T
 21.6325667838169586 10.3148349726305657 32.2576626972321208   T   T   T
  2.5615951613945578 10.3113291069415478 25.5142402540618605   T   T   T
 15.8075210152836689  3.4330137097101217 25.2275791895078676   T   T   T
 19.3526956878810381 12.8193126433584226 34.7107121167964863   T   T   T
 12.6322564263840196  1.7725883001678666 37.5416676761748391   T   T   T
 12.2571868965127315 10.3222961951163086 29.8177100286642762   T   T   T
 26.0208678644796585 12.3637998641442479 21.9361683013739928   T   T   T
  0.6410186405404841  9.1779293433240010 21.9393421405995994   T   T   T
 15.0725649575094796  4.6976040051935888 22.1853172717884455   T   T   T
 22.4511093458952118  6.0048343967875271 42.2391277246418611   T   T   T
  5.8196522968559812 -0.4280345534936091 29.1759894942178413   T   T   T
 10.5548630775402028 12.6858462487103640 28.4111585025583437   T   T   T
 20.5848154792780669  3.8619424163116025 28.3352553911556626   T   T   T
  9.8574049364018634  2.8459363507120199 17.6509833741976045   T   T   T
 18.3337913943134616 -0.6339729973945593 18.1129175931524600   T   T   T
 15.6925727979161920 15.1168237622526398 36.6086199565180124   T   T   T
  3.8587906365525169 -2.3826477462065832 34.9830091303224862   T   T   T
 13.1561727699904107 11.2707387152943816 21.8810932097385731   T   T   T
 19.7972705799562192  6.5369462264148375 30.0312749926571421   T   T   T
  2.8375139440576964 11.6141402113498842 16.4338642684932736   T   T   T
 12.2474217232027112  5.1480737291078915 24.0108827644230622   T   T   T
 19.1169847221901748  9.7776807768644591 34.9313141761290211   T   T   T
  3.8067814061019383 -2.2808078621310934 39.8152400696328499   T   T   T
  9.9296353691856005 13.5902700930771250 23.0901400660184244   T   T   T
 24.2998177809210816  4.1336144424692751 31.3306973468267280   T   T   T
  1.2336535004014870  2.9076835336984814 26.1020470624701026   T   T   T
 12.5710958812287465  1.7474250222357388 24.7562337707263858   T   T   T
 18.7180079466537386 15.0611736688727902 37.4586319581114680   T   T   T
  3.2515593714606519  9.6365873695642303 28.9191623831915905   T   T   T
 15.3157772465305886  8.3795394719548231 27.3819743333911099   T   T   T
 22.5462867568771443  6.7220485101924501 29.6524398283166555   T   T   T
  2.4105512819252364  5.1159507942249762 18.8428973683134053   T   T   T
 16.2959623910496418 -3.9189217716848996 23.5873752573388451   T   T   T
 24.1020226292477560  9.9434949873696699 28.6523447714978730   T   T   T
  3.5881050811666433 -9.2004275954611234 28.8930933257412406   T   T   T
  1.9356949214578363  5.4596574850683126 26.2421383592859527   T   T   T
 14.0694975633087687 -1.2583743801599339 30.2332021878037587   T   T   T
 32.8979403396063077 -4.1076291504063587 24.1315659135263978   T   T   T
  8.1086290527717360 -1.4388783770489280 18.7627649200736819   T   T   T
  8.6932751125044643 12.1851736109317166 31.3950503537628194   T   T   T
 23.0288261095633331  2.1763859016996570 28.9736223393779504   T   T   T
  0.4427036205467118  9.0300769597461432 24.6244703720527554   T   T   T
  7.9402227402745469  8.1999297826071622 30.9500106676956079   T   T   T
 19.1159769857778734  9.8874625078400324 24.0867917827773894   T   T   T
  6.6444709546547918 13.6598205254403275 22.2282482540010484   T   T   T
 12.2350581342727729  4.4965585132414256 35.1548460666957965   T   T   T
 28.0281529744132882 -6.0445489338389891 36.3735145074913362   T   T   T
  4.9239685512394704  3.0901997090755731 21.3787100186479577   T   T   T
 16.4223962298889496 12.9232253137752497 29.2174714718428596   T   T   T
 17.9594669303528605  7.1730760738679900 16.8388014203769565   T   T   T
  7.1508427516916218 14.4088323125417350 26.4037242896359921   T   T   T
 14.6715920708176562  0.8498168227789693 32.0577268175718757   T   T   T
  2.9245932622061179 12.6032655360759023 30.5571483738676797   T   T   T
 -0.0157127798284159  5.3623996209490654 23.7500522206059017   T   T   T
 15.0179957603074499  2.0291025472882467 28.6493020860611374   T   T   T
 19.5207875363265977  7.9064224034132744 21.3612549097889399   T   T   T
  9.7533788779325530 16.3914342944497733 23.5946623537704916   T   T   T
  9.2464815284738915  9.5376631568374091 33.9486014414434294   T   T   T
 10.2079232892202931 -5.7339979447485945 28.4874828922925225   T   T   T
  2.7274907343003085  8.8655713781232031 32.4704513675456781   T   T   T
 19.3599023608811258 -1.1716212649628692 26.3205456130074111   T   T   T
 25.9528750388364493  7.4488824596351124 15.0712957751608538   T   T   T
  6.3511171250279563 -1.8875935595755426 24.8778441357849509   T   T   T
  8.6879831626090684  1.7671388098193868 37.4616300238920985   T   T   T
  2.8701211409407872  4.8221162201828456 45.4394950563066260   T   T   T
  5.5341151272192102  7.3045030104239901 28.7749810139887465   T   T   T
 17.2767646694183128 14.5986797651098907 31.8692627956945458   T   T   T
 18.0380910005773742  2.0708703889693623 20.1908761954136260   T   T   T
  6.5471676026024133 16.8369108634103135 24.3354827311678683   T   T   T
 12.2803114979395129 11.2346507178818023 33.3288578811494318   T   T   T
 32.3413715883106221  4.6199533880642560 43.4103249840259622   T   T   T
 -0.8484876765534440 -0.1278582046696700 -0.1456565121443192   T   T   T
 16.1870177017818335  3.0208297311102590 -0.4544450842687331   T   T   T
 16.7769548639470969 -0.8987335290589895  5.9786432147705941   T   T   T
  4.6339042578957148  6.6095537099387300  5.2908944084376062   T   T   T
  8.8452770814082822 -0.5918363634010489 12.0269281280579392   T   T   T
 21.4451893320487805  6.4356119960793787 11.2777790931516257   T   T   T
 23.2305154290475322 10.2554691020394291  5.8211169308443118   T   T   T
 10.3608432959613950  2.7601005667010532  5.9799135805574473   T   T   T
 14.6580320508449393 10.2656175692952001 12.0180763253094920   T   T   T
  2.7739435112525364  2.8364723792002362 11.7732293616221302   T   T   T
  5.7621524366761605 10.4050815467208846  0.9489090380479543   T   T   T
 18.8025780914492877  4.1128302022797074  1.6321058107071214   T   T   T
  3.8550259051269493 -0.8570006852739041  5.6466624276647641   T   T   T
 16.9903102756764959  6.7094698611629653  5.6658197811240676   T   T   T
 21.6392684179414694 -0.8895031025374336 12.0208186677615227   T   T   T
  8.3729162223465643  6.2456878037695729 11.5452976768141333   T   T   T
 13.2901086232155468 -0.3629131207701321 -0.0245309080267956   T   T   T
  0.0476286138406668  6.3434258748906842 -0.7710176711594392   T   T   T
 23.2407556601903309  2.9496424413617452  5.5497725420485633   T   T   T
 10.7404142546701156  9.9568330776925293  5.8614197170826232   T   T   T
 15.1263304020706695  3.0713256018520507 12.0035927673304457   T   T   T
  2.5201458282413571  9.9303278141029985 11.5368987986959084   T   T   T
  5.8642957801060209  4.2700423849696012  0.7745230612819201   T   T   T
 18.5851835361975830 12.5714767676294095  0.7308974937104427   T   T   T
  6.7809610360579819 10.0734340376836080 17.3610174789556453   T   T   T
 20.5539623281880353  0.5097210493570176 20.8083879655140045   T   T   T
 24.4501219944920614  7.7145078732582988 31.7176501196190941   T   T   T
 12.0148022643673826 14.5477903798159449 31.3692091440641114   T   T   T
 16.1856290607282780  7.5184392862159903 24.9456413596206588   T   T   T
  4.0970395813574640 15.0724697935260235 25.7005211885854585   T   T   T
  5.4171900235822195 11.2262087359364831 31.6408409251001999   T   T   T
 18.1241722371507343  4.4057224084180540 31.0956741759485951   T   T   T
 22.1819632588901250 10.8272969368350012 25.6053797503717213   T   T   T
  9.6858406669102006  4.2285950752689248 25.7659565538291950   T   T   T
 14.5418474840129690 14.3655311694736536 19.1113707114265026   T   T   T
  3.8791971440280579  2.4768939269742170 18.2329878673415635   T   T   T
 12.1644588372396321  7.3879734229579288 31.4748647435261546   T   T   T
 24.5181001496841731 15.2223184995524701 31.6889006614630553   T   T   T
  3.9102342338952507  7.7921777615187571 25.6478014462438892   T   T   T
 15.9743882771411823  0.4162345968207983 25.8606536648486234   T   T   T
 19.9844882445607084 10.2962446713220235 17.9404740746062643   T   T   T
 11.2094091038862675  0.4767546818670619 19.7898921980289124   T   T   T
  5.7122479762817919  3.8496050941301641 31.8609165519049640   T   T   T
 18.3753529420715935 11.4513017669528363 31.6320261783228922   T   T   T
 22.7230567002619459  3.8141025141823310 25.1931874622960450   T   T   T
  9.9960416475822047 11.2248678957890764 25.5038141635523452   T   T   T
 14.4736337802418404  5.8721538846994346 18.7873767286053237   T   T   T
  0.8051783419698877 12.1612744947452338 18.9820063554018255   T   T   T
  3.9961827342093597 -0.9189501108100809  7.6671782466519689   T   T   T
 16.3275086766895399  6.9897727889663610  7.8329129102133104   T   T   T
 21.5255242943561420 -1.1510154099421379 14.0797147876594746   T   T   T
  8.5568459771632259  6.7404366020354880 13.5595169700351796   T   T   T
 12.1809077248703019 -1.4420751497045687  1.3083568437507906   T   T   T
  0.9075819800800790  7.0487103352722604  1.1723020501684431   T   T   T
 22.5123876562368999 -2.6096426716945600 11.0434458583135910   T   T   T
  9.4488032655327796  8.0294450215280015 10.8855179421632080   T   T   T
 17.1510322470016128  1.2569297667253705 17.4401352803374365   T   T   T
  3.6920643403480922  7.0650790964487795 20.3961543137607642   T   T   T
  4.6206660148285064  0.8438042918768176  4.8852336140821002   T   T   T
 17.7014548457849372  8.5401503682357358  5.1006040477883214   T   T   T
 22.3889769763554121  4.6984156616208921 10.6815448110235742   T   T   T
 10.0179966483126979 12.3658455204047097 11.3574098801869567   T   T   T
 14.2974288648768830  7.5820849313926741 17.7219172755398908   T   T   T
  2.8967579727689405 16.4160428526911808 16.8001879118432917   T   T   T
  5.3082859067147750  4.9010737556026136  4.5242000535816764   T   T   T
 14.9579952859440493 13.5615922646425560  5.0764157594643891   T   T   T
  6.7728140900472056 -0.4325901304076797 11.3182543055737330   T   T   T
 19.3670430110898977  6.4034256956920412 11.0136242453767625   T   T   T
 21.9869895093940819  6.8651008526937023 20.0154480984230965   T   T   T
 13.8477950412085136  4.2619708986910121 17.5159086979009615   T   T   T
 17.0224375430657524 -0.7917244179964728  7.9492982099133451   T   T   T
  2.8225946874020025  6.9551044449020161  4.1782882226118119   T   T   T
  2.4199824861914507  2.6118880058154224  7.3654562701600446   T   T   T
 14.7968105967210466 10.1904818423659105  7.4474850646986974   T   T   T
 19.9501174609554752  2.5255559110763932 14.1813463968407962   T   T   T
  6.7609130698722222 10.4767108303787584 13.0375966485827828   T   T   T
 10.6602781748578419  2.4850733066259552  1.4434508520661744   T   T   T
 23.3983769711737573 10.1795887557767557  1.2173952382105602   T   T   T
 23.4968127681897663  3.0676610860313085  7.6691743422938954   T   T   T
 10.5519694642714015  9.9245718036109078  7.8560782316381568   T   T   T
 15.1315829552992707  3.3016188799045318 14.1352710396922134   T   T   T
  2.6826893647836285  9.8885004908206415 13.7619262392575958   T   T   T
  6.8175464036053226  2.7658120351252271  1.7699151497264443   T   T   T
 19.3189532905208665 11.0716359585663593  1.9949661940105208   T   T   T
  3.2526503471978003 11.8156801128092717 10.8757909688535186   T   T   T
 16.3612951756626828  4.5205748884380528 11.2105612953018703   T   T   T
 21.7546125594448228 13.5417547710312967 21.1514794659753456   T   T   T
  4.9197285795239267  9.7503099310698538 16.1992958822932387   T   T   T
 11.4446350094007823 11.7263213354802698  4.9552363744611183   T   T   T
 24.3048546745291993  4.4527741145525193  4.6921941894114889   T   T   T
  3.5826565971549393  0.9538527367668331 11.4207480498261624   T   T   T
 15.6242115865854228  8.6426153358861288 11.3352190966308441   T   T   T
 21.0771941926467399  1.4122242839837418 18.8728921177169298   T   T   T
 10.3846977387695993 17.0286624592746492 19.9179636572350276   T   T   T
 10.6199675635565889  2.4508129205505385  8.0170206234716215   T   T   T
 24.0478065503577128  8.4196368553285250  5.1765918146714940   T   T   T
  0.8208621725798095  2.5572019038196045 11.0670835465144854   T   T   T
 12.5342501414220582 10.3276898360621097 11.6586839033840821   T   T   T
 21.1928778104204589  4.9570594648580188 17.2782906187276133   T   T   T
 -0.3007039466322191 13.8400164838769797 18.6247335380723804   T   T   T
 11.4048224327458509  1.1233201356230071  5.2385935166815969   T   T   T
 21.2213166494078251 10.4191316501761388  5.3063047559134748   T   T   T
  0.4916101998908974 -1.0312727827182628 13.5212504576680015   T   T   T
 12.7124380453738119  6.5965623205771289 13.7638571128494700   T   T   T
 16.3979258382028128 -1.0647116878654106  1.1735942205727408   T   T   T
 -0.7946430697595424  4.4760722937389934 -0.3192154029228291   T   T   T
  8.2772093619339433 -0.9377628347280446  7.3714936234566064   T   T   T
 20.6614405788900264  6.5218648089228939  6.6795629473907372   T   T   T
 25.0786353339063197 -0.7466075642274946  1.8970848966325691   T   T   T
 14.3709097447235390  3.9519898744911521 -0.4896808515925943   T   T   T
 17.8677324435395839 -2.5311993665572303  5.1623153208887542   T   T   T
  4.4038719703172609  6.2840254704594498  7.1991615835417724   T   T   T
  8.7715302135098216 -0.4952286087362230 13.9945766987813709   T   T   T
 21.5825222917046453  6.4053733927382233 13.5009340171553962   T   T   T
 22.4244241620192568  7.9911204845282242 10.4912283625444172   T   T   T
  9.9197213282760064  1.0567102065060197 11.1293118832500078   T   T   T
 19.0894368797951053 11.6602846147871411 16.7943912469415437   T   T   T
  4.5291991407618175  4.2919974657341564 17.5493070070599586   T   T   T