Li P  S  Cl
 1.0000000000000000
    25.1819793006824639    0.0000000000000000    0.0000000000000015
    -0.0000000000000009   14.5388225279766061    0.0000000000000009
     0.0000000000000000    0.0000000000000000   37.2126966544236950
 Li  P   S   Cl 
 286  48 240  48
Selective dynamics
Cartesian
  0.3751874459607932  1.7075408818147020  6.2515329936635444   T   T   T
 12.6562423764578913 13.1192101454995402  6.2452965396591589   T   T   T
 18.3238197705348043  6.1490799292845812 13.9726136009383097   T   T   T
  5.1820968327371117 13.7697292407444341 13.4523487023569892   T   T   T
 10.0557804885481339  1.3670093240852883  1.1468814694845753   T   T   T
 24.4048634552536399 10.2465276362250979  1.5685291667326722   T   T   T
  0.7629517740647436  5.0461454872986895  5.1035620441033354   T   T   T
 12.8579528353264170 12.7495850082649316  8.6713261411866398   T   T   T
 22.2352851352293683 -0.7666651364544522 15.1619899378585377   T   T   T
  3.7826633975775756 15.8684417272035958 16.6151395010731768   T   T   T
 11.6308522869938287  3.9993058274399624  2.6770517908942355   T   T   T
 19.3293136934162675  6.2306019810383537  5.2956035022002954   T   T   T
 -0.6828944882241724  1.4553895235827623 16.1838185632396510   T   T   T
 17.5365128330267765  4.8828487620554002 10.9704549195943386   T   T   T
  5.0015345577206967 13.0192938376720022 10.7284393824644013   T   T   T
 14.6929816640448649 -1.3646691398067960  2.8265978355812340   T   T   T
 27.8584488484239472 16.2925718834450919  2.8170583327841494   T   T   T
  2.9322610674938385  3.3962482357352934  8.6533118018552031   T   T   T
 14.0319976551418932  8.8077975736974796  2.8584242509276852   T   T   T
 20.1098805150629616  2.3118520247778753 14.4863685869937360   T   T   T
  5.1700332832658429 10.1121886553036955 10.9541000568517610   T   T   T
 11.1611489302760560 -1.3873287839898685 -2.8948172261450531   T   T   T
 26.2033924269134033  6.6176876415329167  2.8295892347069684   T   T   T
  6.4021235869913040 -1.5740545630819551  5.7668561696824217   T   T   T
 12.3890396024723231  9.6616619138910043  6.3849880388840772   T   T   T
 20.2332822681755431 12.8769897508576285 18.8248462352101882   T   T   T
  4.2917551218173182 11.6138204836866414 22.4469714849333570   T   T   T
 14.5626242117548337  0.9025288249694545 -1.1849719603214364   T   T   T
 21.2106571851182082 12.3859746439549898  3.2774033776663534   T   T   T
 -1.5768254833548676 -2.0326209729547000 13.1099272166661791   T   T   T
 15.2598742554132691 11.5235730064846589  5.2725352893886672   T   T   T
 11.2806903299031269  2.5861030591379146 13.3454371831543863   T   T   T
  7.1093540093571921 17.1336844810866467 13.9544746357606435   T   T   T
  4.2992452307811693 -1.4532945750839998  1.9850883286615919   T   T   T
 20.8270687923175686 12.4385109554958202  0.0302362509442593   T   T   T
 23.1934936534567058 15.7893754705452078 12.4994844391057125   T   T   T
 12.2625667847036564  6.4157892527164151 14.3891035567808938   T   T   T
 24.6284601855021705 18.8212087889419060 -3.3578287257071566   T   T   T
  4.3428846105547709 13.2628031450929971 -0.5152646344286418   T   T   T
  5.6011484101223203 15.1721730878498420  8.1134451089164337   T   T   T
 20.7315822033598280  9.1616715097173298  8.5690348634835605   T   T   T
 26.5190468923702340  1.0280460637525490 19.1311265994547206   T   T   T
  2.9166130083436492 11.3031639554808603 18.4411349140395657   T   T   T
 16.2113620938748468  1.8219620703593598  3.0320133040659871   T   T   T
 -3.3283875693496214 15.0035431858439239  0.2278208820743921   T   T   T
  8.8469587258382560 -0.8304304117155591  7.9639480819684723   T   T   T
 18.9968319827585503  9.2512799280807485  6.0253239061775732   T   T   T
  1.5752826877549118 -0.2675018345673080 12.7551826145969969   T   T   T
 18.4650558021030946 10.1430449150479216 18.4594901909556341   T   T   T
 15.2158564030730670  5.8205789037709392  3.6700774944345218   T   T   T
  4.3007103326231428  8.2229205591592329 -0.5136551227112053   T   T   T
  9.2398492256476228  0.7164970848991331  4.8776607256305979   T   T   T
 13.1181891024483921  2.4279573923387492  4.7668059678839150   T   T   T
  5.5631128081144174  3.0078370094044606 20.1013699687678304   T   T   T
 17.3118491330677386  9.2328612257510017 12.2923891922214583   T   T   T
 19.6325236553636486 -1.1462984442011277  6.3907151888295797   T   T   T
 -2.6148695466500822  5.9311732811063242  3.6053093948915884   T   T   T
 14.9348667989787778  2.0756763645467893  8.6594463591078092   T   T   T
 21.7765889383032061  7.4595844625579293  6.6584120676223764   T   T   T
  0.3758116767475831 12.5122751692646101 20.6065900963874995   T   T   T
 10.0743808021883794  8.9448625385863014 13.6325508151830022   T   T   T
 15.3889420874355256  8.9164292588626388  0.1482714264608062   T   T   T
  7.7747041665970471 -1.2509727229963710  2.7757211397249288   T   T   T
  1.9058243571206577  5.9306824635328805  8.3780504527398261   T   T   T
 22.4215125158930348  8.3135270942497961 12.8633631469235130   T   T   T
 24.5751243738311729 -4.8852357100137862 14.1546089629044740   T   T   T
 11.0044168685952126  6.2421487015544148 12.0504650975188081   T   T   T
 12.2813634621289598  2.4708376963695735 -0.8578198416545868   T   T   T
  2.3637408133088575  9.7487260194033460  1.1862608072800480   T   T   T
  7.6291744782493947  2.3874130882339348  8.0858846021078410   T   T   T
 27.0151877260249549  6.7811013153942605 13.2693822109975237   T   T   T
 -0.0727417122418626  9.1032732241073653  4.2186818390819223   T   T   T
 20.6213146455352856  3.9956376388937427 12.6987857980563454   T   T   T
 19.0287921773575306 11.9044361419360936 15.1662532255641462   T   T   T
  5.5715476978763103  3.2565410192652582 10.7325815150597315   T   T   T
 10.1396323854154513  8.7679713145255853 -5.6845088804551320   T   T   T
 22.1188153140718597  2.3742465023398323  3.1543864817292975   T   T   T
  2.7387203357793504 11.0697892407652816  4.9025143865348957   T   T   T
  6.6592189624694669  8.9997295922630567  7.6943498029705566   T   T   T
 19.2973163143703346  9.0347228261711976 14.9953919999881080   T   T   T
  3.5022867047529851  7.0156827004365310 18.9149596146671115   T   T   T
  9.7385352511100542  9.2338894906390152  8.4204430444819831   T   T   T
 20.1543394400492630  5.3522030008178429  8.7598712778269618   T   T   T
  3.0162484964779694 12.5332222655934071  8.4998625251890552   T   T   T
 12.6718714191968562  5.6556494673117284  6.0041650052944338   T   T   T
 17.4725478305740296 12.1476134289110096 10.9960939923255872   T   T   T
  5.2720438161076988  6.8723811046274950 12.6945675599749599   T   T   T
 16.5225546054055812 16.9214384399012054 -2.3219235579547779   T   T   T
 25.2221004487388640  7.6647443558515738  0.0506920300452919   T   T   T
 -0.6045258732047175  9.5036195086203801  7.3117083046357214   T   T   T
 11.8742144433176708  2.7146860361143244  7.7252096100879006   T   T   T
 16.9433373731987942 13.4911401716892208 13.3323566206648856   T   T   T
  3.7065891420042201  2.9667179049952472 13.3105027967321661   T   T   T
 11.1536189761574409 11.1472366219867745  3.1214917756228489   T   T   T
 28.8828193924595098  4.2873764419753044  5.8897016074921407   T   T   T
  7.8027864773870270 11.2094079700481135 12.5039029890910580   T   T   T
 14.6315485144194835  7.9266107524540432 12.6564762411650449   T   T   T
 15.9754269497364962 10.1597117723403212 14.6053723779920563   T   T   T
  4.7024656586679718  4.6329456699269445 15.2460066543272763   T   T   T
 17.3968784160320524 11.5787287282838847 -0.7176119771048974   T   T   T
 21.1716078621889210  9.0337233063855482 -2.1743622702451941   T   T   T
 -0.4033367975168150 12.4703443731118995  8.2627080958902468   T   T   T
 17.3967895825202206  2.0047420283307940 12.2155271439066855   T   T   T
 19.9071862242693101 17.0370604729847344 20.4541156394420085   T   T   T
  6.0874462324999294 10.0043708410374830 15.4035765417467907   T   T   T
  5.7366706386852870 15.2031291054606097  1.6461807767717924   T   T   T
 23.6303898489087985  0.5928616096298316 -7.9695254182782591   T   T   T
 18.1008769594146486 14.6277186769410577  8.7109985887169294   T   T   T
  9.7391510186444386  7.3941727223800147  5.1863676398805332   T   T   T
  9.7609860631614982 14.0004525066052334 14.0386728942934873   T   T   T
 22.5148430986784476 10.1125777684018399 16.1469401525122080   T   T   T
 -1.9815045174598891  6.7714521898064115 -2.3556435402570561   T   T   T
 14.8864450392937897  5.5821518376665953 -2.5676536770338254   T   T   T
 21.9484742972503994  1.4202160699739432  9.1312316998001979   T   T   T
  6.8137455651743846  5.9470310715854362  5.9016608296410915   T   T   T
 16.0484934195028259  4.3133213685547140  6.5635127746808752   T   T   T
 16.2196319910307452  3.5780132224059122 14.1461223836375360   T   T   T
 -0.0903435195420905  2.3557917287954138  8.6951391366207194   T   T   T
  9.4829535561349054  6.1524899642606492  8.1844996634126232   T   T   T
 24.0575039628295642  5.4227431869328635  8.0025105159051400   T   T   T
  9.1693208399694353  4.3867051838527100 16.5881207026834261   T   T   T
 14.1133097603295212  1.2470899577172672 12.5464284913232120   T   T   T
  3.9393744418219465 10.0228399589729253 12.9483238587306246   T   T   T
  0.4134453673894214 -1.9630158553896673  5.1486704153337932   T   T   T
 14.2817288266661553  5.6226728276296116  8.6911631380391956   T   T   T
 19.4164720776599609  2.2788798430033577  6.7220534222548229   T   T   T
 11.9550073804343029  8.9836509354363763 10.8317594865022411   T   T   T
  9.4838313029905450 -2.8492711697513049 16.8920113727752899   T   T   T
 -1.5220305605916009  6.1513088793109025 11.0997878269353976   T   T   T
  3.0675407235067418 -4.6650905266571518  7.9518505724918747   T   T   T
 16.5629202847778032 11.5548514952487142  7.5729582351351699   T   T   T
 20.5666988503484376 10.9424456597566397 12.3528179555051256   T   T   T
  7.7634511731865530  5.4911310303317906 13.0593148646916966   T   T   T
 10.6143877555239872 15.4271217136666259 10.3758586355215296   T   T   T
 -1.2463595972135104  4.9633486838878040 14.3878888766286224   T   T   T
  7.2725748811663058 14.2666006266179686 -0.9268922424890431   T   T   T
 14.1181042534032031  9.8562754155950394  8.6736229457834852   T   T   T
 20.1238900257687376  0.1872984599246115 -2.0254909375696006   T   T   T
  6.9260480282511407  8.4470567132559360  4.9272178369763449   T   T   T
 11.8839388074679295 -1.7080114730335558 12.8211108737753321   T   T   T
 25.3909162081991369  8.6258848289930139 10.9979798000763775   T   T   T
  6.4662504034542980 -6.7127356925825357 -2.7584530263988776   T   T   T
 14.2582028501097291 12.8106102674066502 -2.2242587293328171   T   T   T
 16.7967445477647743  3.7990651947115071 22.8194240008963050   T   T   T
 21.2095637709789244  2.0067672418406155 28.8949236231517936   T   T   T
  1.8957866025025079 12.4752047304903932 24.3555657384192870   T   T   T
 16.3381605363951223  0.5872857531272470 19.2902111579630571   T   T   T
 22.1535301952076864  6.4822333055174486 38.1819816694886214   T   T   T
  1.8598093124767703  5.2083617934766240 37.4335977510826012   T   T   T
  9.2938368635393047 12.6705912683384234 30.6221387250225909   T   T   T
 23.4317750211538254  5.2457352978597198 23.1113737413315299   T   T   T
 -2.2301455426210346 15.2622751442571669 23.0673414688851466   T   T   T
 14.3300029714931352  4.0855369741482139 18.6794662861437608   T   T   T
 18.1362693075386190  7.0069314688102038 32.3224553399346206   T   T   T
  2.7855891941428226  6.9574562927444665 28.4261347468236814   T   T   T
 10.4925349979327454 12.3061215917521967 28.1309541798315017   T   T   T
 24.1627769435474278  1.5009828437636394 32.1001359527985599   T   T   T
 11.9288624188508159  8.3060647530452698 18.2949395838777420   T   T   T
 15.6176799084097233 -0.0545625323995602 16.2086583953545471   T   T   T
 13.4371554195718144  9.2553630719722211 34.4606221219865461   T   T   T
  8.5269076155881667 -3.7340368776976662 34.4058701352595619   T   T   T
  9.1794375686361018  9.4959622954844569 28.2970756474560829   T   T   T
 25.1594074422104654  3.0413605440261930 28.3911065767473580   T   T   T
 -0.3471559552566239  6.6118553241758642 20.0882137050862575   T   T   T
 16.7363122961106967  2.7560188974355544 25.7680509441867045   T   T   T
 22.2509892791396524  9.0046002507398750 40.3761468696501993   T   T   T
  3.3615180989011422 -3.0924625630984037 30.5646914085424228   T   T   T
 16.5378365207714069 11.4428510703109012 21.8856263700141689   T   T   T
 34.3101598846975051  1.7457551891405458 23.0564698867327209   T   T   T
  4.1537364872994305  8.6873429417362047 22.5335717726080134   T   T   T
 18.4881876135919256  6.2894245870972583 19.0240591656299038   T   T   T
 15.1645475654824153 14.3848784139271491 29.0332392789118288   T   T   T
  3.4403439535185805  4.7801815472385760 22.4650955786845223   T   T   T
 12.2407462167588221 10.5201625360659765 31.8382064490787897   T   T   T
 21.9056250020678078  2.7930227606848121 31.9976590187019205   T   T   T
  4.2913142061373444 10.4608645403605482 25.5765145457851766   T   T   T
 13.5498774536386932  2.7675955825933474 26.2827123114846692   T   T   T
 17.5659221907010590  6.8389365071227042 45.8833805174311422   T   T   T
 11.0195584342824908  5.2883509440525529 29.1974392389495101   T   T   T
 15.3225082928628815  0.8347122615982222 23.3964645696517408   T   T   T
 21.6519332554751145  4.1087422638898179 24.4330548124470646   T   T   T
 19.7446542434509453 11.9666071867460779 34.7599046026549274   T   T   T
  5.0066804104406701 11.1743435341413573 34.5518410958531206   T   T   T
 17.6924141017796543  1.0256163122791686 28.6731741489402339   T   T   T
  3.5820400695482788  4.7720939706013370 31.1177382837414456   T   T   T
  5.9255794528447989 -0.4747880931809768 17.8175673723167023   T   T   T
 23.0223131111484705  6.7526519141404471 26.5368189143866182   T   T   T
 20.0779222790894778  4.6305208558936028 38.2119433761065821   T   T   T
  7.9064160205359819  5.1787101599224874 39.0886224449825761   T   T   T
 16.1999836001405768  0.4937289247649274 32.4457129390407175   T   T   T
  8.7013000842820070 11.8022799556258047 21.9332029536047699   T   T   T
 25.8909297010531176  7.2770595770787807 16.7968861934312983   T   T   T
 -2.6996597830457407  4.5059488955131810 36.5209413525730682   T   T   T
  9.1188011470236958  3.7338991041385565 27.8822822462718101   T   T   T
 24.2472446985389070 14.6341825583422089 35.0525474385295652   T   T   T
  5.8363314841709792  6.4578101847186193 27.8198370305899587   T   T   T
 11.3969505494979213 -0.4930928438082501 24.4087831264578412   T   T   T
 21.6864543867863659  8.6588441522489266 24.5816961567671619   T   T   T
  6.4685660248294656  2.2812140655568882 42.3188846770352001   T   T   T
 17.2272586044518263  9.6836719673546945 34.5583772606466084   T   T   T
 16.9508278759337685 -2.4550574356589063 28.6650388009765784   T   T   T
  3.7941213526162128  8.2943044805873498 30.7823109271987398   T   T   T
  8.1502713450187674 -1.4613610433740198 25.8291170016014426   T   T   T
 23.7230128890817724 11.2037674245871610 18.4161408786824872   T   T   T
 -0.7476369892004356  4.9543716102935091 38.6313306370151039   T   T   T
 22.1931735809784172 15.1330851533896524 43.6950327810528591   T   T   T
 10.8884429671215042  8.4105655045742029 22.7816798933446343   T   T   T
  0.4750885424700466 10.6969237332439331 22.7033239638212763   T   T   T
  7.0383155806262589 14.8610827019025997 23.4276537601130705   T   T   T
 14.4064649996323944  5.2991839702456494 24.1561778691672338   T   T   T
 25.2524737427808503 11.1248968169329014 29.0643486351959019   T   T   T
 20.1469256410801094 10.0825662760362320 38.1079699511680019   T   T   T
 19.4426368632607733 13.8533496899819220 30.8021044555180943   T   T   T
  4.4898308638077609  4.5172918509734989 28.2716345477405611   T   T   T
 11.0304583678723205  0.7501516378442213 28.1476780287032113   T   T   T
 21.4298069064844086 10.6943824558206515 29.4510576783712885   T   T   T
  1.4067892297169224  1.2868424927047217 22.2688589883251709   T   T   T
 13.4632025257307131  9.1907405734584646 24.3412307604339162   T   T   T
 15.7113651321341905  4.8659757397754193 31.2064371250529824   T   T   T
  7.0599051215064721 10.7519495250057631 37.6458952128677069   T   T   T
  7.4026432546472991  6.6460886382825368 22.5513280821369975   T   T   T
 22.9129516445410744 12.5729927298622819 30.7307377843366716   T   T   T
  8.8978388465162936  8.1158201155183001 18.5531450273634846   T   T   T
 15.5842485433099025  9.3159043071892587 26.5587676036504448   T   T   T
 15.7086532124831475 -2.3003696783694063 31.6830663023007695   T   T   T
 -1.6829171533919023 11.5391184607267814 34.5007295335653552   T   T   T
 12.8408824969740287  3.0460521359031407 33.8802183398283816   T   T   T
 23.7891051332994934  8.4311118875503333 28.9076492637920701   T   T   T
  1.2677444322126568  4.7221606900322826 24.6990377622308444   T   T   T
 14.2402030904839538 12.4276687956333536 24.7121178740622192   T   T   T
 18.9264473344782971 -6.9375831479210808 36.0357211215706386   T   T   T
 12.8320638443173696 10.2262812707122563 28.9034785614138734   T   T   T
 10.2996949201077133  2.2071120977328587 32.0227004051093047   T   T   T
 25.3117188398873338 10.0962694784634639 31.4706232811120756   T   T   T
  4.4652745668672509  1.6000071965179761 22.8652481277135955   T   T   T
 19.2974473080827948  7.2022485170872148 23.9309360290534023   T   T   T
 20.6580824293369574 -1.6387541185682815 46.2566586185002535   T   T   T
  8.9112681354433878  3.6238595401537683 36.0191961841954296   T   T   T
  9.4528986267971806  5.2240016625346364 33.7162088149199235   T   T   T
 22.8473802438113722 19.6688246562916333 30.3687864026863714   T   T   T
  5.1102349561125493  2.9034401125954310 25.0073570222337693   T   T   T
 13.5382306958186653 11.1968528453507403 19.3303571529489027   T   T   T
 20.1037044710773714  4.2007485503776056 34.9187825934050267   T   T   T
  5.7043847640305172 13.9195074297547787 31.9892126994881494   T   T   T
 13.3243119829320182  2.1190638596417299 29.7618502704037340   T   T   T
 20.3198070179515753  5.7641528792938459 26.3565987839982370   T   T   T
  2.0891852920755429  1.7490423793153682 25.9097061116902694   T   T   T
 11.2972095682260072  7.3479101369286104 25.2059196326429742   T   T   T
 15.1700944537057509  3.5357651130326815 38.1042931301162255   T   T   T
  1.5296676303841843 16.4677531264916119 36.7765670062981727   T   T   T
  5.2741543620680114 -2.6012537828496369 28.6820815555671018   T   T   T
 18.2300917237917801  4.7677541188650512 29.3249563549801735   T   T   T
 19.9094641877081600  0.0534301365442181 23.1208434913953909   T   T   T
  0.9851482041367834  8.1078569428058369 24.3583784666532956   T   T   T
  7.6217229671279991 -6.4916799858216327 36.8326424558479744   T   T   T
 23.3844825594458570 12.3362707783713077 37.2880839372993336   T   T   T
  4.7158634375635886  2.7375981443614692 34.5297439234109405   T   T   T
 18.9522716523258836  7.9711917612949712 28.7692709745035025   T   T   T
 20.7885776461648675 -1.6340435169383125 26.5762092488234849   T   T   T
  6.4888931962938079 10.7416450203626983 19.6420748509398884   T   T   T
  8.4986887210784978  1.9600656480428154 29.3153975877085351   T   T   T
 31.2768876556974220  4.8127048132412593 35.2877435654077658   T   T   T
  5.1699233812365994 15.5770625659483173 28.5392456551601512   T   T   T
 17.9782463017297971 10.1755346264925013 24.6365494834395804   T   T   T
 21.5994651471314043 11.3850120079099426 23.9654623304901762   T   T   T
 10.4830194012423252  5.8048874346999106 22.7858581580736228   T   T   T
 13.5581253035009919 11.1471042247928374 37.6494014047531635   T   T   T
  3.9947231009167652  6.2927779318774952 39.4421258980142895   T   T   T
  3.2862985945299528  0.8299753188779674 30.8729532431974185   T   T   T
 15.9145615892515124  8.4387891768476742 30.4221593810169182   T   T   T
 20.5317375526058896  1.0411039118721228 25.7990405870486690   T   T   T
 10.6482811400702033 -1.2247929044060875 21.3504451544768159   T   T   T
  9.9320605812790621 -5.3206822561832556 39.1010756512746482   T   T   T
  2.7167414285058462 13.4049512882479949 33.6946598491566931   T   T   T
  6.6865576123809429  6.4688663436335965 31.1153672972913604   T   T   T
 12.8137919100510498  2.2217352253657876 23.4915063990387125   T   T   T
 23.1107070633806941 -10.9599025612896970 19.0808919524452847   T   T   T
  8.4202716455317486  5.9749982543308402 26.1288733463401321   T   T   T
 10.5292235255996012  5.8159848142225812 36.9669825707939026   T   T   T
 -2.5417319178660471  8.8339334093359732 31.8562092831334596   T   T   T
  2.3838258964468184 14.2258858792893648 28.5793208515336552   T   T   T
 15.2107413361710435  5.9918370816574846 28.7228224669610768   T   T   T
 23.9886964738638255 13.7946138781662881 25.6669306655839975   T   T   T
  7.6498063986901261  9.1079426546051732 24.4798315664554984   T   T   T
 11.0473152285758687  7.3125607262799210 34.7809181100148237   T   T   T
 27.2978530268657735  6.5987115448303104 34.4858701494852014   T   T   T
  0.9401229789272721 -0.8817354107952380  0.8260201990259283   T   T   T
 12.7200206509900067  7.0245079629218337  0.6117309751088271   T   T   T
 15.9995866136858105  0.2897447249501211  5.9385215459331988   T   T   T
  3.6422606454419806  7.5325187861222265  5.6601411116420985   T   T   T
  7.3847291551905538  0.5215694215655159 10.9664422704798721   T   T   T
 20.3346514940677068  7.4201289551761409 11.6000920225882229   T   T   T
 22.2989240092595580 11.2240169472958176  6.1985162253475643   T   T   T
  9.8147119982679882  4.0854533979406904  5.2220973351165103   T   T   T
 14.1453599636717300 11.8187918793585673 11.6354159386581344   T   T   T
  1.2582910871233290  4.1693538105946448 11.3768196108163853   T   T   T
 10.5245240929268871 12.0000537129568556 -0.1515724513445323   T   T   T
 18.0933726397026646  2.3913009355996997 -0.2254807535821759   T   T   T
  3.0724552020868163  0.3489143782312968  5.3356826572982312   T   T   T
 15.7134249337246139  7.7661453191097456  5.9671886153999134   T   T   T
 20.2973919238658240  0.1241839600182839 11.8129221248918590   T   T   T
  7.9873643867241197  7.7838044249222031 11.3364806083436083   T   T   T
 11.4289368219245802 -0.4733736808825647  0.4102867370398044   T   T   T
  1.3632742575969565 12.2682885156775310 -1.0063267445370998   T   T   T
 22.2186563364370500  3.8634383478059569  6.1539790247152588   T   T   T
  9.5472691993144032 11.3320017222316221  5.4199489484111893   T   T   T
 13.8995379895644913  4.1761250863369321 11.5674777305070045   T   T   T
  1.3690140762930951 11.4081920528197838 11.2611241767005943   T   T   T
  5.0056122031268888  2.8821879324954134  0.6075813048854251   T   T   T
 17.9486213688665828 15.0563112330209936  1.0186083665255778   T   T   T
 11.0261660166994737 -3.5051842541216458 19.7117793719633596   T   T   T
 26.0595072306117643  9.6808165768696455 18.4389402976115235   T   T   T
 25.8148616436634555 -1.0664664433130895 31.7836378109289868   T   T   T
 12.8480748616418889  6.6687030695256180 31.5794430002311621   T   T   T
 17.4306742853444518 -0.3302839785972891 25.7359963720480280   T   T   T
  4.6780788247816556  6.6848224462476136 25.1870940475043419   T   T   T
  6.4932592411617049  2.9689990999685381 31.5454722051993102   T   T   T
 19.2229732485981515 10.3036026333578530 31.7284185689306248   T   T   T
 23.8119442467871352  3.0577494007888686 25.9291608264016489   T   T   T
 10.9221872983886978 10.6359109711597632 25.3869457800198752   T   T   T
 17.1972584899261847  3.4221355140699572 19.5483582044584310   T   T   T
  3.9348713097274617 13.9459836028592257 19.8175842522047070   T   T   T
 12.5691822826362909 -0.3316134675840847 31.4346708410349009   T   T   T
 25.5984952386395008  6.3818751589529761 31.6500619803311132   T   T   T
  4.8334981931638508 -0.7972819506205778 25.6054188329676684   T   T   T
 17.1032167706960436  6.4683562028617736 25.7008523184504973   T   T   T
 23.5548506541072058  0.6648563427445355 19.3291061650000024   T   T   T
 11.6466809339832995  5.4110379273913987 17.8350027483462235   T   T   T
  6.4429986120098990 10.1145399405865994 31.3535277228779208   T   T   T
 19.0325952059101198  2.8177161567291629 31.9023147919801104   T   T   T
 23.7982511917813255 10.2813189327082952 26.1063925054912644   T   T   T
 10.8261124033193106  3.3218666031250272 25.5180530530355441   T   T   T
 16.5511811452181163 12.0854794163964385 18.6351116545301210   T   T   T
  1.4972520158860676  4.4877759375839439 17.5407924983624213   T   T   T
  3.1024443493560132  0.3076036694730991  7.4628723994526718   T   T   T
 15.3768530935269485  7.5499293288755513  7.9518310912614059   T   T   T
 20.0435749664742673 -0.0733958071552126 13.9841348171941249   T   T   T
  7.7232597078713026  7.8005439621567225 13.4402441471423941   T   T   T
 12.6367029549529004 -1.5371438779595727  1.7501223609105958   T   T   T
 -1.1980906770635038  7.5332336483974949  2.3579447434678524   T   T   T
 21.1669684094917585  1.9284641989844631 11.4526244853190065   T   T   T
  9.1398697276102823  9.4845393717868749 10.8263632230122546   T   T   T
 17.6473637804171943  1.9869926699345979 20.9375539684407670   T   T   T
 -0.5488445981165661  9.3663420104572417 16.7686228088840288   T   T   T
  4.0212243298632595  2.1559650125354652  4.7433938347365592   T   T   T
 16.5999412704483973  9.5375926414002699  5.6993174517211136   T   T   T
 21.4076913917387870  5.8244821790540406 10.8926274203011868   T   T   T
  8.0316958866337469 13.2334171347727079 10.4258793755916805   T   T   T
  8.7953824277938040  4.9726218026025073 20.4785076472278789   T   T   T
  3.4758949539859767 13.7283453329718057 17.8059246055240266   T   T   T
  4.8488506587600408  6.1415621111025844  4.5164201741259840   T   T   T
 17.2343702197235800 13.1202818389515325  5.6927560288940473   T   T   T
  5.4026076762761113  0.7646888446467427 10.5373421051695413   T   T   T
 18.2141348647292247  7.2604514994323210 10.9356681928287287   T   T   T
 21.9406777369438544 -2.1785083672915344 17.2069551180640232   T   T   T
 10.6858811824358160  5.4051539076550572 20.0252378258064603   T   T   T
 14.3720910364873653  0.1341021247391936  4.6813137930466873   T   T   T
  1.5033576748368829  7.4937624367098152  5.1518733154119971   T   T   T
  1.3011556276118912  3.8747393458504602  7.0760230801275599   T   T   T
 13.8066221646040592 11.1951023907409084  7.0659393478143482   T   T   T
 18.1751085921774234  3.7374387946555605 13.1364575731034581   T   T   T
  5.5102685611789299 11.6056702974913826 13.0276245829627033   T   T   T
 10.6039438396819374  3.6823730332852049  0.6811595158803846   T   T   T
 22.2637035692945062 11.0781917057768773  1.9514745773639186   T   T   T
 22.0657485037036025  3.9670111023524970  8.2304506342449635   T   T   T
  9.7145961104983467 11.4308996520399635  7.5136007202157771   T   T   T
 13.7185687637534652  3.9979297788653834 13.6071143338710581   T   T   T
  1.1907328474239645 11.5091215020497888 13.3932115160661098   T   T   T
  5.4865910895623049  4.7554604966820078  1.4639978268136145   T   T   T
 18.7811839481108436 13.5652181871764910 -0.3799765011813921   T   T   T
 -0.4953427361477150 11.4377326014807537 10.4467607066211574   T   T   T
 15.1888309096701093  5.7014232259290871 11.1222031133800900   T   T   T
 20.1073089287444020 14.3679101712201245 20.6869260897947100   T   T   T
  5.9967624089514260  8.8249869093237603 17.5087003857013634   T   T   T
 10.6685876944774769 12.9299594317006612  4.8113206438661047   T   T   T
 23.0347582216843989  5.8967889463195098  5.6606771320209459   T   T   T
  2.3027405537695000  2.4697872561701124 10.7566468645178368   T   T   T
 15.2241629541590182  9.7008573461036267 11.1551457135300840   T   T   T
 22.1766989341231167  1.4380812035026560 18.1012479933627830   T   T   T
  8.0041145218697736 13.9719454030829375 16.3241833986782545   T   T   T
 10.8611633632306610  2.2945453415323254  4.4910700890117248   T   T   T
 23.0666204153264474  9.3138276114815373  5.5986549889364987   T   T   T
 -0.6907408125982166  3.9006335898882436 10.4714802087452075   T   T   T
 12.4580696635295602 11.4261607177018085 10.6216203964802514   T   T   T
 22.8574685475631725  5.4263635802329855 20.4962054735259862   T   T   T
  5.9471896312873529 13.7032225870489857 19.9889764895919591   T   T   T
  7.9058521381063631  4.1493133169168175  4.4544894896293750   T   T   T
 20.3295903027899030 11.1549547692151574  5.6048863849458845   T   T   T
 -0.9381215629034305  0.1650271734712231 14.3299971271119642   T   T   T
 12.0025783057700046  8.0224810688000918 13.0453785312773451   T   T   T
 15.7838827807638147  0.4087941615552712  0.7627572875442763   T   T   T
  2.4144246998755596  7.3722078832776203  1.0472127238796118   T   T   T
  7.4239988684778178  0.6303668172603428  6.6258799618468114   T   T   T
 19.7229757166909536  7.5151404218950857  7.4093852652661907   T   T   T
 24.7449497510569287  0.5003038939783935 -0.0072857320401349   T   T   T
 12.1758419320290141  9.1170482614244399  0.9734155982320150   T   T   T
 15.6856033544724252  0.1129679353281446  7.9643775194177637   T   T   T
  3.8585868073227227  7.1714718700557967  7.6599738884798372   T   T   T
  7.3674528086753055  0.3814869266778937 12.9856010334365575   T   T   T
 20.3719656934604956  7.5155876547665503 13.5568116904237144   T   T   T
 21.1749706651995879  9.1312239601517877 10.9101640421833732   T   T   T
  8.6134669619302837  2.1463840041299602 10.5629036503293197   T   T   T
 18.1882707892398798 11.7171485751823603 20.1118610026094551   T   T   T
  3.8494810420989864  4.9284227976445036 20.1943918570096912   T   T   T
  4.4762577789253317  9.3245607979550567  5.4781749201771150   T   T   T
 17.1340863811014970  1.8340207721568424  5.1728511894907152   T   T   T