Li P  S  Cl
 1.0000000000000000
    25.1819793006824639    0.0000000000000000    0.0000000000000015
    -0.0000000000000009   14.5388225279766061    0.0000000000000009
     0.0000000000000000    0.0000000000000000   37.2126966544236950
 Li  P   S   Cl 
 288  48 240  48
Selective dynamics
Cartesian
  1.8102621396029515  2.6040389939699886  7.7077451110338302   T   T   T
 16.5139119430177423  6.0340593192140961  8.5519019428061593   T   T   T
 21.2201374264347820  4.4303994242672085 12.8454487533735726   T   T   T
  7.5498808852834722  6.3730246691970995 14.5817066039276622   T   T   T
 12.1966329759704575  1.6764654810634287 -2.6632995158632751   T   T   T
 18.6877819323438317  7.7715573123145587 -2.4260332228717045   T   T   T
 -0.7843090697698414 -4.6963336605175270 11.8793929619325471   T   T   T
 13.3711437092616574 13.7083171198669831  6.7724933666672271   T   T   T
 21.1857607891541129  4.1840771665513445 17.7962411278284698   T   T   T
  5.6675578422888853  9.2285276016400744 19.8308662549731913   T   T   T
  8.3356232066391165  6.2198498204619357  8.8130645056207140   T   T   T
 19.9861883145364985  9.6811141095252538  4.9749285542445607   T   T   T
  1.9893760660402748  8.7041441292996247 18.7047053107435381   T   T   T
 16.2275395778683134 11.7070290725289219  5.8565269335023258   T   T   T
 22.4010154743493466 -6.1290723535384810 18.5723008598650381   T   T   T
  6.7675920015825328 14.4657220798656532 13.2614742210892338   T   T   T
 11.3124482470877084 10.4321102442874398 -0.7123150040771798   T   T   T
 19.9158745989029882 15.4917365984618165  4.7981289711041635   T   T   T
  0.8847618440840769  6.8445935678783165  5.9029006187956776   T   T   T
 14.8141138721938876 10.3257379735415569  9.3458741476452811   T   T   T
 17.9556429040474654  6.6528173081186388 12.1590031399032448   T   T   T
 11.9476791423766766 11.1230275310905462 17.9752262439983319   T   T   T
  9.0508590233771731  2.6272336974090611  3.1219673043484644   T   T   T
 25.0091492466106686 10.3528889721539450  7.0747707021975987   T   T   T
  0.0234063046334348  4.8733086963420371  8.1743190634543179   T   T   T
 13.6414829119231644 10.6481511095531118  5.5772962946089688   T   T   T
 19.0014231126774469  5.9986825903680012 15.1061760623259413   T   T   T
  6.1350938288903967 12.2622352936199661 15.8048634151486400   T   T   T
  7.2815830068869358  6.8825077998991251  5.9650336628578913   T   T   T
 22.0243434454646625  6.1710391518275847  3.3163719448572730   T   T   T
  0.7598669550685943  7.1874489624583653 11.1211065218780263   T   T   T
 12.4085927916737813 10.9566893153743479  7.8366050566710443   T   T   T
 13.1369419539491954  7.3143005022563861 19.8057252779924511   T   T   T
  5.6866400276886697  9.4337152241650024 13.9630282595431314   T   T   T
  8.2564515491281565  8.7902203808505703 -3.0435031227166540   T   T   T
 15.0147871297051303 14.8748574920710794 -2.7519446957050060   T   T   T
 22.9852455801830224 15.6612127840308375 13.8907140285082686   T   T   T
 10.5983096909984713  6.1383270117251776 13.0745940716521716   T   T   T
 11.6590814252261463 11.9573481040967629  3.6006575973391142   T   T   T
 -1.2054430420592765  5.5368627409314248 -2.3784535036934402   T   T   T
 10.5746496596682071 12.9234397258088798 -2.7285165786831449   T   T   T
 19.0980246711558905  8.7635565080990858  8.6704501021790499   T   T   T
 21.7324177307967403 -1.7635070266955244 19.3186446762230837   T   T   T
  9.2963875175166937  4.9772504567562050 17.3557105718467319   T   T   T
 14.6307131304978366  4.0427090236732246 -0.0724450532074714   T   T   T
  0.9649027326574133  3.6345489256402792  4.7787580366402871   T   T   T
  6.2992331743824135  2.5997133306034961  8.3781816756834608   T   T   T
 18.0671291240539915  9.9100878331397091 20.4826030386528011   T   T   T
 -0.1559527425219550  0.0925294133887960 10.9678288937082655   T   T   T
 12.8748677785159593 10.1875262599128789 13.4615605442487762   T   T   T
  7.1520750706289764 -1.4248591381190721  7.4761566887805690   T   T   T
 -2.7483473054413210 10.1929566897897210  2.5801383941270370   T   T   T
 12.5517423986015331  3.0573072294668804 11.6121276774466544   T   T   T
 19.9326409444871224  6.4810213670151127  6.3223455545044160   T   T   T
  5.8728714239208326  8.1800306530187896  3.2925534771005407   T   T   T
 18.3622522140478601 10.8378054393850931 11.6575860426622580   T   T   T
 15.4061751773991560  1.9714975819086653  3.2057214381212860   T   T   T
  4.5698337216368907 10.7816959860235322  2.6686380490998975   T   T   T
  9.5648561464163073  0.1942746437070971  9.2263245836192915   T   T   T
 21.3396113061105304 10.6684105330569743  8.4393040263767674   T   T   T
  2.0740783797541802 15.6764271585935973 12.1029719974256214   T   T   T
  8.7297924699946989  8.6863715858278212 18.3648365429468896   T   T   T
 18.3128611803023489 17.4259430925521315  2.5354784396947734   T   T   T
  2.1934604076436961 -0.3018328266424194  2.5141111578177306   T   T   T
  9.1985369278651685 17.4066875745213103  9.0082024595782926   T   T   T
 22.4083312005265114  8.0395972262454478  8.8152544024529984   T   T   T
 26.3445735336730209 -4.8653917541122755 21.4639589593188091   T   T   T
 14.5790944698616940  7.6454607678023576 12.7941319094305861   T   T   T
 16.9902337201219993  2.5440939485679710 -0.2996957100023204   T   T   T
  3.0174900065675150 12.5083047946679784 -1.7432981729569903   T   T   T
  7.5398802025420641  0.3475301060489953  5.0067986084231801   T   T   T
 21.6245796010481399  3.3205714503202124  2.7942012129472489   T   T   T
  1.1352331510308140 13.8377254980929010 15.1215030872647365   T   T   T
 17.5169655615798447 -0.6878946914731986  2.7720983352716901   T   T   T
 20.6169048177459757 13.1289948578470614 12.7953357139035866   T   T   T
  5.0684770252617621  3.0870769139717886 11.6844429369467857   T   T   T
  7.9943739042202626 15.9196196776040395 -2.9330742073564151   T   T   T
 20.5587538497910991  4.0531990786074994 -2.6152215819721745   T   T   T
  5.5229978697591102 18.7275439575476241 15.9901235170485112   T   T   T
 13.5496470311065327  3.0118118923710089  6.1214721937716394   T   T   T
 19.5456390453152764  3.1277151663007907 20.3544600182886626   T   T   T
  5.4254003510421800 11.6224000544427533 11.3699869105159781   T   T   T
  8.6356194196843887 10.6308167064671935  2.2394152024974741   T   T   T
 24.2263637430277115  7.4725092481387279  1.2345006362365043   T   T   T
 -0.0662219196557357 12.5772824543537425  8.4534969757519569   T   T   T
 16.3172022875686906  4.5223055691454537  5.8828358856147647   T   T   T
 17.1101974384695339  3.8875209303683946 18.2336327920438492   T   T   T
 12.3000028911393766 -1.0859621145086273 14.7822309009976749   T   T   T
 13.8757340710722730  8.1532963992906851  0.3888987015475482   T   T   T
 28.8959117095239719  5.8585107859016716  8.1423740780966369   T   T   T
  3.0259182963071805 10.3931576596157669  8.4127286734279814   T   T   T
 14.0052510079957777  6.9048717707256539  7.1090235502793480   T   T   T
 16.7928595790685300 13.6579335641394337 13.5458843702230993   T   T   T
 10.3871210785770280  2.6089300815698375 15.5431215439389199   T   T   T
  4.0294328055509991  9.5074650963215497 -2.4741681867501848   T   T   T
 19.7189807699734914  4.6685553546254237 10.4988709633943174   T   T   T
  3.2755941504877404 13.4056213303189580  8.2322009950475898   T   T   T
 10.4373460612684621 -0.8540418185816645 17.2655463989384756   T   T   T
 16.6847218407079971 10.7163032088791113 13.7482917746126336   T   T   T
  6.4492196567379221  5.8189867214346442 10.9758809802980721   T   T   T
 12.4267335538512480  5.0458786767706618  3.6182354004694210   T   T   T
 23.6018987107758562 -3.4576688315275854  0.4486440976748791   T   T   T
  3.7374743951876592 11.9795758712805238  5.5115292338099655   T   T   T
 12.3930758850500471 -0.5726105458985012 11.4873874316475870   T   T   T
 18.6093387522140112 16.8685574634055300 13.1370060462076470   T   T   T
  3.9502168877668336  5.7572972665815811 13.2729987872626936   T   T   T
  8.6221563649858552 12.9156982223114625  0.4641442848190105   T   T   T
 26.0415005309572294 10.3612957706885780  3.5386953525232956   T   T   T
 21.4786060268069541 13.3821393663893637  9.0910083361567082   T   T   T
 11.6812616537699121  8.4584129911491104 11.1326683821980250   T   T   T
 16.4236908824889767 17.9330248668208405 13.3961543824460989   T   T   T
 24.3640124105254117  9.6090584665925931 14.9199399031397899   T   T   T
  6.0831393037677666 16.8797540967699433  2.7172600102576236   T   T   T
 15.9881087639984294  3.2858764326164303  8.6340485661801516   T   T   T
 18.6599529892190645 -1.2460260685007534 15.8003184352106949   T   T   T
  8.0121495031635028  9.6192434909447684  5.5038523159954789   T   T   T
 10.1927051761673226 -5.1316743128342157 14.5830144328132807   T   T   T
 23.3320775987072722  6.8389750764434858 13.6219806906532792   T   T   T
  2.9854072630326600  5.8596630338483058  4.4616985538144940   T   T   T
 16.1387524783905185 13.0239220927764201  8.9233748437816729   T   T   T
 19.0546465451459639  1.2680931849328936  8.3639983240228997   T   T   T
 12.1515847527979588  6.9493756164253755 15.2924677842712740   T   T   T
 12.3225828687641794  0.1842763160278271 19.7168200196427001   T   T   T
 -0.1414313202889696  3.4605776595419222 14.0386687889696216   T   T   T
 10.2375323529878663  1.4355454555252458  6.5963316429646133   T   T   T
 15.7730353013437199 10.5382771725088062 -0.6132415325808472   T   T   T
 24.3494969561264618 -1.7322341322330617 12.8996671867338932   T   T   T
 10.6853494300228231  8.1480861771083397  6.8187275038490442   T   T   T
 19.9819070780200079  1.5150278873320258 24.8122900642760165   T   T   T
  1.2612721248111978  6.6865531202372104 14.6462141432422950   T   T   T
  5.8645151173856958  9.1812510088365400  8.8023298523348608   T   T   T
 15.6723881682413655  9.8567419310093420  3.2926565457028385   T   T   T
 22.0005378091663140 16.7279742363923738  8.3655157692176285   T   T   T
  8.6565384003598247 11.8571997465589583 12.5524264315373824   T   T   T
  3.7778830669417727 13.4142031937726927 14.0315030115192254   T   T   T
  2.9496461821064646  5.4831365152563709 18.8174380581199934   T   T   T
  2.5113049694255185 15.9263085148501595 -0.4678682183320179   T   T   T
 22.7906360238228451  8.2942592988726851  6.0195881961590718   T   T   T
 19.5998527188227634 -1.5792890761898064  6.5948166217988780   T   T   T
  8.5396938372113613 10.4122604615623366  8.9426214924706127   T   T   T
  7.8081894094192661  1.1005553073880305 18.8177919908112159   T   T   T
 27.4405153659137753  9.3411287338985041 13.1419480391499821   T   T   T
 -1.1925415635161480  2.5425857343748213 10.8229525115360747   T   T   T
 10.0977747665994837  5.6359632983072334 -2.9754631249553110   T   T   T
  9.0012217480631325 10.6142389564259609 31.7477408417091880   T   T   T
 22.8511609099033457  1.1351004511415683 28.4126728752508164   T   T   T
  6.4452452951405137  6.5788316404136475 22.6796925304048251   T   T   T
 11.9884316053173539  3.8174771549117978 18.8202755157765935   T   T   T
 17.5330055054839882 13.4855462184511303 37.0547737815796197   T   T   T
  3.4787660925445105  2.8163061526506015 40.1590224851025397   T   T   T
 11.8672943697966584 10.7638613216349448 31.3815148873598631   T   T   T
 24.4810946660955899  4.3979148016934735 28.6540982300886569   T   T   T
 -0.2678945198606561  5.5406849784186853 19.4401874800614607   T   T   T
 13.7646698200532480  0.9035895864545429 17.6122696259593177   T   T   T
 16.8556462005219743 11.6064571904310760 28.8056288925903665   T   T   T
  5.4969897408858728 -0.0244275194097260 28.2246715381308668   T   T   T
  8.4018479675390036 10.5163255171169752 28.3420882857628733   T   T   T
 22.6802414334447882  4.6081225727011876 31.9923821758305245   T   T   T
  1.8900097367708826  2.5001143738483891 21.7119047605043924   T   T   T
 22.5764505973827276  4.9011625799626612 22.9381179870207745   T   T   T
 19.4502147451959040  0.3061323658674111 34.3203134560077814   T   T   T
  3.7749891851213215 -3.0267428398604932 28.9829163526260878   T   T   T
 10.8296211631821535 12.5691229200539425 28.6301709478902104   T   T   T
 25.8902109383178178  1.0435880642817792 24.6672662811184793   T   T   T
  3.1855676067806682 11.3635762833090403 22.2921231624218095   T   T   T
 15.1914384234322561  4.6490140060699119 22.7621084880263105   T   T   T
 26.0097564398566377 13.4121400734456415 42.9815586758881736   T   T   T
 12.8414321700648770 -2.4061778971573662 37.7429015948213902   T   T   T
 10.5163428823263310  7.9350014555348896 30.0261567015203035   T   T   T
 25.1530611572463556  2.5208684280007927 33.9810291698641862   T   T   T
  3.9104471302783472 12.2243732728621524 18.6763852977181486   T   T   T
 17.1233710900624558  2.9216635395748618 25.2809718233766105   T   T   T
 16.4589493424945097  6.6861833784333831 36.7930790524583387   T   T   T
  6.7590315737815292  5.1047714499974717 33.9222999679023403   T   T   T
 12.1535127752373917  9.6596884749033158 28.6453407965098421   T   T   T
 21.2324781416595201  4.1684920974614856 28.8849010860294690   T   T   T
  0.9237787417091793 -0.8221642317923272 20.7523788396316924   T   T   T
 17.7139003704666074 -2.8116403344195140 18.3438684052790713   T   T   T
 27.4873404047948071  5.4980360289368893 34.1394772472040202   T   T   T
 13.5209497032262789 -2.5626255346952922 34.5955695597684283   T   T   T
  7.0447771627545146 -2.6762786809979184 24.4294332320765690   T   T   T
 19.6569398342792319  8.1223109741994044 25.0235257604501236   T   T   T
 29.5612909744225263  3.9886402301066237 34.9363549216601186   T   T   T
  9.2600584083088009  5.8944504891761351 40.5815260327728424   T   T   T
 16.2072749933945559  0.7753179106452078 31.4530062891837225   T   T   T
  7.1694892117292035  6.7471810119724278 25.9848765671630701   T   T   T
  9.4240942750117558 -0.7918862668113302 26.0231778531759197   T   T   T
 19.3278375498134452  6.8512199774894063 22.4683275047670925   T   T   T
 24.7903606520858020 -4.3889424481628980 31.6581850225308727   T   T   T
 14.3598593792058633  1.3184386362586467 37.0619990211967689   T   T   T
 19.2513992186960401 -1.1109336888070958 30.6674832408481599   T   T   T
  2.0268950195848987  7.6191333430782864 28.4074805655468765   T   T   T
 12.6815278922641799  9.2630148048059233 22.4587543007168904   T   T   T
 22.8049595837924528  6.5474391674603014 25.8175364399628045   T   T   T
  3.4682436654415256  7.9873301634542102 30.8686475540644949   T   T   T
 17.3839483748135457  3.7225009552271282 34.6140864697243842   T   T   T
 21.7073465475937901 11.7269057964617538 24.0391596734183182   T   T   T
  0.1502162530534998  3.0542943367285318 30.7429622827038926   T   T   T
 13.1542809841992270  2.7339244243338920 22.8084369890959593   T   T   T
 20.0352703394299638  4.8679989157063632 25.0692529661837114   T   T   T
 -7.1031641765490727 -2.8022689559227509 34.3016929007689768   T   T   T
 14.9864240850555017 13.2987373252706824 28.6423555172301114   T   T   T
 17.6813816217796642  1.1423131613389974 28.4281982629015957   T   T   T
  5.8283972041045056  4.8496380873635454 28.3433060901908078   T   T   T
 15.6867848958037612 -4.6584162837545939 25.9018506117912075   T   T   T
 23.4045375229594761 12.4981835531901417 28.5855981945688420   T   T   T
 -5.9447384340163616  1.2314377200436519 37.5699857101184946   T   T   T
 12.6779468082839806  9.2013381220169741 34.2221191727016745   T   T   T
 15.8375490905278191  1.3294885264677889 22.5494979063444418   T   T   T
  4.0419654365208562  1.4558287663218359 18.9665590471817964   T   T   T
 -0.4457855588900977 10.2575508421942061 28.0423615586437585   T   T   T
 23.3316005569879330  8.0288982481938334 22.1444098717098896   T   T   T
 25.6933433231449584  8.8194354516348383 34.6291654142055521   T   T   T
 12.6534496905784160  4.8383396608320206 45.6039629119288534   T   T   T
 18.5106176935247611  8.0271593825036760 28.6489215478555224   T   T   T
  5.4694322517762535  7.9553388490516035 28.3491456829556441   T   T   T
 11.0475538855105864  4.2193649835872229 32.0080911057990676   T   T   T
 22.9519547623334965 14.3473312064493612 24.8122145105889373   T   T   T
  3.3937118292795732  2.8124663277895428 26.6516007889373157   T   T   T
 13.9499834536301233  7.8652379908637879 24.5310573378667236   T   T   T
 10.8847062974808981 -0.4018643349773625 37.1648517424584455   T   T   T
 14.4695736477341956  4.4951977844522322 34.6196089417284298   T   T   T
  9.4533781535869856  1.4975359890119855 31.2333812690684702   T   T   T
 25.5969824638467642  7.9621414528612773 24.3023538765483664   T   T   T
  0.8041052505154964  4.7548185127387725 24.1708334430508529   T   T   T
 16.0910096591061134  8.6180808110320086 22.6359482563833510   T   T   T
 19.9239038632170811 -2.3086342323945073 37.5400412547360816   T   T   T
  1.3012491101672452  8.8853583685540158 36.9491055119752403   T   T   T
 14.0234988860785332  4.7097747142730411 26.1725607055928897   T   T   T
 22.3447617671517627  8.9663595968167193 32.4047200837966329   T   T   T
  4.5402766096010660  3.6567156950047615 23.9336215615844061   T   T   T
 17.0182582672069884  8.4897610557464382 17.0100998187056156   T   T   T
 21.7812292565978858 15.2144880343411870 37.3966344887301858   T   T   T
  9.1015556784561795  7.3798278945187983 37.5406836711841834   T   T   T
 12.9873886620843670  2.3092558331124615 29.9684752993721517   T   T   T
 22.7652144474783285  7.7162256554682127 30.1242844906220562   T   T   T
  7.7103403766741749  3.3598228969012993 13.2064892430805845   T   T   T
 15.6029177465256410 11.3437058296018378 22.6548042192770467   T   T   T
 27.1892453643735976  4.7972810847462641 37.0235324465506110   T   T   T
  7.9108703029327092  4.5699081597825995 36.9540855577236584   T   T   T
  8.7082893872088398  4.0231351712679517 29.4867633830636393   T   T   T
 22.1164825078268912 11.6709845746157228 31.6074505370695675   T   T   T
  0.0895653438089228 11.2194804313649570 19.1143743508793200   T   T   T
 20.4241253639274980 11.1338110934368260 15.0948344277601159   T   T   T
 20.5086520644308301  9.5576293821554508 35.7696330569972787   T   T   T
  2.6087488167187542 10.1588095320171981 25.8121997734790547   T   T   T
  9.4220524862701360  1.6305107440574953 28.1128371894229154   T   T   T
 21.2631909584743788 10.5942933962711550 28.7286910903995327   T   T   T
  9.7798348580346026 -1.7366447027416190 22.4954050783648896   T   T   T
 13.1659444106330330 11.8290712047601545 24.9700085354355892   T   T   T
 22.9565927422694571  0.6682281864651255 43.0924624200417128   T   T   T
  6.0823666356127424  7.3645286518986515 35.8150064460127311   T   T   T
  9.6474361484241022  1.0345301536120424 23.0985779526972621   T   T   T
 16.2689470877804609  5.8212474933182783 31.9451516793599488   T   T   T
 14.2808189053666137  1.9338609215704488 26.2504284256985621   T   T   T
  3.7453524170273420  8.6420713535675411 23.2688276602946758   T   T   T
 11.8906525555750680  4.6953826735852013 28.3093135710279498   T   T   T
 25.0783520699060496 11.8382941764272118 34.2849472549723586   T   T   T
  1.8801604852847160 -1.1252375246593227 28.9036642981984926   T   T   T
 15.3956952990883238  7.6424120391192956 28.6422078163366152   T   T   T
 19.4681371904627625 -0.8061223969442285 22.3675702420276501   T   T   T
  9.6068562723540172  6.6383059809125644 26.0230812179264603   T   T   T
  3.1013504437915405  1.1293105435356539 33.5854878789738720   T   T   T
 22.2860785382480557  1.5655060259139884 31.5688463011824680   T   T   T
  0.4626008231643014 11.8639725915293717 24.1481527570977761   T   T   T
 19.5075573617744844  6.5147087340950671 31.2324358199853975   T   T   T
 19.9350398401550635 13.6574379775284953 25.9643220899612288   T   T   T
 10.5592037335818443  5.6243095993999637 23.3791197967250426   T   T   T
  3.1794336053593577 15.8519007540357855 30.6971724915140136   T   T   T
  3.3392824432359851  4.2934048491248484 30.5551437791524272   T   T   T
  4.2548910754945277 -2.1297356721788936 32.2186659057957741   T   T   T
 16.8546669825811861  4.4425527512924887 29.1340061744328764   T   T   T
 32.4108151031553291  1.4307475814707349 25.6364151506465880   T   T   T
  8.3188539503233141  9.0557543136300538 23.8665309990628351   T   T   T
 16.0564975533348502  6.3402329387778584 40.2646111930100901   T   T   T
  1.4834736705629197 11.2643385642530731 37.9508572483908893   T   T   T
  3.4258556491882293  1.0069928109253936 24.1531044230862122   T   T   T
 31.3273634381176507  6.5483245048785266 31.4230250625271879   T   T   T
 15.0284927017355798 -1.9914576781526581 18.2424498417468719   T   T   T
  6.1157153929132857 14.8010615335011124 22.7061323191625810   T   T   T
 15.8155467245638874 -2.0042454618636705 31.8362613982784097   T   T   T
 -5.0336851562247293  8.4533540811709003 38.6653546686341372   T   T   T
  6.6633073280556072 13.2678215566244724 30.0495644763674434   T   T   T
 16.3173279154673949  8.4857700668329663 31.4622067890409269   T   T   T
 22.6313235822049919 14.6327727110560382 22.0726710185191628   T   T   T
  7.8647227775449569  4.4202794669944714 24.1698594136404274   T   T   T
  6.6479836253392470 12.5924825515243448 35.2872357129049874   T   T   T
 32.3382380952391912  1.2002286005250820 36.8152653541691706   T   T   T
 -0.0281909062385128 -0.5706315155511086 -0.6562585114030071   T   T   T
 11.9007560872425149  6.0891168808565928 -0.2279366253196762   T   T   T
 16.5960112352519360  0.8318394824366537  5.9137376077491028   T   T   T
  4.2138306194333870  8.2118581043710073  5.6033237245075878   T   T   T
 10.1587108027785185  1.2225662143640548 12.8296132953339264   T   T   T
 21.0620694961588129  8.2237355937310923 11.8055289811056046   T   T   T
 22.8163772614448206 12.0704522601798487  5.4099144684577105   T   T   T
 10.2582224741819914  4.7985639434697287  5.8391574651989959   T   T   T
 14.8238507608464083 12.2485345535846442 11.6103258344933256   T   T   T
  1.8483014391684263  4.4805474316609200 11.0359882128433373   T   T   T
  6.7454270576931057  9.8963989501093970  0.3608371816820022   T   T   T
 20.3466934290168737  6.2883877301299993  0.2757945950913892   T   T   T
  4.0680122173756814  1.1238523414585817  5.4874999527564894   T   T   T
 16.6911803312271942  8.1985978394313825  5.6742276329204371   T   T   T
 21.0079108862700750  1.1154974328986880 11.4286411104416263   T   T   T
  8.2531242402116085  8.4851537298777551 11.8347858826203272   T   T   T
 11.8541423899896596  4.3714658438100571  1.3262942189875853   T   T   T
 -6.0981611919739676  4.4691953178834591  0.6073986958854438   T   T   T
 22.8783221703286088  4.4866884967400953  5.5158731561284711   T   T   T
 10.1757233622319792 12.2960434552727591  6.0239664115797638   T   T   T
 14.5166529341563901  5.1544575907308534 11.2364896229138154   T   T   T
  2.0206854934817602 12.1958609443990866 11.4277623365653440   T   T   T
  5.1516278568544402  3.8131686818366157  0.2179816641967341   T   T   T
 17.9422375726580405  9.5020430213013043  1.0040313298851713   T   T   T
  7.3075855286804767 -2.3813433662514738 18.8636964281677102   T   T   T
 19.8729776649259726  7.0430631528896575 18.1874149805589731   T   T   T
 25.2536690873637149 -0.5317677468269610 31.7716159359981987   T   T   T
 12.7365030002548156  6.7594433485215690 31.3992848691513160   T   T   T
 16.7540985791664632 -0.8657429574460648 25.4279582928238561   T   T   T
  4.0170531501378823  6.4589434310591587 25.4027840015600930   T   T   T
  6.2998335464205564  2.7332596499545181 31.2356581823148609   T   T   T
 19.0481978018933269 10.3758723304990070 31.8106958101249653   T   T   T
 23.2671616470534808  2.9541059051817795 25.6555096487047969   T   T   T
 10.3228593132427875 10.1983429919269355 25.5393754987365078   T   T   T
 14.8401156102905940  3.0781040575324758 19.8538070522328560   T   T   T
 -0.3965687024470852  8.2136352160358577 17.6065906952677516   T   T   T
 12.8038256790038627 -0.7154643881445757 31.5188097812006092   T   T   T
 25.4241355384225116  6.8411695320191948 31.2527734845903353   T   T   T
  3.8082898766931637 -1.1334344581126108 25.3759022885822638   T   T   T
 16.6691852148005637  6.7005901602185451 25.7625290764077661   T   T   T
 19.6726844124221714  0.5795160897877404 18.5696626357332448   T   T   T
  6.4153406410158897  6.5777807378184772 18.7606784997026352   T   T   T
  6.3054979599353969 10.3370180444859194 31.3777166171044435   T   T   T
 18.8868889135354934  2.9057998225843917 31.2897472085461779   T   T   T
 23.0760210890221451 10.0271363483865699 25.4493214477803953   T   T   T
 10.4553148924178743  3.0877047701198812 25.4946900408125430   T   T   T
 14.9284849459187505  9.6921373364577335 19.4343472103758543   T   T   T
  1.5841028826460433  2.5549118040102963 18.9353439727277113   T   T   T
  3.6515146688079008  1.1895169858051180  7.5620279541322741   T   T   T
 16.7302406171889615  8.7306693511145994  7.6164447287785428   T   T   T
 20.8088065232340931  1.0093309708843110 13.4561076361392509   T   T   T
  8.1512957515141391  8.8276048034777403 13.9267135084785849   T   T   T
 12.2530553791522649  2.6219602102697674  0.2551746259342186   T   T   T
 -6.0399352887222584  3.0358127052266370 -1.1104850207719876   T   T   T
 21.7518610892124471  2.9711414369877436 10.7295801097514705   T   T   T
  9.4072499579158162 10.0074403409825798 11.0584841064138164   T   T   T
 14.7957620135315864  3.1557148277336755 17.8406780381485213   T   T   T
  0.9318098252698281  9.9203754369982740 17.0225674177726347   T   T   T
  5.0621095167845933  2.7219824193122659  4.8864599431566766   T   T   T
 17.4681503609765869  9.8041356465620062  4.6244283457975568   T   T   T
 21.6417216031764958  6.4621459754926125 10.9799073077793992   T   T   T
  9.7781177658073748 14.2133414176420381 11.5702801344696820   T   T   T
 13.5066332053028528  4.4097523749413323 20.7379346436297567   T   T   T
  3.1816182585768344 13.3487119646620727 16.4631201844008253   T   T   T
  5.1725046127480452  6.4669539242511398  5.0415897756427093   T   T   T
 17.6353369480848343 13.7389017789422887  5.1795074145736564   T   T   T
  9.9137283520148323  3.0635669360617839 11.8232070343012268   T   T   T
 19.1390265211487147  8.6292455315999455 11.1445412309912015   T   T   T
 28.9739994925008943  2.1094775043886189 15.4682603077644725   T   T   T
 11.9335992577659429  7.8061843328968052 17.4318450059200991   T   T   T
 14.5514868979892995  0.7490691299283813  5.1388093928761931   T   T   T
  2.4352785142310256  8.2223757664629389  4.4177726438205287   T   T   T
  1.9581686392500908  4.8100530673422428  6.4462641109954353   T   T   T
 14.5634165590127882 11.8768668718250829  7.4946153147563175   T   T   T
 18.6283758619855924  4.5338231982809170 12.9660282942302683   T   T   T
  6.1880276120477156 12.3453007057028152 13.4665923984778964   T   T   T
  9.6757474370250147  4.4863452129478363  1.4140009385508741   T   T   T
 25.0963578410231811  9.7063998956437274  1.4034002151925928   T   T   T
 22.9047872412526985  4.5238276052222126  7.6191486709906098   T   T   T
 10.2259589520868772 12.3518265399295721  8.1931574621436933   T   T   T
 14.5189180598851131  5.1114788211274869 13.4341685976514320   T   T   T
  1.8629245794606852 11.9883388670293876 13.4212340299611590   T   T   T
  6.3721234999367695  4.6020429136184990  1.6273809657781717   T   T   T
 17.3369604550081888 11.5726563188988330  1.1373561811700628   T   T   T
  3.0269614171116621 13.7838167301511838 10.6867339951128013   T   T   T
 15.9684686006068741  6.5307806862593631 10.6511845069115800   T   T   T
 20.8860011350534691 13.9631754699321249 17.4003426568851083   T   T   T
  5.9152659761207937  4.7004715269919490 19.5331389004962581   T   T   T
 11.2697755998414078 13.9622915711496205  5.1822275868982910   T   T   T
 23.7731336770664861  6.1390907311379772  4.7908948014333808   T   T   T
  2.6081274728948416  2.9881297831531195 10.0690946340386169   T   T   T
 16.1633378396425371 10.8780746211476149 11.1060517120093660   T   T   T
 19.3655681755986535  2.3193487562621691 17.4686771734896240   T   T   T
  7.5062526057522039  6.3403910891366184 16.9848067867193890   T   T   T
 11.1830253375239597  3.1216465653825125  5.0389761374332744   T   T   T
 23.8199302357128531 10.3624742426407117  4.8488158977725018   T   T   T
 -0.0505302714697229  4.7864720744780085 10.7586264953921837   T   T   T
 13.0919916587407261 11.4349383500218131 11.0597992604286368   T   T   T
 16.6531908651910996  3.4502556466981629 20.7228590811503750   T   T   T
  2.2311691623297838 11.2964825961475590 20.1678101671540446   T   T   T
  8.3393890399116106  4.6709000366630526  5.2202776804429059   T   T   T
 20.9266364650259931 12.3494925756925475  4.6782856166519124   T   T   T
 -0.0265172606614563  0.8354439747986772 13.2612765115985525   T   T   T
 12.2963200305285163  8.1056583136047635 13.3252675112834371   T   T   T
 17.0751766345570459  1.0196553443159506  1.5229401394857596   T   T   T
  5.1253258522939307  8.7895424686196719  1.0194889154564613   T   T   T
  8.1239865846643262  1.1858664733032696  7.2634285634902680   T   T   T
 20.8372986048762634  8.6904305187115511  7.2455496782880777   T   T   T
 27.0437020472693952 -0.7727202360133646  0.3208688465392492   T   T   T
 11.4999350815974832  7.6481715514012354  1.1239165656052428   T   T   T
 16.7531199717085499  0.9461872665116378  7.9738830137278986   T   T   T
  3.9426591996693165  8.3032047288976720  7.5827123412839486   T   T   T
  8.7027359259724104  1.3009373214155711 14.2610194838374866   T   T   T
 21.1757866926312701  7.8826917380433157 13.7472654550632321   T   T   T
 22.2246155202462283  9.5933533678301828 10.6758913573993617   T   T   T
 12.0946511965896235  1.0181982262763214 13.3732163647286235   T   T   T
 12.9430280742979988  9.9167691479500881 19.8598514610475547   T   T   T
  4.5314041304022661  1.3782491074694567 13.7248721097406072   T   T   T