Li P  S  Cl
 1.0000000000000000
    25.1819793006824639    0.0000000000000000    0.0000000000000015
    -0.0000000000000009   14.5388225279766061    0.0000000000000009
     0.0000000000000000    0.0000000000000000   37.2126966544236950
 Li  P   S   Cl 
 287  48 240  48
Selective dynamics
Cartesian
  4.4665374534061826  4.6696924577120251  6.5911755367063742   T   T   T
 13.8549856974957368 14.2127927546983166  6.5088417410075818   T   T   T
 17.6335857682354842  2.5157832797610529 12.2546060510575092   T   T   T
  5.8243462632330880  9.5426553481412526 13.0333676815308195   T   T   T
 12.5296366891554527  2.7741499693038745  2.4198210148861543   T   T   T
 27.4137314457351451 11.6676485615565433  1.0525622529050580   T   T   T
 -1.1691121825847415  8.5573995586445832 11.3257925437503673   T   T   T
 12.3891547017216368 10.0193800165751163  7.6474940692332183   T   T   T
 16.1567211546393494  5.6976849338722264 13.5612618258184234   T   T   T
  8.9397364061043962 13.4238159234700021 16.9222520557338569   T   T   T
 12.6787929274193107 10.4352886740472357  0.0775426448546878   T   T   T
 22.8781089404832727 13.6185939022852551  2.9662085090801984   T   T   T
  2.1007013349628814  6.6918222370103697  6.5638358416771974   T   T   T
 15.1171148682902796 10.0247474969259223  8.9173715726210929   T   T   T
 20.4584728459925955 -0.7114648241241450 19.1380465357210348   T   T   T
  4.3881022725549954 14.5799957053917701 18.1014994008412842   T   T   T
 11.2133485512908955  5.7426233463920857  2.6409071860386741   T   T   T
 25.8602117639386364 13.5370509615412047  2.8038409332728835   T   T   T
  0.3462046359840392  5.7069980304664156  8.7019068833184718   T   T   T
 14.1747993655643914 11.1401082935393170  5.4118473431992831   T   T   T
 16.5283591389282876  3.0899292647468468 14.9583613312372190   T   T   T
  5.2724100235316893 14.1194510547632923 13.0118722920804224   T   T   T
 12.8152604043747260  3.7179271770736371 -0.4312350241265942   T   T   T
 25.5600279671392059 10.6442244827532093  2.8872699605196455   T   T   T
  1.5012955988678627  3.6142826174119156  5.2912824456269627   T   T   T
 13.1680221134745334 12.6737806194611800  9.6461816984328568   T   T   T
 21.5408085779753335  3.2978147820494361 19.0859659534417041   T   T   T
  7.9611447166875164 12.1057999650366064 13.3577863956133722   T   T   T
  9.3697782444082787  3.0995558449634286  2.7945807019067876   T   T   T
 21.6919076547692242  7.4696126504415554  5.5094768818924162   T   T   T
  0.9644482158896696  3.0367151129596675  8.8136105109501646   T   T   T
 16.6829136821503781 12.8493876804743188  7.5891462017178730   T   T   T
 20.0602658173396691  6.5881201420173916 18.8200596651760002   T   T   T
  4.5945727301184602 12.2727007807648256 15.4074003122097078   T   T   T
  9.1414564713709119  5.0092338259976810 -0.2908612722543390   T   T   T
 23.3896769462207743 15.8351675115225881 -2.9249575048489298   T   T   T
 23.0256825926880708 15.3821975553824046 13.8019481992925641   T   T   T
 11.4373292346044941  6.2104859333590419 12.6612951026306053   T   T   T
 15.4554870248878586  8.2279020810122674 -0.5646427767892204   T   T   T
  3.3473450755439851 13.4344256268952691  8.6311998755095694   T   T   T
  9.9605299645601768 15.4015063072031673  5.4274181180446126   T   T   T
 19.7743591564165087  9.6005661127917215  9.1712349066601089   T   T   T
 26.9645939234757037 -0.0565729014145440 14.7509205268813819   T   T   T
  9.9954100095368421 10.5312647259296170 18.4009871392846129   T   T   T
 17.0619072089949810 -6.0233720832671001 -2.8288670402059277   T   T   T
  4.3165929132273924 10.8105818852851705  7.7061994102339337   T   T   T
  6.8464118478813578  0.3362944853805338  8.8032797174066513   T   T   T
 23.0323328590364937  9.1792716300547710  7.7629519364263970   T   T   T
  2.2753798518126547  0.7404072964695342 12.1831538868159708   T   T   T
 11.2438263017358047 10.3729235175342716 12.7982166735497120   T   T   T
 17.8188253428225991  3.1216716475019450  0.3156972413477399   T   T   T
  9.0478439787430709  9.9658951084431102  1.0351446665923176   T   T   T
  7.1900945015164268  2.3042714884952002  6.1798901835696540   T   T   T
 20.7441972072113145  9.9793666251323145  5.2654883941640129   T   T   T
 -0.5352967424619786  1.5383661304918970 11.0825634938689124   T   T   T
 10.5947453290329907  7.9690895606834857  6.5633152666096919   T   T   T
 17.9407262529310145 -0.9167325659614364  2.5456490142736663   T   T   T
  7.0615368156178677  6.7605730793458951  2.9617767832816586   T   T   T
 10.2797059825248507  1.8886356710300787  8.2070646267464404   T   T   T
 21.7135928576807729  6.6353267449875011  8.0577458507523474   T   T   T
 -0.4910190982790443 12.3718922552208461 13.2818089242025419   T   T   T
 10.1267106958538573  8.4630698869112457 14.9962538806267425   T   T   T
 18.5958682139813689 17.3189301165770360  2.9097950145123210   T   T   T
  3.2679195232121954  8.6551192272039188  2.5146802962711075   T   T   T
  9.8719926045214486 13.8375837318335222  8.4794913517801866   T   T   T
 19.0313762999014457  6.5747347198981059 14.0157821373207412   T   T   T
 24.7356378885617545  3.2274506485202252 13.3599966830640025   T   T   T
 13.2643781109757342  8.1403052230441624 11.4302178550900759   T   T   T
 16.7946621580656554  0.7152219419652849 -0.5142538242070122   T   T   T
  4.4952210680653923 13.0785273258072507 -0.0992968988604872   T   T   T
  7.3420099379205856 -1.4893680474311197  6.7757044110455142   T   T   T
 19.1858758425668157  6.8919144790716462  7.3444339959700438   T   T   T
  1.3626004436352317 10.0023872355378458  6.1057874270166312   T   T   T
 16.2241683497872629  6.1512442914758276  8.7757257413384959   T   T   T
 14.3781487357011599  8.8483840410799104 14.0281009367593477   T   T   T
  8.5428752671901336  4.4280350547536740 12.0366376180942520   T   T   T
  8.4671523113557559 12.5563925737356001 -3.0396015833140644   T   T   T
 21.4294208306109013  4.4716199225513344  0.1424815144208302   T   T   T
  1.0795482844532120 10.5482281611808908  9.4840822092384975   T   T   T
 14.3698954941617032  2.8324914449670824  5.2600497917850282   T   T   T
 18.3377512534369558 12.4271040915264877 11.0109016155996997   T   T   T
  3.8285863539001412  5.5085330886030235 13.3302300687123942   T   T   T
  7.8591216212504333  8.8754454640744491  5.3814687292480228   T   T   T
 23.0097459663708008  6.7929415084371829 -0.2083458038715112   T   T   T
  0.1391206423620199 13.4264137012937397  9.7432791035979509   T   T   T
 14.3651400144126846  2.3865665638624507  8.5083058141893293   T   T   T
 16.7165204676614181 12.9339361831605224 13.9435999612131774   T   T   T
  6.6425619941886413  6.5395879811135451 14.4383402171082764   T   T   T
  9.0345552177122350 12.8793456524507022  2.5900176886328676   T   T   T
 24.4589400806277979  6.5278336538768205  2.7775249163134266   T   T   T
 -2.2754766058538367  9.0205644468979926 13.8715379402179231   T   T   T
 12.9823648813479267  5.4476414212168409  8.1898995983885357   T   T   T
 20.3795417525169427 12.8854533567609728 13.6351855904379136   T   T   T
  6.5853143219176316  2.5246797371677787 14.5621051496388354   T   T   T
  9.6156222178502837 12.0670876301093877 -0.6340006453789774   T   T   T
 20.0508420304834161  3.4798139221091957  6.2918786524344812   T   T   T
  1.4161613509692446  9.4225436249206780 13.7016155188653475   T   T   T
 18.6850495585275169  5.0858604766485334 11.3203507476618430   T   T   T
 20.2306804249473871  9.9635886881806250 12.6272781594516594   T   T   T
  4.8416575803317032  2.7814409652848147 12.3334522757522684   T   T   T
  8.2576836233210873 10.2072931709841725  8.8044503073604332   T   T   T
 21.0882654176731279  5.7917235982187272  2.8946639583233771   T   T   T
  1.0706787750931908 13.4247439150721277  5.8139544701765109   T   T   T
 15.1479179693257375  5.7812558973885366  5.0227517068094079   T   T   T
 17.5729149942958784  9.8374990568861023 13.8877304152210854   T   T   T
  6.0974933355373313  5.7476067216003361 11.4343793112098897   T   T   T
 11.2193036951037204 14.1467164507314749  0.7427023811263098   T   T   T
 22.7702347547344601 10.0097528159123677  1.6217935731097446   T   T   T
 19.1424398275812848 16.8706697287485312 14.6227213570458101   T   T   T
  6.3652619162698834  7.2255371209929278  8.7182803694781885   T   T   T
 11.0974220730022726 13.5297677361664874 12.5400138225916322   T   T   T
 26.5845254509520501  7.5867994171979465 10.9793057692776799   T   T   T
  2.7045180331990273 15.4650365880028851 -0.3089657857184590   T   T   T
 14.6412804638325174  7.0523872232382807  2.5594306704621008   T   T   T
 20.7792845789022280  2.4657221463569803  9.2085884225922943   T   T   T
 14.6890060983219186  0.7253022012451009 12.4965577215936730   T   T   T
 23.4134918773662264  6.2669826748885571 13.0037297711349424   T   T   T
  5.2130066451737571 -0.6667925377482545  2.6927339663232805   T   T   T
 18.6801084801675614  9.1769244122676383  2.9113808440204103   T   T   T
 18.9770637141750456  0.2783139167653113  8.1692822124547302   T   T   T
  8.2999614465284761  5.6119617662819250  7.5758228903727547   T   T   T
 12.7841827227401552  2.7642241569015078 14.6937389870709509   T   T   T
  3.0588073590392759  3.9244087043036351 17.6247529714185092   T   T   T
  2.9604110684873182  1.9281890513692370  2.9473302134494817   T   T   T
 16.1639311595897581 16.1489711341450217  2.0816314752704743   T   T   T
 22.9816892352197328  1.7200305030361178  6.9854085541577806   T   T   T
  3.6670851495846093  4.4750679496522325  9.2011940494761308   T   T   T
  9.9253681141368642  1.5283048194016924 14.3845738628839666   T   T   T
 -2.8647709153264631  4.7376876206305960 16.7415031794401976   T   T   T
  6.3303229734460595  2.2556334225147099  2.7274864678750217   T   T   T
 24.2527002324045071  4.0170183699745525 -0.6799385735891764   T   T   T
 20.1182885915580769 14.1311374906584426  5.4725368440003770   T   T   T
  9.9434752583291424  7.8282030181038538  9.2819805300102978   T   T   T
 11.2025658855995900 17.1121141254814511 12.1558494068208596   T   T   T
  4.3268992955620247  8.6016412978282091 16.8143164923097324   T   T   T
  6.6913302707559685 15.4805321394967805 -0.1368671289836923   T   T   T
 17.1442288250789474  3.7381137124589108  7.4818737216746936   T   T   T
 21.6886109955539936 -0.6980428655131615  8.9129403342479243   T   T   T
  6.6322038004783570 12.4749965465588879 10.8144414676507417   T   T   T
 11.5928242359348843 -0.6334008263834617 15.5568137177299199   T   T   T
 25.8146716837823433  5.7304374830286458 14.4363283957812314   T   T   T
  4.6141605913199717  0.6164739853498342 -3.6634396785415855   T   T   T
 17.7267801790743036  9.9439329524566382  0.0666995750279118   T   T   T
  8.4204877082617777 -1.3103015278237771 30.7889360450964276   T   T   T
 20.7631956468721839  6.3959035460701550 30.6513482351169237   T   T   T
 23.2914248397110484  1.1512092937619995 22.5014918853037464   T   T   T
 12.6095666776570123  7.5863503690390370 23.7246603752007061   T   T   T
 11.6770289764964250 -0.5016246726404221 34.8444140474991926   T   T   T
  0.4371917219837033 14.1078268926808725 37.0593388840581142   T   T   T
 -1.4693736767485914 15.6546622262117410 30.8983334130260907   T   T   T
 19.3387590864277925  4.6417720614358799 28.6219599433915981   T   T   T
 26.1273914830358507 12.5773698089986787 18.0472954698274535   T   T   T
 11.5548731744105435  6.5504805615722983 26.7910185067791957   T   T   T
 14.3543603074193591 11.8936968564174812 34.8290037418823317   T   T   T
  0.4900075894447145  5.1671571806502561 33.7916928917930406   T   T   T
  4.2397933329074640 13.8241133206926108 28.4521855717043728   T   T   T
 17.7966745461022526  8.1828112196249165 31.0985192048122556   T   T   T
 22.1714609702842935 12.6181486194639163 16.6331042134899789   T   T   T
 12.7415017653156841  5.0108540579462222 23.9186677067113784   T   T   T
 16.2051263387981024 11.8574629755431786 37.6733031339644739   T   T   T
  2.5250252619072007  3.4843775096491334 36.4372998970551905   T   T   T
  6.2476905813934831  1.3192532322784138 29.3001360597016571   T   T   T
 18.1176258502387100  5.0502048567107236 32.2829700177571866   T   T   T
 22.9631829249848494 15.4124941406519405 25.8827183717023281   T   T   T
  9.7091469754821684  8.4044577565962477 25.2251874675114749   T   T   T
 18.4038924758745353 16.2739699354340068 30.5481226544107294   T   T   T
  3.1928060416862785  8.0122704924022194 36.8913468522616341   T   T   T
  5.1803823367104078 -1.9122230259464998 31.8455559326088604   T   T   T
 16.3208564252804678  4.8783909117064193 30.0318012337128337   T   T   T
 20.6579928673328723  0.3720267062971226 23.2664848864067793   T   T   T
  6.7452596671614025  5.3481333939715139 19.0256432859900499   T   T   T
 14.5950339634458555  2.3668793553477232 33.7738870835746141   T   T   T
  0.6882471499011149  7.7963517012015595 36.2237067807326056   T   T   T
  6.1493647218395706 11.5182240021909301 28.0798426545065745   T   T   T
 17.6542914289650952  7.3758934664315898 28.2648769798030308   T   T   T
 21.7452829771014393 12.4968120877130602 25.4826770199578014   T   T   T
  9.7051371769367307  4.5260430023539504 25.4864023608777011   T   T   T
 12.7852001460910412 12.2251146979895644 40.0222623826175763   T   T   T
  0.3617271190192659  3.6299920922285880 38.8711731869177584   T   T   T
  3.6247170949948226  1.7732681425425567 21.6949570006171619   T   T   T
 18.1203444910781784  9.4866168961966011 26.5376015823392670   T   T   T
 20.4936019894909265  1.3458228017752409 34.1671992373430768   T   T   T
  5.9317468739489323 11.0409564983714219 34.5460261359928111   T   T   T
 10.3851460779293490  4.3880908882447311 30.0144908599403699   T   T   T
 25.8383334600140628  7.9421985491711071 28.0961772133784677   T   T   T
  3.4997094734513312  0.4854484054810042 24.0382208939851019   T   T   T
 17.3859533027369721  8.4476675275701893 22.6839363470659769   T   T   T
 22.3468826297367258 -1.7553021688860262 37.4217575490647008   T   T   T
  6.6101712890074058  8.4868115406451459 34.1823814753601738   T   T   T
 12.9695971549244131  4.8945153962212524 29.0198484986918572   T   T   T
 26.3980723614760180 11.5867335666514180 28.5562572464660960   T   T   T
  6.2198698847887526  2.8410622639225087 24.8494547976672813   T   T   T
 16.7956311604566579 14.9348636876826149 22.7167336665425168   T   T   T
 25.0230391925354425 -1.6934615461842579 34.3420126559899757   T   T   T
  4.5670205313960803  6.3067361749977575 36.6119136155736271   T   T   T
 14.4469419240255643  2.1152948956290416 29.6828932687540537   T   T   T
  2.3314105313726339 10.0518828808329026 30.5905543257758161   T   T   T
  4.3495164649645099  5.1906942743579014 23.6342509419914144   T   T   T
 20.6488475354483469  9.4389015140118495 20.9630094956870394   T   T   T
 22.9976668099860362  2.9308226037129401 39.9896881343115851   T   T   T
  9.7835516414633581 16.5114369972690405 37.1960582732710208   T   T   T
 11.7724214124677182  2.0353280260153763 32.4265994871120995   T   T   T
  3.7367924194676476 11.1467842708319900 26.0078546575751801   T   T   T
  6.4854248707630360  1.4971982108899571 22.2692729928939528   T   T   T
 15.5456762181101240 12.1257787876369605 24.9764390850972653   T   T   T
 22.3571447525764668  4.7539449535795635 34.1544432253090449   T   T   T
  9.6628064402591374  9.1736137524125425 35.0932981958159047   T   T   T
 13.2198623373340833  4.2986074723875580 32.2481610683595932   T   T   T
 -0.5641476655830798 11.3707681982063420 31.4475505364516792   T   T   T
  3.5637118917414710  3.9169846012471878 25.6844914680114300   T   T   T
 18.7199842418998799 11.4121614258993205 24.0547621282090276   T   T   T
 20.5286016471049493  1.5191338852962974 37.7369219543914625   T   T   T
 11.0044676216475157 10.0657059607776880 40.2415942486991369   T   T   T
 10.9912374419126984  1.3617814858729582 28.9469123974691733   T   T   T
 23.4357529376036666  8.4623373538436510 30.5594228880416097   T   T   T
  5.6617972293392729  8.5643069378417529 30.5786989161638161   T   T   T
 20.9306824635556268 -0.0792504520705102 28.6239975169758516   T   T   T
 20.8024420621267794  7.6845407817765423 23.8227866556144612   T   T   T
 10.2289737800846066 -3.1429036969295052 22.8939266955853711   T   T   T
 16.1163473243341926  9.8443070226828659 40.2965022762107736   T   T   T
  8.3829168533343346 -0.7758792751152043 28.0355277962991458   T   T   T
  4.3036446466522644  4.7090388165051325 30.5416595034668426   T   T   T
 17.6687703193337029 12.9072729917187949 31.8228180632845792   T   T   T
 21.7798357688943156  4.7588417386999815 24.2264136860258539   T   T   T
 12.0586997581009587 14.3454319054210444 25.5682791379337431   T   T   T
 11.4626583658834775  5.9536505225913476 34.8821372537912993   T   T   T
  2.8722837720734966 10.9175756371458057 35.7812747920067835   T   T   T
  6.5316138238177261  4.4117093821402298 28.5721732388884853   T   T   T
 19.2242544392723502 11.4849199399372068 28.9955685088952571   T   T   T
 24.1955591158893171  4.7307860418835483 22.2117888532389074   T   T   T
 10.1731520637283381 14.9344761045051300 22.1948499808152029   T   T   T
 15.4926525711603720  5.1295635073353996 35.0642603353175204   T   T   T
  5.4620834509814493  9.4817988700719660 37.3177916065263489   T   T   T
  4.3167155530373416  7.2517573193301663 28.1800510547733900   T   T   T
 22.9179780365652874 11.4725959290014572 23.6041769598457378   T   T   T
 23.9837177180548053  8.2680058531325145 22.5447262845600207   T   T   T
  9.5858212987168123 15.9042548930071739 25.1156294856358215   T   T   T
 18.0905550912582243  6.5885892953151117 37.7552641792853976   T   T   T
  3.7904258087040237 12.1920846622281367 42.8005632307455102   T   T   T
  3.6371222325381827  8.1822839520518116 24.8694228741731429   T   T   T
 16.8158117005707908 -0.5270998428668663 28.7378768154800071   T   T   T
 22.9033566060290568  7.3537144510242722 25.9055201365615240   T   T   T
 12.4400378658114885 -1.5445645867728770 22.9290177618434114   T   T   T
 13.5393646592130139 12.0622667609932215 28.4360918160343417   T   T   T
  5.1699802301554172  2.9185754495475251 36.5047355096867818   T   T   T
  6.9428900688522281  5.6874342370796169 31.8257018050051741   T   T   T
 20.4302871594814661 13.4916755436428701 31.7284714835977582   T   T   T
 25.7740046202141002  6.4231338102239555 24.3945121067667579   T   T   T
  9.4574579315020646 12.5761431339138099 25.3041265249604272   T   T   T
  6.7379182066053689  3.4989771881339284 34.2227046830453219   T   T   T
  2.0299876053445827 16.3154372037113902 34.1448829112333101   T   T   T
 23.0038149536592016 10.7767888777940719 28.5409277861313910   T   T   T
 11.5743182562192271  7.9081136512430064 30.7961257797477970   T   T   T
 14.9180540296103086  3.4860467055498381 22.4510256673008435   T   T   T
 -0.2065808768937120 13.6961427734461942 24.5766759548650562   T   T   T
  2.7178219544737114  7.8247120055214046 34.1386095283749356   T   T   T
 17.9392781592775421 12.2830835862833574 35.0605966851213040   T   T   T
 24.5396656430705704  1.4513875879269647 27.9827215780442913   T   T   T
 15.1673156192815917 10.3198358527703498 31.0948360434658824   T   T   T
 18.1893075198209715  2.6837659120432802 26.2994119105778204   T   T   T
  3.6226253129525197  8.9286619371044544 21.5421524919674710   T   T   T
  4.1706876041073579  5.6991099035788721 40.1082950216698819   T   T   T
 22.9384443266959721  8.2450973846562441 34.3090259613823889   T   T   T
 -1.1649007055136424  4.7326087254392784 30.4651036130853541   T   T   T
 13.2725690641614023  8.6911974664523157 28.8565120207331489   T   T   T
 15.7713201186801228  4.5541086309743752 25.2246033957995408   T   T   T
  5.1375751583642710 11.7874203122322072 21.8004683594529887   T   T   T
  8.6894173145243059  1.0596760008823143 34.2793488513694413   T   T   T
 25.3093070665186417 10.8345480695713299 36.8580030819719084   T   T   T
 -0.7738335937921800  4.7458585827282747 27.4763936341738457   T   T   T
 10.6673439744332637 11.1620392541837425 29.1049432067908924   T   T   T
 16.7378287952387268  0.4653171342332264 18.7723117309020893   T   T   T
  9.0755590924974641  7.2294922898023497 22.8468616485732845   T   T   T
  7.8588636828067182  7.4455947066058750 28.8814669922915961   T   T   T
 23.1245301184784111 15.7360520255869432 36.9641688628199745   T   T   T
  1.9671762576521621  1.8403753754193224 29.9771108244623861   T   T   T
 14.9030529158318039  9.2567935234544372 24.8372987544314938   T   T   T
 18.8163005483987291  3.3897584592562811 23.4627717117039580   T   T   T
  6.5922284914105349  8.8305917617049339 23.6837485886983004   T   T   T
  6.0760055516919351  9.5656464932138334 40.2541020789323625   T   T   T
 22.4038724662790898 11.7656036677517761 34.7317491963062892   T   T   T
 26.9323871146123750  4.3059352554144388 28.4727935139078738   T   T   T
 12.1037103970389559 11.7415074315879977 31.8358419808965110   T   T   T
 15.5837703297611441  0.7808588394784488 25.2184061468602287   T   T   T
  2.4072539620911484 12.0743846863449349 23.1157080165104354   T   T   T
  3.7913353407450581  4.9804980833627424 33.9213684641186504   T   T   T
 18.0963088205394413  6.2857827446127343 40.2493832189936924   T   T   T
  0.4336492575525874  1.9766110245201434 -0.1815462604081045   T   T   T
 12.3348114834110341  7.8696264786574748 -0.1113053638794595   T   T   T
 16.8961044965874123  0.7785455498174837  5.5282231814066298   T   T   T
  4.3332852551491108  8.0537361766860265  5.9441294467902628   T   T   T
  8.1256514574689067  0.8002706152109904 11.4544141370555685   T   T   T
 21.0398601172552873  7.7963979110610033 11.2388194498613565   T   T   T
 23.2798632539190038 12.1267969794000194  5.6838232848764942   T   T   T
 10.5287153980191093  4.3729933443251774  5.6858699080257828   T   T   T
 14.6402889757797769 11.5621226000503796 12.3063187337753419   T   T   T
  2.0024241997098571  4.2791258639546044 11.6744218936072883   T   T   T
  6.7822547552660373 12.3487580657872371  0.8761022757788556   T   T   T
 14.7309288820469444  2.4492867521262247  0.1690177730040615   T   T   T
  4.2364801013059603  0.9097617610170130  5.8774043478699758   T   T   T
 16.4948221087130875  8.3741062540312967  5.7776552420038190   T   T   T
 20.7459532964674338  0.9794782895250486 11.6597574329923486   T   T   T
  8.1462312319117522  8.3743228298441004 11.7494777625566531   T   T   T
 13.7996584785747007  0.4809195922388760 -0.0704410375246051   T   T   T
  1.6339743999463792  9.4310716045673288  0.7569639084739708   T   T   T
 23.1908935405347165  4.8837918740622008  5.8134514034056393   T   T   T
 10.4576229845112358 11.7060960650752222  5.6768420241615942   T   T   T
 14.6376892830957157  4.2273807235087242 11.4802686063413955   T   T   T
  2.1194621529922353 11.5957433154937277 11.8347366009621933   T   T   T
  6.7727756695553625  4.6238137583714991 -0.1487571775187352   T   T   T
 19.8631793546072828 11.8121571867565969 -0.5369077496558885   T   T   T
  5.8232546843001813  2.5922320466187116 18.7983022741506147   T   T   T
 18.4527252639613621 11.9877182825454760 18.0067527501762754   T   T   T
 20.8295605161361621  2.8953028957833484 31.5834759407137220   T   T   T
  8.3815490212815362 10.1946392691935372 31.7719488838436526   T   T   T
 12.6077168963273945  2.9203811671331787 26.1045065272870147   T   T   T
 25.3450330499288725 10.2520394031329651 25.0814254957956280   T   T   T
  1.9005088198052862  6.6648783191303052 31.0895170564396999   T   T   T
 14.4522080393401762 13.8950195477438179 31.8135194031727657   T   T   T
 19.1418918903678801  5.9861278833670655 25.6474722737088285   T   T   T
  6.4273272609547156 13.7825641993736490 25.3288686935618514   T   T   T
  8.5974151976141879  7.1903967129440600 17.9627349889961785   T   T   T
 23.4169253512975573 14.9350881352668630 18.2527596206843761   T   T   T
  8.4235752032863935  2.5257101372632658 31.5636908359034329   T   T   T
 20.8424867268889003  9.8557107304472780 31.4429060780901573   T   T   T
 25.3413374516028540  2.8887489809411657 25.0631643439896230   T   T   T
 12.5269851858684085 10.1494691163674702 25.6361207034932548   T   T   T
 15.7949658613858741  3.5706191128648905 18.7379289457203768   T   T   T
  3.4549852891884152 10.2808843126606426 18.8230508443263709   T   T   T
  1.8043567145967596 -1.0645443152105940 31.4879303782840765   T   T   T
 14.5864637832808555  6.8805724512075992 31.7407804779940470   T   T   T
 18.5255525106504280 13.7326278079220003 25.5959079101851508   T   T   T
  6.6287134208850436  6.2317409107634756 25.5316698468437338   T   T   T
 11.5004607813435982 12.6440439156534907 19.7511894369968850   T   T   T
 22.9385201170293698  6.6914262769334742 19.4979691595487417   T   T   T
  4.4402972656293551  0.8954872070008667  7.8468637345699372   T   T   T
 16.8907050649782349  8.4222718272785180  7.8575596688840221   T   T   T
 20.5615536310690743  0.9300940746680700 13.7080935470539913   T   T   T
  8.0466208116617821  8.4199401545826333 13.7204946572778361   T   T   T
 13.1975472389803699  0.2656466839988388  1.9721780281165031   T   T   T
 -0.3581333747441098  8.2531144268126333  1.0139189914564091   T   T   T
 21.8523076187954786  2.6868140316744333 11.0752006638653953   T   T   T
  8.9982472899309105 10.0367560688594004 11.0431193623904722   T   T   T
 14.6723934929325974 -2.1171743400530261 19.5719808590460360   T   T   T
  0.3093424441994767  4.8956798859486623 18.1160967027602631   T   T   T
  5.1501757499550598  2.7253085398519490  5.0083111029139209   T   T   T
 17.4380112616906118 10.0537908246648939  5.0217988357522731   T   T   T
 22.3875740746885583  6.3662000319681988 10.5763660594086542   T   T   T
  8.8664895857308235 13.4936898636828531 10.9389668376029761   T   T   T
 12.6846658717085781  5.3235332857825650 19.4423513881871131   T   T   T
  2.3878479112925621 13.8287550931468139 16.9595742764173849   T   T   T
  5.5614264684440036  6.5583542807837167  5.3254052246133954   T   T   T
 17.8873599707493298 13.6099389346049051  5.0662831421742229   T   T   T
  6.1853399199610699  0.7664950906386933 10.8711477230087930   T   T   T
 19.1209454744654153  7.5637284603892496 10.7166472320188948   T   T   T
 22.4855166823792914  0.8224439608145419 16.4054518089519767   T   T   T
  7.0820167142831085  6.4719132865027511 16.7980785597377960   T   T   T
 14.9207435162407318  0.7395683926989138  4.7786443959893043   T   T   T
  2.5761944495171782  8.1776412235398048  4.8998620730040257   T   T   T
  2.2016338720247708  4.5787868994896721  7.2855973280425514   T   T   T
 14.2470102780548249 12.0197427787244280  7.6293448972966056   T   T   T
 18.3000918599869919  4.3217363441391718 13.6591517507033160   T   T   T
  5.7368509715980540 11.8286617383539294 13.2648642691444998   T   T   T
 10.7564874432360309  3.8343761126696099  1.1817007847465903   T   T   T
 24.2456989490479558 12.0677528706285813  1.5149842720815685   T   T   T
 23.1656049844905780  4.4266119487556965  7.7556681501360440   T   T   T
 10.0692988220395971 11.5202030136016269  7.8491352844191740   T   T   T
 14.4314095843657260  3.9488413365957804 13.5328056902205116   T   T   T
  1.8499295006271113 11.9556043803690706 13.7844359438154775   T   T   T
  6.9557276521946205  4.6117798468888038  2.1017406613117733   T   T   T
 18.8306160907534590 11.6083633349437747  1.4304209221868496   T   T   T
  3.2168411972196380 13.1832765001800105 11.0279274906421225   T   T   T
 15.7083219907610214  5.9389711432176870 11.1105731914542361   T   T   T
 18.0258874404942304  8.8966491488156301 18.6054819075219058   T   T   T
  8.6892609864090886  3.0433427553016537 16.9045201904317857   T   T   T
 11.6696281214770163 13.2176887092487938  5.2356328540997534   T   T   T
 24.0608255266288822  6.9325127199171934  5.6972846875839922   T   T   T
  2.8232284553001805  2.5853410707510083 10.5571676444652613   T   T   T
 15.2950527675206942  9.7219864095514730 11.4133329415964813   T   T   T
 20.1840261169670256  3.4680358371911049 17.2459928139472503   T   T   T
  6.6782874884901009 12.8622547370171318 16.7360317907407179   T   T   T
 11.5267011051613206  2.7198806105611224  5.0663270340644937   T   T   T
 24.1958491466707031 10.3679919246670700  5.1428468556978544   T   T   T
  0.0669783705475192  4.3432407042091743 11.1059432205224624   T   T   T
 12.6746427616094017 11.7746770396175044 11.6316647386841421   T   T   T
 15.2043102084301953  3.0822267758864488 16.9819172024846274   T   T   T
  3.0130504488911547 10.5282986964379148 16.7537339119700590   T   T   T
  8.6492541310469697  4.0971607190016490  5.3184099873926733   T   T   T
 21.6382049439742232 12.1138870262190110  4.3621601620970631   T   T   T
  0.1088193881348649  0.7518738826793289 13.0968813919566980   T   T   T
 12.2183190551885250  8.2223104732604639 13.4101102029581476   T   T   T
 18.1010285772696875  1.0747097457392638  1.3671232052243556   T   T   T
  5.0060025702866344  7.5026604274971138  1.5900582846318732   T   T   T
  8.5232286371782138  0.6278225072642578  7.1521260447298634   T   T   T
 20.6863309491642937  8.5450573217526085  7.3022498425910616   T   T   T
 26.1382147122053681  1.0108828813583881  1.8241708465810986   T   T   T
 12.4836722567338949  8.1480543058410042  1.9411594735119158   T   T   T
 16.7898027246317554  0.7001041104840309  7.6628800093500935   T   T   T
  3.9179714658506883  7.9293759287527372  7.9266459479380353   T   T   T
  7.9935338966808418  0.7414307737077610 13.5972011899410212   T   T   T
 21.0291230823269260  7.6476526367167388 13.3207450596066916   T   T   T
 21.7569383639778806  9.7193015819913384 10.9404913865038882   T   T   T
  9.1263608931722917  2.3469537462462129 10.7501007976297505   T   T   T
 11.2165264267164542  4.7458252879663307 17.9752404885810719   T   T   T
  1.6056895308934913  1.1654893025645363 17.1314587911905392   T   T   T
  5.4861956924901589  9.8521330226709587  5.4075162067981299   T   T   T