Li P  S  Cl
 1.0000000000000000
    20.5609999999999999    0.0000000000000000    0.0000000000000013
     0.0000000000000033   20.5609999999999999    0.0000000000000013
     0.0000000000000000    0.0000000000000000   20.5609999999999999
 Li  P   S   Cl 
 191  32 160  32
Selective dynamics
Cartesian
  3.5149694475055071  0.7199276996309513  3.6197851594112880   T   T   T
  4.1755806959856274  5.9092325933522378  7.6402107383264610   T   T   T
  5.0072317542384503  2.7583711139873355  3.4665636879153401   T   T   T
  8.2147505806798815  0.3469898596013842  7.3692930558102239   T   T   T
  4.5895353725686432  8.9719103414805037  7.0902645831144904   T   T   T
  2.8955631453934370  4.7657472854177207  2.5048542539910530   T   T   T
 10.0792354465588954  2.4025778355311638  6.0473828774639564   T   T   T
  7.0592057579582592  7.9385953731272298  4.7002020519059799   T   T   T
  6.4790257786176939  3.4759886541683369  9.0209647667494099   T   T   T
  8.1640089564576179  8.4831577168808838  0.4265307208341859   T   T   T
  1.6468049448039719  3.0375338366781501  4.7843252998739416   T   T   T
  0.5797465401288353  5.8318257487263123  7.5822806154187781   T   T   T
  6.3283921114592436 10.0597076009578927  3.0673266089018276   T   T   T
  5.9765250886158769  2.1071376137277729  6.3584940280587219   T   T   T
  2.4186281003631569  1.8401788595587376  0.2736603415402337   T   T   T
  1.8788700911236020  9.9114263705414540  8.3793526458577361   T   T   T
  8.8881688936922174  2.0025281207709793  9.8216504187465770   T   T   T
  5.1670171148541577  7.3934870104613015  1.3246708836266672   T   T   T
  1.5627771977587399  7.3452705616356395  5.4128815913634263   T   T   T
  2.8042475338568513  7.1393204416692599  9.8216340389756809   T   T   T
  0.4145369182404318  1.8594085319269094  2.1751810431482324   T   T   T
 -2.7662108363196096  9.9340047263776086  2.8639799369127612   T   T   T
  8.0707046239642128  4.8511494322545081  6.5758166938744251   T   T   T
  7.4466069950955251  5.5319244974935913  1.7400354622617014   T   T   T
  1.3481836619971541  4.4781848983431773 13.7067700076681955   T   T   T
  1.9744654940084616  9.3345845961854792 20.2455903302140108   T   T   T
  7.2148506363653810  8.2799780369982336 14.9392007014209103   T   T   T
  8.2413550615764137  0.0450192084114408 18.3924679182939954   T   T   T
  5.1090632796366231  8.1364147368275113 17.8325260682915037   T   T   T
  2.6600235802077279  2.6022836086149188 10.5198800692484991   T   T   T
  7.3140303798175967  1.9151722370451159 16.0029942782298811   T   T   T
  7.8316958970138622  5.4155257776039978 13.4146715503389018   T   T   T
  8.5251210272424629  1.9076469044952837 20.4798793232968670   T   T   T
  7.7948759017908325  7.8671920293640314 10.3823580643667466   T   T   T
  4.3256808660048041  4.8960170711669564 12.4766765334656000   T   T   T
  2.3735678009483263  6.4210864348162984 15.9020191442845125   T   T   T
 10.1030989649086180  7.3256510271379982 13.5316922473991799   T   T   T
  5.3904173557457815  3.1965565969266847 18.5436253388655850   T   T   T
  3.0172902883189296  1.3899525150451189 14.7490332761883423   T   T   T
  0.2387248734367182  8.4580336265606686 18.2492650952872459   T   T   T
  9.8657608934215659  2.9849215960920681 17.1411231935324615   T   T   T
  8.2842610747586836  9.8929122297529890 12.5932307502804388   T   T   T
  2.8865209548670521 10.0202610987456886 16.3327911287023610   T   T   T
  0.4449728193548129  1.7460418114549889 12.2424213385575573   T   T   T
  4.6028570031046154  1.0556810126521894 12.7157369286537190   T   T   T
  2.7912407462734579  5.6058103900242822 19.1600783325392783   T   T   T
  7.0507772245263993  4.9945614480701153 18.7936662911255929   T   T   T
  5.5596521669087995  7.3193047405572678 12.1706992548635604   T   T   T
  3.0482661692719759 10.5525845830414244  3.3936001458538887   T   T   T
  0.2958929737221541 17.5770255972343250  7.7609596926329072   T   T   T
  6.0492138803000604 17.6944504137227128  1.1017715019874708   T   T   T
  5.4711601211138863 12.9449953580936103  8.1440501223643533   T   T   T
  2.5730654949040099 16.7480583826038050  5.7817836882672404   T   T   T
  0.0037658112821784 11.9708035872315453  1.7337566654122976   T   T   T
  7.1573891672064054 12.0299153127800391  5.3047134793322979   T   T   T
  9.7961748514542268 17.3596595648338621  3.7493652382849145   T   T   T
  8.0994586767061545 10.4428941835507754  7.9064637597964813   T   T   T
  8.7643126506962599 19.9751034811686381  2.3255561836672594   T   T   T
  2.4063893315828211 15.3244296722505524  2.6981072152093586   T   T   T
  4.9571756537221185 18.0369582727525071  7.4971744974563173   T   T   T
  9.0478809414858841 17.7769247998334272  0.5498458428990332   T   T   T
  9.9880145746204043 12.9469225687721341  7.0659887575059575   T   T   T
  0.2116645703775964 13.5810412717207658  3.7136456912543108   T   T   T
  2.0181398903535768 18.1791284396104729  9.9720465424815412   T   T   T
  7.5113526538854316 15.0326772114170790  8.3490631808042117   T   T   T
  5.8624994469572513 18.1664269198866926  3.9565802334513926   T   T   T
  3.4443197952332589 20.4601049740649010  7.0562446174326352   T   T   T
  2.9043646849326752 13.4291610781895763  0.2416388373472735   T   T   T
  3.7158289947145757 12.8857482776949972  4.2691295637706048   T   T   T
  3.7206260400982005 15.4549771883163682  8.7265165106115905   T   T   T
  8.4283925405240119 12.4957254339111721 10.0188757730271458   T   T   T
  7.9187244894784552 15.3404028666197370  3.0425451333547957   T   T   T
  2.5784575712671360 10.3998142401844440 12.5472075710927840   T   T   T
  2.9688659783453568 17.6821325513474576 20.3681469880577666   T   T   T
 10.1801237684127823 18.4294360364203165 12.4323326803174830   T   T   T
  7.4133144446735999 15.4143564746276311 17.9216090717602796   T   T   T
  4.2233490492442325 16.6514523474614187 17.9999904438320364   T   T   T
  2.4080065410027309 15.0071910282082079 12.9654626177928360   T   T   T
  7.9471789687010022 10.9462846943627223 18.6258968674572216   T   T   T
  7.3989265614999473 20.3931813202308518 13.3133783712234059   T   T   T
  9.9297814373558371 13.3931010428986372 17.5847341348515656   T   T   T
  8.4357427779739869 16.2525710777217220 14.7608214255058581   T   T   T
  3.0756222537541809 12.9576235040027896 15.1457385775013620   T   T   T
  1.1027873045720273 16.4839026051908100 17.3959976788659887   T   T   T
  8.0566061273225369 18.5180726416146371 10.7081567887941578   T   T   T
  6.7772487928043521 13.8030451375666363 20.2528430255996703   T   T   T
  2.8479918478424318 18.3933714521301681 15.6457753232600840   T   T   T
 -2.0811716835387353 20.9934262215738094 18.4171029120761673   T   T   T
  5.5506999812110607 12.4271119752002566 17.6508819506542771   T   T   T
  6.8774360046090939 16.3754815708117150 11.6744906537927555   T   T   T
  4.2457185432891009 19.6114937518008006 18.2726454250429668   T   T   T
  2.0618007845761777 12.4211511366335134 10.5063553599618515   T   T   T
  5.0494577379632268 13.1455294984320563 12.4885025431647012   T   T   T
 -2.4121416723852600 13.3600820832415792 15.8043346352835705   T   T   T
  7.1251268460468760 12.6688197979392427 15.7105714641836691   T   T   T
  6.7406821021902026 18.5094621621208013 15.0771511744913571   T   T   T
 13.1463148716494729  4.8077134204381800  1.8503313520728346   T   T   T
 12.2236104518508011  6.6966518536925692  5.1747023778749064   T   T   T
 18.2104866032377615  2.7370387151592315 -0.3693093233497642   T   T   T
 18.2131000447415516  4.8596966692344221  7.5842981408895591   T   T   T
 12.8033855528993392  6.8726583341542824  9.9726164705290081   T   T   T
 15.2485907174740056  2.8324958136751794  1.8204691321767434   T   T   T
 15.9879149109310443  3.3336218485832045  8.8983868172612084   T   T   T
 16.4524585483998678  7.9047646038489932  4.0501210512138730   T   T   T
 17.0763711713921751  0.2750511251867115  7.5633982976812346   T   T   T
 19.7723209311597543  6.3972360714244045  3.0887425446019265   T   T   T
 10.7038276392156551  3.5459798374012999  3.4668367786385250   T   T   T
 14.9384601627958862  7.3682222157016710  8.1332131900291174   T   T   T
 17.3268457420841600  5.0582459132110200  2.2745726359913880   T   T   T
 20.3338784354324105  1.4916965832264524  8.1552548019234425   T   T   T
 12.4620988263151506  1.8979557770181470  0.3588857810410268   T   T   T
 10.5413261074270093  8.1337033449126910  7.8840722826206706   T   T   T
 17.8859184622616283  2.4444408038686372  5.6716950813388376   T   T   T
 13.3381926633137411  9.6141665341419049  6.9637576366056564   T   T   T
 13.8743676966675302  2.0650383729848940  4.5017604879148534   T   T   T
 12.4644748747620433 -0.1844965548674108  2.3624259593968406   T   T   T
 12.1743006234645232  5.1492946923602423  7.3282015945137413   T   T   T
 18.2650283259459982  1.6403631718845648 10.0909104248120745   T   T   T
 16.4641491370628614  7.3127444410969993  0.4764812597511043   T   T   T
 13.7469524626983031  0.3033868536404968 13.9659860412715862   T   T   T
 13.4096079178878025  9.1394020717496680 15.6470382256551073   T   T   T
 17.7767291615751972  9.8444761575123980 12.8259402263186306   T   T   T
 20.5189497617749765  2.9387014079846332 17.9652337401877631   T   T   T
 20.1642460812947135 13.1408279396810865 18.2315594203445706   T   T   T
 15.1413240594519394  2.8467262098752819 12.6581734389162737   T   T   T
 16.3970961273890481  4.6391077440707242 18.2104601984061176   T   T   T
 17.8800051183949336  5.1044729793234360 12.5355726720661966   T   T   T
 14.5791752182203798  9.3763535192306886 18.0197839836545413   T   T   T
 17.1781358836819962  6.6267356965409405 10.2740705223250774   T   T   T
 12.5089410346753773  0.9278509343095459 11.2072604264033941   T   T   T
 12.2255495784087014  8.3825034945744576 20.1162268651692742   T   T   T
 19.1824572159697695  7.0580848018299038 14.6667344282050465   T   T   T
 15.9268701609092531  1.8311203207074167 16.9078702127555260   T   T   T
 15.7661748339584182 -2.1892327434134682 14.3755505260431686   T   T   T
 10.7194128056941640  7.2967944522497259 17.2609972423517846   T   T   T
 19.0539282089730762  3.3338845506089134 15.6483224596872983   T   T   T
 20.3938994964034563  8.2772505611664684 11.5415026994439618   T   T   T
 13.3106903354279975  5.7984278935008557 18.7611660933438955   T   T   T
 13.1143255599836461  3.8000184924630416 14.9382993824150336   T   T   T
 12.8728851839149492  3.9991964057506966 11.2464105665649239   T   T   T
 11.7032377563038761 10.0216710501442741 18.5005948743710960   T   T   T
 10.5571448106755437 -3.3247240391831467 17.4154140782554450   T   T   T
 16.1629276901767227  7.2521816536322774 13.2448548572932214   T   T   T
 13.1932396021430822 10.3108172458882468  2.8553445022833257   T   T   T
 14.2320657096394960 18.9067256347014130  5.8530394536746870   T   T   T
 17.1927591061445497 18.5006503765546064  5.0670045013188219   T   T   T
 17.3975984401914658 11.9097285822805805  5.3976425922627582   T   T   T
 10.7037644206111349 23.6637567838247769 14.0252937763051104   T   T   T
 12.2908943974540072 15.0948105407375195  3.1024598793001439   T   T   T
 15.2628596401340193 13.0899684937606580  7.9979186952681358   T   T   T
 20.0066956306088173 17.9031828715920831  3.0766722604802652   T   T   T
 17.8307283228343252 14.8843385249680669  7.6398125098216267   T   T   T
 15.9960349196241243 17.7669084280406153  1.4328042511144412   T   T   T
 10.5470753557468857 12.5086229725930735  2.6048719422435811   T   T   T
 12.6701088766197234 20.3140073681729092  8.5733352376549110   T   T   T
 18.6807907206397203 19.1569160541346939  0.4587691563605056   T   T   T
 18.3723247515950803 12.4110671163960582 10.1633372780680453   T   T   T
 14.9987031055963875 12.7978145167429833  2.3203281091003403   T   T   T
 12.5663027786617558 16.4493319928002357  5.8619094648552670   T   T   T
 20.0676222012023402 12.6077821960915610  7.3091892816463453   T   T   T
 17.7871659736037557 20.4594582799053057  3.1691937303944786   T   T   T
 13.0776435154153337 15.6179514888541799  8.9713984478638729   T   T   T
  9.8836446419778081  7.6880229157083146  2.4931396726776844   T   T   T
 13.4657215840408906 13.7055692669144502  0.2628857868096148   T   T   T
 14.9960069328561083 17.7097895276163726  9.1732572120142990   T   T   T
 17.9615314211725732 10.3316786900995208  7.9437244052587426   T   T   T
 17.9843431020604498 15.5625328401850762  3.1511806635284851   T   T   T
 13.0861316088902448 15.0797046582181338 12.4033665617107687   T   T   T
 15.3619550204700861 18.3186957721806429 17.3368952474247351   T   T   T
 18.8002617228942270 17.8218086851514634 15.1327823012639335   T   T   T
 15.4465336139796321 12.6351259794440942 18.3352721176396010   T   T   T
 12.5578855082952110 20.4411956649311932 18.2411296814823842   T   T   T
 13.6565481380925906 10.5431476467498317 12.9525109946671932   T   T   T
 17.6961683134264334 10.6635773811775021 19.2411607759415695   T   T   T
 17.2179558338567489 16.1591335468592874 12.5498767081581963   T   T   T
 17.5366839142491102 10.2571291827349924 16.0837434000363082   T   T   T
 17.5190937350106353 20.4739966420115991 13.7555618937891246   T   T   T
 11.7575418175331379 11.7675082174243464 10.3780398198579267   T   T   T
 12.8655648854950897 18.3619535114284780 15.7813621234011165   T   T   T
 13.4727982368733290 12.7783579300517189 14.6812330866356859   T   T   T
 21.3350704328213041 19.8023471254542400 18.5778165629658041   T   T   T
 11.0460221253648943 18.1261253584771076  8.0716547591705314   T   T   T
 13.2394037459595637 17.6489069290713800 20.3296691947446355   T   T   T
 17.6509528232345971 14.7478375792811462 19.1684361714152338   T   T   T
 19.9948028598703900 16.6065599802343549 13.3445228625410177   T   T   T
 13.4693182976775230 12.2679987988950678 25.3831085598975932   T   T   T
 14.7278238842017988 12.9597435785724180 11.5231241357484713   T   T   T
 10.6648619532866498 13.4680917986286275 13.1159556172074296   T   T   T
 13.2412347724185633 15.5435832768256166 18.0959404523675360   T   T   T
 19.7446100822104569  8.3547781984129692 21.5562914901236944   T   T   T
 18.5315830074915553 19.4764639468576881 11.2455241955029255   T   T   T
  0.0930787653686996  0.0380880782772569  5.0948890897961521   T   T   T
  5.3215597733320843  0.0503986217677948  0.2684104689102840   T   T   T
 -0.0399423088769546  5.2045898625944620 -0.0299156203794190   T   T   T
  5.1940960290164835  5.0691008651118059  5.1917697904944760   T   T   T
  0.0323143191384486  0.2753619757240497 15.5725742180112281   T   T   T
  5.4309982094624267  0.4339222455649986 10.0644493974927851   T   T   T
  0.0370313440898246  4.9051876673171666 10.5439131984643364   T   T   T
  5.2549600596271295  5.2955061132076908 15.5060434191326042   T   T   T
 -0.2319623806005185 10.2072237664583714  5.2723082147810274   T   T   T
  5.2341203054326471 10.5812543093187745  0.1035639704389248   T   T   T
 -0.3104974331318482 15.4210771547483176  0.3346535718500053   T   T   T
  5.2477556684039364 15.2545916114569078  5.3015009248255902   T   T   T
  0.0360437622130308 10.1298869545977936 15.3394248050527189   T   T   T
  5.0400899548380025 10.1377105276086272 10.2218878517259544   T   T   T
 -0.1957018130555517 15.3848546711504319 10.3318986706538904   T   T   T
  4.9987040193623002 15.7979111651349413 15.1237732194677434   T   T   T
 10.6744171995965047 -0.3566775816372315  5.1474735124546562   T   T   T
 15.4207501392201198 -0.0644340909391651 -0.2653588220299139   T   T   T
 10.4942363759799058  5.3285333203860246 -0.1808903289026285   T   T   T
 15.3453930265024976  4.9305577498417117  5.0816734723230548   T   T   T
 10.3215097535662697  0.1654211799240630 15.4133129703729352   T   T   T
 15.4654953066787151  0.1756199959566251 10.5706918843869193   T   T   T
 10.2436007673486635  5.0591587048476780 10.2412745802945082   T   T   T
 15.5188486679908966  5.6264191114660411 15.5720698241851156   T   T   T
 10.4306644830090942 10.1216109897952684  5.0576807671273540   T   T   T
 15.3443469667516990 10.0009307380802035  0.0937085811280397   T   T   T
 10.3887846187481792 15.2846946781244135  0.0485947665705206   T   T   T
 15.3551508535070731 15.2009172778614765  5.0983456810300751   T   T   T
 10.2582701405651289 10.3093619245034684 15.1084264214447348   T   T   T
 15.2463238299019430 10.0907893805353783 10.1988916686386464   T   T   T
 10.3696428563287171 15.5872755505064529 10.3702529010737816   T   T   T
 15.5265728310849127 15.3787447917711155 15.5431323969465325   T   T   T
  1.2449517585352492  0.9171749042620948  6.5388929554252684   T   T   T
  0.7895589821211507  9.0537040283144776  3.8221793834476738   T   T   T
  9.1472491832261440  8.8684177880088093  6.0708931029597117   T   T   T
  9.6677995864922206  1.1332686856372853  4.0923313097252008   T   T   T
  6.7661315864850948  0.9797094692999569  1.2435072498749649   T   T   T
  4.4188651826352316  1.6744259129907151  8.7139960160233692   T   T   T
  6.2022116022426186  8.9540671786718580  8.7947912422388708   T   T   T
  3.9573779329249699  9.5266652965612746  1.4605277534454437   T   T   T
  1.0529719733280936  6.4692192742594674  1.3175090125209332   T   T   T
  9.5079683016654322  4.2798423802396499  1.2775969253985975   T   T   T
  9.0603577174474133  6.2106217116440341  9.0279294756040631   T   T   T
  1.0970642876209529  3.7901881803343489  9.1854585433541800   T   T   T
  6.2278648206981995  6.4431510859681778  6.4378660045357048   T   T   T
  6.5680476759393489  3.9444681604585803  4.2017304018346300   T   T   T
  3.9164378790806196  3.8950622600481801  6.3983654532721905   T   T   T
  4.2877006264970579  6.1755134009158974  3.7578450696845471   T   T   T
  2.7860153275878559  2.5495098073043279  2.7872925156836512   T   T   T
  2.2242226719992608  7.6377030390262162  7.5722065083986116   T   T   T
  7.3902532220360921  7.5707977818045160  2.5121482373975867   T   T   T
  8.0647039033301411  2.6674142642216445  7.4904339128972346   T   T   T
  1.0989310463084241  1.4622075726402981 16.7204446421967106   T   T   T
  1.5592039926819266  9.1014879079755904 14.4458155754728192   T   T   T
  9.0573950360147020  8.9708617369600301 16.1255445994872311   T   T   T
  8.9596559403718761  1.2860930916511346 14.1914564813200688   T   T   T
  6.7866041070574878  1.6223606546585891 11.2600766208902865   T   T   T
  4.1793826289623794  1.2809386066786841 19.4946837220043676   T   T   T
  6.4389266375712584  9.2096523166723827 19.5892212738738998   T   T   T
  3.9719840429863860  8.7650673936964214 11.3327024143959818   T   T   T
  1.3058086229130150  6.0159146471611091 11.6133121072387624   T   T   T
  8.8917039700853238  4.1077458927141128 11.5251625686911634   T   T   T
  9.0324566832416160  6.1671844544027152 19.4293828182783557   T   T   T
  1.4614855796242321  3.8978066644526281 19.7024203431539249   T   T   T
  6.6417913148733607  6.4334960662394121 16.6430943494412844   T   T   T
  6.5245405558720151  4.0249073983220942 14.6713324015901421   T   T   T
  3.6015334199422755  4.4227237606822234 16.5431812846777326   T   T   T
  4.2494422117842747  6.7456399089632226 14.3207161976199266   T   T   T
  2.5669302390493725  2.7073012028823098 12.9487636796901189   T   T   T
  2.7551945388339139  8.1437295366413789 18.1929116258801713   T   T   T
  7.7625574217148809  7.6718710976876139 12.8052257935585079   T   T   T
  7.8099730940399370  2.7183020864703642 18.1571796690619678   T   T   T
  1.1365416257679701 11.1450535759761102  6.4125606751336122   T   T   T
  1.3775298819949586 19.7368817103759220  3.7973285304226665   T   T   T
  9.4486624579176031 18.8840854052615050  6.0469204512369865   T   T   T
  9.0342521514854575 11.1931672417667816  4.0538083700482019   T   T   T
  6.5122982650242482 11.6298488483890097  1.1444868269638162   T   T   T
  3.8166675761809628 11.1066822746168583  8.8324525119064372   T   T   T
  6.5355110099408442 19.7060993266380819  8.6692260408622861   T   T   T
  4.0428294711277282 19.5786083322925606  1.3973751688545570   T   T   T
  0.8943222801067156 16.6927964548386036  1.4218402838901767   T   T   T
  9.0076102538030831 14.1832339282284074  1.1330206388646689   T   T   T
  9.3160256711650078 16.7191716951399236  9.0434351830467499   T   T   T
  1.1419596190234564 14.3786138045551741  9.0573672644811385   T   T   T
  6.7112070752641104 16.4672845053304258  5.9630931533288036   T   T   T
  6.0893162873001092 13.7750076689936947  4.1108289077967948   T   T   T
  3.8445926829909634 14.4242427800718129  6.5862547374129843   T   T   T
  4.2791200719569140 16.4347564524276279  3.9577517005323504   T   T   T
  2.0685176612608900 12.8400143054335789  2.4876912893263672   T   T   T
  2.6068994357995821 17.9920915123511698  7.7849835197520019   T   T   T
  7.8124677526726334 17.8549149765991544  2.4535046547405885   T   T   T
  7.8464955882849390 12.6122469247973363  7.7806881373433603   T   T   T
  0.8133864233023378 11.7379534382545909 16.4780978935257743   T   T   T
  1.3248757593808833 19.7622609201578427 14.4350659315090475   T   T   T
  9.0326202442743515 19.3785492900516836 16.3637964331906574   T   T   T
  9.1060238441654704 11.6547611433615437 13.9176367634103713   T   T   T
  6.1478784966485263 11.3749147146671419 11.3368608001667805   T   T   T
  4.0780128315060979 11.7979490555794015 19.4423194444954675   T   T   T
  6.1851890952114559 19.2313420940081841 19.5869597575520267   T   T   T
  4.3422041511952436 19.8723968030107905 11.3597987108132212   T   T   T
  1.0232860680182172 16.6792372627799494 11.4925825017355141   T   T   T
  9.0319849341042122 14.4978291364842669 11.5852926960811278   T   T   T
  9.2044120413346420 16.5045341648173718 19.3723915025788394   T   T   T
  0.9598865979532318 14.4963551606271839 19.4402443552955120   T   T   T
  6.1913711517812553 16.9572202023146410 16.5333094921809867   T   T   T
  6.3633383487729622 14.5571247591660846 14.1857308231837624   T   T   T
  3.8011467787352218 14.7592580388404233 16.3079734860970298   T   T   T
  3.9423722398610073 17.0273153148017258 13.9594902291451533   T   T   T
  2.8991794417807193 12.8722173231312240 12.7830463999078017   T   T   T
  2.5489734693529669 18.1647580033680356 17.9588873947119403   T   T   T
  7.8851526425102234 18.1456670917308998 12.7855766882839905   T   T   T
  7.6241313419042047 12.9933052805737788 17.9877386760800064   T   T   T
 11.6504105354741512  0.7695577757096375  6.5018468670538647   T   T   T
 11.5187942977656039  8.8481381007037410  3.8637721153684379   T   T   T
 18.7780917438890214  9.1883394709723714  6.1319433618399160   T   T   T
 19.5486028705084465  1.4776290564480377  4.1370745238810667   T   T   T
 16.8195659137249081  1.1728043184334143  0.7390444820093122   T   T   T
 14.5786282726787793  1.4229490073618172  9.1967018063832331   T   T   T
 16.4992152678587161  8.8546479926989861  9.1122357212336969   T   T   T
 14.4136480911455891  8.6997651924399513  1.3778752030289378   T   T   T
 11.6704600794084836  6.5845406150827639  0.9240452325282139   T   T   T
 19.5863082771332770  3.7774870047883420  1.1304429444109598   T   T   T
 19.5210546513386660  6.3160248694650996  9.4014653699117385   T   T   T
 11.5344917323733736  3.6697272099679186  9.2908992444118539   T   T   T
 16.4068935778834160  6.2358229962589879  6.4544503485263469   T   T   T
 16.6304656280813177  3.5721423379767194  4.0072748547157353   T   T   T
 14.1290426333577024  3.7342671947065469  6.1996111940699343   T   T   T
 14.2348998510217797  6.1809239291486255  3.9275956245049968   T   T   T
 12.8911814343540936  2.5219630095203152  2.4098396739979466   T   T   T
 12.6548875710153919  7.5875493281342710  7.7141733522270357   T   T   T
 18.0593814950973126  7.5188268519115491  2.2843661772045500   T   T   T
 18.1913602285254896  2.5650775996488231  7.9662024341431197   T   T   T
 11.3839433696430810  1.2677293178655222 16.7003886041428622   T   T   T
 11.4944538877519804  9.1323841537121382 13.8583821455192773   T   T   T
 19.4875370064009701  8.6624784041046556 16.5400353922537420   T   T   T
 19.2818875393710343  1.2438466490660289 14.3493951872398977   T   T   T
 16.6282295998630545  1.2477571645601135 11.8364861013689566   T   T   T
 14.0770420263094138  1.1125663356601001 19.1427877579351495   T   T   T
 16.3991280334819436  8.9057133249009528 19.3450417521458142   T   T   T
 13.9744159299600277  8.9566864615945114 11.3383080854247940   T   T   T
 11.3746589082283478  6.3014461749535640 11.5775640659201340   T   T   T
 19.4888614197139916  3.6759034284433461 11.8726188826200012   T   T   T
 19.4939111109897354  6.1660541579557337 19.2786877027302914   T   T   T
 11.6063754159702377  4.1486213834227081 19.0276209398043044   T   T   T
 16.7733013867787406  6.8948276248864513 16.4202829683683298   T   T   T
 16.7413213735158877  4.2243877990880607 14.5219341797302839   T   T   T
 14.6083804334451681  4.3570635817303822 17.0352862712718682   T   T   T
 13.9610240101549508  6.4577352590217094 14.4763608452014108   T   T   T
 12.8973312515845340  2.7174171799510343 13.0406954403790305   T   T   T
 12.7603211207972187  8.0083133101099957 17.9169588561713162   T   T   T
 18.1049463853463237  7.4739086772528216 12.3507623449581541   T   T   T
 18.0076981884043477  2.6734677095610109 17.8369729081784989   T   T   T
 11.6713417433934126 11.2084192773420952  6.1680284676906103   T   T   T
 11.9887165179937121 19.0148355266409688  4.0512491460445235   T   T   T
 19.1392700618171787 19.4188428905383965  6.1662536002954971   T   T   T
 19.3612956357624668 11.7777931665647877  4.1076265182391811   T   T   T
 16.6429386295071637 11.3302125516455785  1.0138394659839118   T   T   T
 14.2257318999826783 11.2743107547618351  8.7469626901570017   T   T   T
 16.6644565240910438 19.4226156629024871  9.4459470858064130   T   T   T
 14.2953805654951136 19.5272894894437172  1.1737275024482916   T   T   T
 11.4276239979531251 16.6084760480451052  1.5035608170141237   T   T   T
 19.1092895798385456 14.1196589542777797  1.4141359335097898   T   T   T
 19.0464350640996543 16.3527395081083391  9.1598689109064697   T   T   T
 11.1710575774962280 14.2305754405730003  8.8817868841237253   T   T   T
 16.4267378776088648 16.5546147836896900  6.2204337721686818   T   T   T
 16.5971206268281719 13.9023404963869535  4.1827080965982724   T   T   T
 13.7765199652132395 14.2493858344898019  6.1533509949527101   T   T   T
 14.3431466245316948 16.3829809015600993  3.7502740523244285   T   T   T
 12.8170103257383072 12.6478244201406991  2.2633432247977479   T   T   T
 13.1850055529228189 17.8843321826388184  7.7579160626393646   T   T   T
 17.8727567391682101 18.3328563956311967  2.5321705368666221   T   T   T
 17.7627092905978756 12.6053238114587991  7.8006965004441193   T   T   T
 11.2365524108699404 11.5707853809810270 16.3909438812373764   T   T   T
 11.5711002756422232 19.5097834249629827 14.0847832101177399   T   T   T
 19.5403360873417569 19.2463447502483014 16.6109977711494565   T   T   T
 19.1584145129920387 11.0965807743285758 14.2141279190820864   T   T   T
 16.5102796306969850 11.5530844830382833 11.3632564698618328   T   T   T
 13.9606661504556211 11.1366820223623435 19.6498020430980809   T   T   T
 16.7046876956264754 19.2384062925905717 19.1830239151009394   T   T   T
 14.2187099404103812 19.6098116171301413 11.6222771619044938   T   T   T
 11.6536228884340982 16.6943372755251147 11.4512426936747822   T   T   T
 19.4518726249975629 14.1890474225303578 11.5447150820546955   T   T   T
 18.9386092131345620 16.5801221284050619 19.7636490613396525   T   T   T
 11.5284478877054557 14.0711141220118794 19.4378164650202407   T   T   T
 16.8121440009214780 16.4864238240672343 16.8782430543600661   T   T   T
 16.4974218798443957 14.2328310743733084 14.2310791475523892   T   T   T
 14.3916180644416229 14.0331318301568544 16.6408475852776547   T   T   T
 14.2133656143965155 16.7590662532776307 14.3987780398630303   T   T   T
 12.6189351448592930 12.6279422984696588 12.5639678911796437   T   T   T
 12.9423454178705875 18.1689284308657228 18.0205070939308172   T   T   T
 18.0265449349035620 18.1733154210232826 13.1472626951831888   T   T   T
 18.0679230703636122 12.4356058111205456 18.0315057986043215   T   T   T
 -0.1327842892618337  0.1956643878091518 -0.1938392196877216   T   T   T
  5.0589530506571361  5.0815092052874844 -0.2673338887341538   T   T   T
  5.3210015422321550 -0.0431490216032812  5.2767316162463862   T   T   T
  0.1094678390796216  5.0518681332377824  5.3990360910378001   T   T   T
 -0.4587988705637270  0.1170444228332509 10.4729514726520794   T   T   T
  4.7850269240136170  5.6152051373372629 10.2692674151128855   T   T   T
  5.4068652891747142  0.1695148927248504 14.8049431494026322   T   T   T
 -0.1152251493724351  5.0871623716645811 15.4010250613593058   T   T   T
 -0.2734078136217047 10.2589032728899507  0.0951853837792112   T   T   T
  5.0647433656576748 15.9125531008352024 -0.3651310718636382   T   T   T
  5.1289665453518172 10.5024551109555659  5.0799907192148686   T   T   T
  0.4896663281359225 15.6162405005626468  5.0147147411391799   T   T   T
  0.6774182719803533 10.5245195252991799 10.5244086377609580   T   T   T
  5.7297005043127323 15.1618414578621987  9.8760931846366358   T   T   T
  5.0386435074579961 11.2269997437876814 15.6942569623979420   T   T   T
 -0.2885360749283791 16.1015285523752567 15.6067852696565694   T   T   T
 10.1144734716915004  0.1706236391812340 -0.3852548628538158   T   T   T
 15.7030276148848547  4.8299801444312536  0.6785165603246436   T   T   T
 15.9729528135441008  0.1182078260882937  5.1732073925624196   T   T   T
 10.4666319926724896  5.1801529734643363  5.3042029649699209   T   T   T
 10.3973256149268050 -0.3950319541361320  9.9842912914921804   T   T   T
 15.4820122179165356  4.8031340370903184 10.7499020817252440   T   T   T
 15.4639075642671440 -0.0107973503785869 15.7063270968454933   T   T   T