Li P  S  Cl
 1.0000000000000000
    20.5609999999999999    0.0000000000000000    0.0000000000000013
     0.0000000000000033   20.5609999999999999    0.0000000000000013
     0.0000000000000000    0.0000000000000000   20.5609999999999999
 Li  P   S   Cl 
 192  32 160  32
Selective dynamics
Cartesian
  2.1808553728674629  0.1529253098333889  1.9067260000185562   T   T   T
  2.3777070400198288  8.2628944108539084  5.0524510358097601   T   T   T
  7.5783853615609331  9.4253078569457198  4.3581503783527404   T   T   T
  9.8497813574286912  2.5316544521452995  8.2717607133555564   T   T   T
  2.2939162751387259 10.0866497088835736  8.2041472708467325   T   T   T
  2.5091774093585562  2.7756017251548131  0.3728740030128500   T   T   T
  7.1265391274299885  3.2336941247495594 10.2749554473010303   T   T   T
  9.7531145888528705  7.1068397585564558  4.0962434152669793   T   T   T
  8.2847880918100518  4.7594652982036036  7.1567993505898215   T   T   T
  7.2849771109685557  5.5174315449192637  2.3482370849088410   T   T   T
  2.4825895214296256  2.5139322814114342  4.8505770484693782   T   T   T
  3.0246230153382681  7.3601885680852073  9.7620671853962104   T   T   T
  9.1100399859599719  7.8543725218693368  0.9872539091810291   T   T   T
  7.1880355048497240  2.7273398229831525  5.5126657819987281   T   T   T
  4.6835798406818112  2.1714717253103180  3.0338593310158157   T   T   T
  2.3759651632809886  5.6317525120574272  7.1529078434270907   T   T   T
  7.8193154053297862  0.3369322428229510  7.5907432159137525   T   T   T
  5.7269267940947932  7.6483243267262893  4.1628835611191590   T   T   T
  5.0063259649835441  8.0616955647674402  7.3115807076407302   T   T   T
  1.4885573729833315  4.9676340527623335  2.8486797685026639   T   T   T
 -0.0599574224869090  2.1922518144661574  2.3228662568984277   T   T   T
  0.2139529438973507  7.5714410387396454  7.4494854387255112   T   T   T
  5.2463390260750886  3.2846921061776686  8.0668427133282687   T   T   T
  6.0092384607257614  7.4293624319772888  0.9328130517264875   T   T   T
  0.6641895790382991  5.1529777870965416 13.2764976577521967   T   T   T
  2.5137358152991114  8.4023144094390396 15.7422559235365611   T   T   T
  5.6951407598682158  7.7549966941598054 13.6048244391999109   T   T   T
  7.9289461281867100  2.3837560554424431 20.5056035230440514   T   T   T
  1.5499201151207340  9.6776716036882426 18.7574294692978469   T   T   T
  2.7209496206881667  0.4429980217928578 12.7211679782848748   T   T   T
  7.6585779453785960  2.2591190487856334 15.9808311133841023   T   T   T
  7.2288496485790068  5.6550465678100625 12.0195199531739370   T   T   T
  6.1926231127850668  4.6173119556862918 18.2253369066625055   T   T   T
  8.2246495137667157  8.0170823779547220 10.5613464806271065   T   T   T
  1.9480937717127749  3.1618095862116062 15.0697897897316917   T   T   T
  4.8374708578596222  8.6151369532581157 17.7214364057386575   T   T   T
  8.3321834278559130 10.1157623784317092 12.3761740490646712   T   T   T
  5.5790863513352367  1.3043243698008480 17.8372175667805308   T   T   T
  4.7909065974942955  1.8614417687668980 13.8184361710949357   T   T   T
  3.1474552565950571  7.3789322850690970 20.3317995761641086   T   T   T
  8.6961468897189729  0.3409561958971121 18.7037955547127126   T   T   T
 10.0659452630556974  7.0291820194705368 12.9808884538694080   T   T   T
  3.1162785326965254  5.1864936844501770 18.9654158224815035   T   T   T
  4.1883586301931741  4.4208416956224559 12.5948338284559860   T   T   T
  2.6867349873378048  2.5364098680138234 10.7179554634897123   T   T   T
  0.5451754260616068  6.8677159893556956 17.2914654715987055   T   T   T
 10.0582922573070199  2.4950619606661508 17.6384721854790740   T   T   T
  8.0866062414354083  7.5475172611600723 15.4193037511025910   T   T   T
  2.4175365081249631 12.5764270559272973  5.2043071932762244   T   T   T
  5.1716813059073763 18.2281675144778248  7.6785001135547413   T   T   T
  6.0084388939423405 16.3817638323128953  2.8465743696860040   T   T   T
  9.2059128981176190 12.9761307660633243  5.6304178580067576   T   T   T
  2.7787610683917512 17.7999816617851785 10.0768911052796124   T   T   T
  3.1403043219628946 10.3799185119218507  3.1607408527577294   T   T   T
  8.4408557663191157 10.3655163529730761  8.2435386307991276   T   T   T
  8.1872802965246727 17.0876517146155109  4.9085339799043401   T   T   T
  7.2532950910594431 13.0518622521520644  9.6936032134575587   T   T   T
  8.7674192613674471 19.9454393361788007  2.0553461708884830   T   T   T
  2.5279114311346071 12.6924428449166005  0.3102649940217076   T   T   T
  3.8220729112894767 15.8247952302805182  7.8462391882873668   T   T   T
  5.8402239784936585 19.0775463374674672  3.7476854570407054   T   T   T
  8.3768713078820571 14.9385965122386573  7.4105054917466404   T   T   T
  4.5498416403025344 13.6293147013192488  2.7589238400173772   T   T   T
  0.9232207893278327 16.8137967909173298  6.9623150121187543   T   T   T
  5.7138581681629095 11.8907706769551247  6.9252947872393404   T   T   T
 10.1631614648860786 17.3154133298873596  2.9298336284811053   T   T   T
  2.6864677577185558 19.3243153896748332  5.8849508856900288   T   T   T
  1.5960381222751421 15.0436321751240616  3.4200479283649061   T   T   T
  0.1767793150997388 12.0859362887275239  1.9886256355125487   T   T   T
  1.1949698954267889 20.0059190746631970  8.3722806556418767   T   T   T
 10.2018090082304518 12.1934051638618861  8.8633411950958720   T   T   T
  7.1806296021656193 18.1679898699501727  0.6307192374042325   T   T   T
  2.9968719262069392 13.2138362146512645 10.3498670579070691   T   T   T
  2.0332387760340778 20.2470381244218203 18.9284964875182098   T   T   T
 10.1228350218660559 17.4965022825986445 13.5916626884685972   T   T   T
 10.0789879951133461 12.7609640484422258 17.6499830770248991   T   T   T
  2.8583055854096728 17.0874237553568804 20.2934514077264154   T   T   T
  0.3091300248172034 13.0049844661833216 12.7470536439864812   T   T   T
  7.4324081471878385 14.9392234899785770 16.5397204106969298   T   T   T
  7.5081182713614307 19.1214144048143169 15.5621874603826971   T   T   T
  7.3266316832218550 15.1892957239010666 20.0292586353397724   T   T   T
  8.3241330600313415 18.9925248057099445 10.8217176501523777   T   T   T
  2.2084364253540718 10.9431288627840715 12.2075586335798842   T   T   T
 -0.0047583085032779 17.8345184613886367 17.9631247366025733   T   T   T
  7.9068667594018205 20.6425664821832555 12.9339916700213973   T   T   T
  5.4947544345291108 12.9894467679531882 18.3625581255177508   T   T   T
  2.0911045084722506 13.7265106923810585 15.4914987672990527   T   T   T
  4.5868013985367675 17.8435995026787459 18.4711022024752793   T   T   T
  7.4715356323415483 11.4239113539261545 16.2180554529690824   T   T   T
  5.4013610550634477 18.7789229009144023 13.6136615867360486   T   T   T
  1.9500040401785828 15.5071797047302944 17.8602159745312861   T   T   T
  5.2681330208264239 12.2233255546999100 13.5998500793870942   T   T   T
  3.0235247360072695 15.1258648051696021 12.6388116632718166   T   T   T
  2.5809640777075655 18.0797315004460657 15.8756318786097221   T   T   T
  8.4930191229775129 11.7183914633944770 20.3543821138211882   T   T   T
  7.2531381445150913 16.0509959533660904 12.2777489307056342   T   T   T
 10.9953934219232963  2.4169480597627957  0.9647975731853138   T   T   T
 13.2932307680275077  7.9851483977413231  5.6416839634884459   T   T   T
 20.0123641490025648  7.9565980969641847  0.9012713996530306   T   T   T
 18.0847885862898430  1.2578406107727653  9.5228031575904755   T   T   T
 14.7729840331542643  7.8030845809263694  8.8802587661107193   T   T   T
 14.7123160568793825  1.9891578847511131  3.8163348627330143   T   T   T
 18.5381085104860723  3.8402013492574358  5.1414340016634767   T   T   T
 17.3793783992376731  5.1946607579760062  2.0809124850219414   T   T   T
 19.9274376556591513  2.9637021224584328  7.8282119243483290   T   T   T
 19.2510605283629985  7.2239835325483810  3.7980347493910136   T   T   T
 13.9129038402904737  1.9884918956152857  0.8309553898291133   T   T   T
 10.3717993931809911  7.3351866549102178  7.3119515244679949   T   T   T
 16.1227844658454060  7.5257381659089342  3.5541760410557370   T   T   T
 16.7961473227900413  4.8559067302528964  8.2253744361122756   T   T   T
 11.6294197849951395  0.4953460842045719  2.8713729675629200   T   T   T
 12.1293188983367770  8.7305396500905008  9.8649625504202412   T   T   T
 15.4688740856460125  1.8656063468115840  7.2534062659844922   T   T   T
 18.1394305512819791 10.0433263678065181  2.4663321259281825   T   T   T
 12.6140145756424680  5.7181342045329604  7.2395708691282694   T   T   T
 13.1361143659715580  4.8129783937827142  2.0194078258999908   T   T   T
 10.6912644742360552  3.1481892117864767  3.8268098666139250   T   T   T
 12.9795788984368201 10.1465370383697575  7.5575177604892367   T   T   T
 18.0154801758917102  1.1189820158465678  6.1430607209181778   T   T   T
 16.1863102624309612  7.8561535706056445  0.5944362696449016   T   T   T
 10.7782191701391739  2.1254919298324015 12.6025157541615282   T   T   T
 11.4605722371500107  9.8995488747906659 18.4669358668739392   T   T   T
 18.8166638450037453  6.6910839449763486 15.0452596961808158   T   T   T
 18.5298836428972535  1.6921853111916092 20.2554804698161277   T   T   T
 14.8056765700054154  8.5167770710495780 16.9634656321127792   T   T   T
 13.8676363164953163  0.4163414614102560 13.6555855506851263   T   T   T
 17.4254344818296971 -0.1758370995334250 17.3449053977445757   T   T   T
 17.9869856589347350  6.0401779228576089 11.0081683869359228   T   T   T
 15.8823069944213788  2.3784989334883986 16.6391001836614905   T   T   T
 15.8301892672015061  7.9730705733835814 12.9013003289040107   T   T   T
 13.6274763346774854  3.2866374913553584 10.2873296843100981   T   T   T
 12.4904078819618700  7.1747145100023220 15.6623112883775644   T   T   T
 18.3016690597163603  9.4920635596642615 11.1664262113448949   T   T   T
 17.1867721271352352  5.1302577289755291 19.2303030005453550   T   T   T
 15.2634073083600530  2.5910665058776519 13.0584046987724243   T   T   T
 13.3331201162382538  5.4503595281338724 18.7375183264895213   T   T   T
 19.7348524432141694  3.9640322086515485 17.6933668816247121   T   T   T
 18.1003326126469339  9.7511300635741982 14.7392648555421015   T   T   T
 10.2295099379795289  6.9922086941036881 17.3275213754610320   T   T   T
 13.4631275746139760  5.0385520450555283 12.5057231109261817   T   T   T
 12.6007643767299413  3.0607837107959597 15.2106458420864108   T   T   T
 13.2773603012948289  7.3217274362712050 20.2624448139856526   T   T   T
 18.5773459686649964  2.3021653840589273 15.7712616600234998   T   T   T
 20.7941802524042814  8.1024442711105689 12.0413812057418497   T   T   T
 12.7863114857976701 13.0712181545177160  5.1227851068012535   T   T   T
 15.3191446599273142 18.3902286878099694  7.5323799389829826   T   T   T
 17.8346025814452176 15.8347155895964047  2.2960473827115688   T   T   T
 19.3105416201625495 12.4566127508080786  9.3020905494184518   T   T   T
 13.2752403338482097 17.4152829686585484 10.3810144433938785   T   T   T
 12.9465796014545393 13.9596085287537726  0.6340641487639749   T   T   T
 16.1565465587706427 13.5361250626381473  8.8633706993310390   T   T   T
 20.0891870376855088 18.8477279360052847  1.3756701328433427   T   T   T
 17.8631175704873719 10.4356081949192614  7.6395734763498551   T   T   T
 15.5426367833806580 17.7664021827954492  2.4508015287330513   T   T   T
 12.0408810405907367 10.9407884411268892  0.9925362772569251   T   T   T
 13.1600354929328027 18.3518751348897382  5.3406384184956117   T   T   T
 17.7058357769132826 20.3723450129884576  2.2920418863367025   T   T   T
 16.7994380634122891 12.2766130222118566  5.3328457710330426   T   T   T
 15.1637788627164607 13.5567592271974355  2.3138831263528221   T   T   T
 12.7749721993430558 15.6214335273889322  7.7999983547249103   T   T   T
 19.2910366684515893 13.3591288414721525  5.8293163914590158   T   T   T
 16.9704781582144619 18.7754315761041575  4.8665205000759491   T   T   T
 10.4446916359539053 18.0355954888668784  8.0983436147479022   T   T   T
 13.0200595190313653 10.4315937961354592  3.4956291603042926   T   T   T
 10.6971910451409187 13.9633293863205790  2.7200369278431489   T   T   T
 12.2803119745481268 20.1438696304629232  8.8168782133523447   T   T   T
 18.1346135515926434 15.5471380396533601  7.8214988781565529   T   T   T
 19.7905681462108127 17.6910740411370746  4.4786052699956169   T   T   T
 12.0210066715204231 15.3901245595941347 13.4289372654697150   T   T   T
 12.3684738921043120 17.4909236744739083 15.8690016652618127   T   T   T
 17.9802942296705695 15.9838163733927328 11.9673903350037953   T   T   T
 19.6851120020786041 14.2645014794870963 18.1334833372763100   T   T   T
 14.6498390261610485 18.9346844018309142 17.3823503375648301   T   T   T
 10.7848376871063429 12.7011680650848096 13.2596494940163510   T   T   T
 16.1361737465574073 12.9713010167731557 19.8510594779029219   T   T   T
 20.4340325007548813 18.5027056221641537 11.9628097160943554   T   T   T
 18.4347281148919073 10.9579367687396037 18.6112893347722377   T   T   T
 18.5016116498326113 18.6575165773526699 10.1531286182646632   T   T   T
 13.1745365922283462 12.2676030204770772 15.0345549656487716   T   T   T
 12.1998345538740338 19.6804198476958092 18.9253320965449774   T   T   T
 18.0610981855973769 20.6812107103856135 12.9175221932057518   T   T   T
 17.4261043706116467 15.1212026255499481 19.0226607011551678   T   T   T
 15.2012271060191573 13.6522582497764944 12.6034410998623052   T   T   T
 14.7161955828465736 15.9990849051924631 18.0296053779382959   T   T   T
 18.0226847568474575 13.0629027090335850 15.7066714424835467   T   T   T
 15.8487656306244240 18.2728627245653037 13.0650825543063966   T   T   T
 13.2117586925969537 17.1713167821448742 20.5490535974870809   T   T   T
 13.0201747305892059 13.3906458074412082 10.3436176371304676   T   T   T
 13.3042281558260740 10.7980417582902231 12.7442818917334453   T   T   T
 11.2828944699548934 15.9974144715973328 17.7945752165665212   T   T   T
 15.5956892291476024 11.5410880402502549 17.2941872755096071   T   T   T
 18.1331737660629209 17.5308747460452956 14.6576508518856858   T   T   T
 -0.1711431832090284 -0.2291848277645484  5.1507026007690078   T   T   T
  5.0672782412091788  0.1471203421247688  0.2368841960336504   T   T   T
 -0.0971882605407424  4.9939671841276221 -0.1497334822758649   T   T   T
  4.9916666524023823  5.0548358362663350  4.9414249661735372   T   T   T
  0.2550431154650710 -0.0608056876863076 15.2281081690428888   T   T   T
  5.4068197253293242 -0.0417547410924399 10.3753197170387814   T   T   T
  0.2749103125059984  4.9010117504165640 10.1087936685134387   T   T   T
  5.0905920508783327  4.9937632058582544 15.3239678822607956   T   T   T
 -0.2499653363085151 10.2743689806794478  4.9847422611021797   T   T   T
  5.0332503389991405 10.1212809421560692 -0.0806314273790482   T   T   T
 -0.1555671852579175 15.1707093784098355  0.1734487110193565   T   T   T
  5.3150945030383445 15.1360552300340547  5.1187838399674863   T   T   T
  0.0762662124110425 10.3528012280624075 15.3217485353690623   T   T   T
  5.1925121988205909 10.2041128350124755 10.2516094933017623   T   T   T
 -0.0558627869521838 15.5681443422186323 10.0351847720528831   T   T   T
  4.9843988921785813 15.5827800677682973 15.4600819268672112   T   T   T
 10.3819344327681655 -0.2419388397798049  5.1886800575362981   T   T   T
 15.4715619666580881 -0.3610994281189912 -0.4562891863672244   T   T   T
 10.4035313834789847  5.3297530610000683  0.0724623961871877   T   T   T
 15.4325073393441432  4.9189719826823284  5.0907346198710037   T   T   T
 10.5157646794150210 -0.1120961364911867 15.6865987226377310   T   T   T
 15.3301329631141829 -0.0059687945133806 10.3811232254918870   T   T   T
 10.3482826363388458  5.0518416053253032 10.2642283526653575   T   T   T
 15.4429918362870389  5.4404924685069647 15.5073696786812238   T   T   T
 10.1812719446565083 10.2257805947338660  5.1864697804619446   T   T   T
 15.3502468602931526 10.5841094471342121 -0.0141023318245361   T   T   T
 10.0768996191366025 15.0205030831779514 -0.0551825777697533   T   T   T
 15.5377316482936951 15.3418505864013959  5.2889264357267605   T   T   T
 10.3966957185464111 10.1836400579468176 15.4411958798560640   T   T   T
 15.5284150818558917 10.5403627587436830 10.1960645968216870   T   T   T
 10.2019539289361862 15.5738485171984475 10.2844233741724675   T   T   T
 15.5154633684301793 15.4409801228948407 15.2004533959557158   T   T   T
  1.1300383350322112  1.0077713573064779  6.3385104942948196   T   T   T
  0.9882185097934144  9.4831294176977732  3.5384788502863822   T   T   T
  8.8427812041452256  9.1883711133555384  6.4271372676725997   T   T   T
  9.4268608584267533  1.1099512177309889  3.7071446193211033   T   T   T
  6.2885563674384635  1.1757899408549948  1.5463635957336099   T   T   T
  4.0229961718928084  1.0860340266358914  9.2063921492473373   T   T   T
  6.4676630968380469  8.8925221445516325  9.0216239692571438   T   T   T
  4.0114114122719737  9.0225963708683352  1.3514079698392347   T   T   T
  1.1581547704847024  6.3313141273375528  0.7771123987564946   T   T   T
  9.4405634286342615  4.0447582119032326  1.5288500363902593   T   T   T
  9.0073679600087466  6.2254829198165078  9.2184127615437603   T   T   T
  1.6978959931318205  3.9845325093675465  9.0310871462184981   T   T   T
  6.3951761196687977  6.1542726980653901  5.9550567946597184   T   T   T
  6.1696591583882530  3.7657073881648997  3.6869682097421084   T   T   T
  3.9243799908269628  3.6381500923094579  6.1548362360335291   T   T   T
  3.8867490260753170  6.2101860077723883  3.7293624203013356   T   T   T
  2.1313072795964829  2.4609782829346947  2.6212618809610895   T   T   T
  2.5212178269442229  8.0461009949332407  7.6610600691871742   T   T   T
  7.7693558191420777  7.7031624046335185  2.8202920763601833   T   T   T
  7.5118546152334318  2.7108755104882678  7.8900331823332310   T   T   T
  1.4527529730340805  0.7131862139031774 16.6737137071587611   T   T   T
  1.1245697572828046  9.2553738090382573 13.8757547164283164   T   T   T
  9.2479651006614745  9.3163681503005176 16.8367121076448854   T   T   T
  9.2560198864073335  1.1686182577105968 14.6106391211001334   T   T   T
  6.3190437040308804  1.2374025546359599 11.7437986065036810   T   T   T
  3.8639447484730058  1.5311917832437769 19.7762310378078254   T   T   T
  6.4306096521464902  9.0414639222194637 19.5734660371713503   T   T   T
  3.8146737798180532  9.3567534189834056 11.6482050587061750   T   T   T
  1.4593112567051305  6.2384204209334300 11.2026913557752952   T   T   T
  9.2020755426417686  3.8217612474018794 11.4142436056589691   T   T   T
  8.9561482872473412  6.2460534801694338 19.5893136983827247   T   T   T
  1.1658179418945325  3.8218808102497137 19.2165150582708009   T   T   T
  6.1168472668151068  6.2895699396180742 16.6099827070057131   T   T   T
  6.3372736347315017  3.9926928764017346 14.0266713148716757   T   T   T
  3.9813339960718941  3.8246757462319638 16.4832558807320595   T   T   T
  3.8846584016418748  6.1717629633069482 14.1234691652794790   T   T   T
  2.8019395249804773  2.6161016279969820 13.0014095446100058   T   T   T
  2.5739367046071973  7.6402919663106310 17.8764832473034403   T   T   T
  7.8233280369130753  7.6229926840218001 12.5504138188666232   T   T   T
  7.5936871877873537  2.5369357663686549 18.1909561813761513   T   T   T
  0.7556973662120334 11.3826864807109676  6.4679587612789859   T   T   T
  1.1033796607074082 19.2343855657220111  3.8332777017519488   T   T   T
  8.9193482327418732 19.1552705468141866  6.2550692997815611   T   T   T
  9.0977675277212899 11.3196859049645138  3.8899971605909598   T   T   T
  6.1388639502536586 11.7686416968175980  0.8894343398569367   T   T   T
  4.0422947208184237 11.4203754269427602  8.9516131784131616   T   T   T
  6.7691808070423631 19.4042480971313118  9.2689058803583091   T   T   T
  4.0183249707017126 19.4263888557147517  1.3352632985322148   T   T   T
  0.9980006200457657 16.5635587402065809  1.1673504983354757   T   T   T
  8.9011169984270779 14.0711693915663467  1.2399101508629073   T   T   T
  8.7564811163865830 16.6677089934180458  9.1596681449565409   T   T   T
  0.9544225698783887 14.3345469320048267  8.8872264937630749   T   T   T
  6.5711666386456251 16.5001244940056822  6.4075223990889434   T   T   T
  6.5086067070332030 14.0510149320923006  3.8389050437949881   T   T   T
  4.1740918215379441 13.8641273347541212  6.3363331860597523   T   T   T
  4.1434953045910579 16.2984189795691101  4.0839482181990041   T   T   T
  2.3249839361797613 12.6970682348411792  2.7649771584476954   T   T   T
  2.8379027974665756 17.9503463636591327  7.8752941407363251   T   T   T
  7.7139788992642355 18.1218024063508985  2.8659572508382714   T   T   T
  7.7478426190627152 12.6885597949851370  7.5149075691609566   T   T   T
  1.5089237849253594 11.1237641837644645 16.5087993963211304   T   T   T
  1.5121665876702139 19.3747316440576789 14.0637429475708764   T   T   T
  9.5604712256349469 19.1238825746978627 17.0856769444520893   T   T   T
  9.0936183430091297 11.2625155539019985 14.3666647331646171   T   T   T
  6.4558541519240080 11.5206485301794981 11.3357072969336947   T   T   T
  3.7609402682415003 11.0799298088196316 19.1434062979714881   T   T   T
  6.2086545365607781 19.5995832058736994 19.3736007421664098   T   T   T
  4.1714742237974134 19.2076755918490107 11.4475162021978267   T   T   T
  1.0381859375660649 16.7898070578673781 11.2045225979012883   T   T   T
  8.9966672118430857 14.3266859222178997 11.3230833153396127   T   T   T
  9.2002265940911734 16.4641280505389744 19.3983944917418540   T   T   T
  1.0757790499328233 13.9132286155063376 19.6319540482236263   T   T   T
  6.0116560500442482 16.8239559198644599 16.7304578621294837   T   T   T
  6.3130388290815258 14.5599323525269071 14.3853796273717744   T   T   T
  4.0012611359508119 14.3169628161717721 16.7395571549345590   T   T   T
  3.7518358953650943 16.7754746874047136 14.3144702985937098   T   T   T
  2.6567371459322948 12.9359781201192074 12.9822354946821683   T   T   T
  2.3855395953462590 17.8364286007299278 18.1769791171184423   T   T   T
  8.0247623146307969 18.2605445050173358 13.1332497126694996   T   T   T
  7.8676822303085059 12.9227109096265664 18.1340828088379595   T   T   T
 11.7718339378260897  0.8469701459371720  6.2568778900573871   T   T   T
 11.3621117686392381  8.8478430288940757  4.2166240062288178   T   T   T
 19.0620213876690023  9.0228497856708678  5.8313441914889284   T   T   T
 19.1660082064737587  1.0842344100047341  4.0078259285784217   T   T   T
 16.5354011276772859  1.0880632525700984  0.8202501570937331   T   T   T
 14.0233183096421126  1.1709642402099569  9.1914207696163004   T   T   T
 16.8926963999343762  9.1651242400184305  9.1442934881274258   T   T   T
 14.1949654985977833  9.1552654874512562  1.2363820678045159   T   T   T
 11.5130781842401095  6.6077562563163355  1.1671264475885179   T   T   T
 19.2656605622622017  3.8071727476640693  1.1389456729406509   T   T   T
 19.5826967105404961  5.8993021071216942  8.8251965262577663   T   T   T
 11.6711474963701409  3.8971642498173642  9.0366321717829052   T   T   T
 16.6699959773804203  6.1063242515609604  6.0562062149520060   T   T   T
 16.5227657663348175  3.6465578441699078  3.8322265960682675   T   T   T
 14.2885568064295683  3.8774080020593957  6.2345892258045756   T   T   T
 14.2669729873821751  6.2257933306025910  3.8534538721428451   T   T   T
 12.6214745402263997  2.6445418421621958  2.6005839830575694   T   T   T
 12.7057025166486159  7.9583218738776260  7.8350934254082096   T   T   T
 17.9103275913967082  7.7816451397364839  2.1227513720077544   T   T   T
 17.8297174909554990  2.7108228360675137  7.6222232685890514   T   T   T
 11.6914497268731878  1.2130690463609313 16.8560697954619627   T   T   T
 11.8182800857953332  9.2259461551545705 14.1224866370095441   T   T   T
 19.4606145798862080  8.9805472264500210 16.4497252288355469   T   T   T
 19.7785413634442122  1.3594557501743882 14.0383044614425341   T   T   T
 16.4754386656628427  1.2921809263355060 11.5359059698021191   T   T   T
 14.2756442170852242  0.7738745683594536 18.8645647600166413   T   T   T
 16.3742135874706101  9.4087583971566957 19.3493257541671824   T   T   T
 14.2472543579227793  9.2753911183768203 11.1608639484332901   T   T   T
 11.7315176855985221  6.3575384513380104 11.3112010973391985   T   T   T
 19.7244451686760698  3.8368402795902186 11.4447575300076423   T   T   T
 19.2962838977872089  6.1685822208486067 19.2949296671052366   T   T   T
 11.5387905689599055  3.8077900589992160 19.6677420334312600   T   T   T
 16.5466263387398556  6.4846716596354614 16.9063246257339728   T   T   T
 16.7340282261764273  4.3946607306784502 14.2766119214899145   T   T   T
 14.2573827080417441  4.2149775320859275 16.7337814187331659   T   T   T
 14.3077425454624301  6.5317842869787475 14.1438005273551219   T   T   T
 13.1476814033133635  2.6996686103019076 12.7457076657065027   T   T   T
 12.5788257039520541  7.7793249010433128 17.8974053111531148   T   T   T
 18.0922857965260100  7.7507737755345172 12.6023988378675522   T   T   T
 17.7266445018119470  2.8323998483779196 17.9654121557754181   T   T   T
 11.1758151720398455 11.3656113004576298  6.6874953094252527   T   T   T
 11.4810132255954773 19.0780743606111258  3.8814593211596788   T   T   T
 19.3682653517438403 19.2192049563303016  6.4624528785854496   T   T   T
 19.1426336564235555 11.5703346094840711  3.9991399061410147   T   T   T
 16.4532980684883618 11.6460386871950270  1.2468893473636014   T   T   T
 14.2541763323965984 11.6428780384739010  9.0661047885950587   T   T   T
 16.6195904609537664 19.7131982295353545  9.1320135877325477   T   T   T
 14.1354651212735156 19.4170303980449184  0.9704161326298864   T   T   T
 11.4770264872189252 16.0678549792979055  1.1765628518898703   T   T   T
 19.0093614531193396 13.9913241613162747  1.2436751444610723   T   T   T
 19.6103598891240409 16.8456107745959329  8.7090248573575515   T   T   T
 11.2311524043954538 14.4367462992938407  8.8379054716362795   T   T   T
 16.7796941592348254 16.5264385468307609  6.4034892109155779   T   T   T
 16.7665257363166766 14.3137832999169543  4.1373899297505350   T   T   T
 14.3734086795533003 14.2078280797049263  6.5126880259568702   T   T   T
 14.3527327913693803 16.6153699598129450  3.9847481137541894   T   T   T
 12.5694120890941345 12.8480554078049494  2.6522659263280430   T   T   T
 12.9628586117826679 17.8927776938511087  8.0800217085754689   T   T   T
 18.1306091865717782 18.0906690480372632  2.8004329894760529   T   T   T
 18.0951458162026313 12.8510115183735021  7.4920977457926714   T   T   T
 11.3393539386197215 11.6239314603337256 16.4505489919693559   T   T   T
 11.6883138917922373 19.3804113434589667 14.4468115698728656   T   T   T
 19.2900711180531133 19.4940395141019600 16.1744286599488589   T   T   T
 19.3284641432875759 11.5414086077298972 14.3743803880575118   T   T   T
 16.7316830303789956 11.7567956797732123 11.2113814543757915   T   T   T
 14.0896074194822845 11.8107135168032542 19.4354576009362532   T   T   T
 16.7737611533725506 18.9973178147765118 19.3407643396780173   T   T   T
 14.0655844558723313 19.4061751250960661 11.5711661634087406   T   T   T
 11.3624905860828527 16.7741559969405927 11.4726409510740091   T   T   T
 19.3220125621436942 14.2845720951507396 11.1576431406542724   T   T   T
 19.4051240455239622 16.1846957870236245 19.2409809725487619   T   T   T
 11.3745420056487028 13.9392316369680138 19.2635005755507294   T   T   T
 16.6747322609963966 16.5719354158202776 16.5822866719928470   T   T   T
 16.8025929592343850 14.5817051769364561 13.9827021186383060   T   T   T
 14.4808492812622873 14.0254723088467088 16.3101097272512945   T   T   T
 14.2158649410749227 16.6033177024317879 14.0950031683310346   T   T   T
 12.9937060665943207 13.0689774228602680 12.8639682203690899   T   T   T
 13.0537578605783331 17.5263705186743479 18.0727229802938609   T   T   T
 17.9867900532266809 18.2361930800292207 12.5843135781141200   T   T   T
 17.6608349435190668 13.0346729468461540 17.9048691827158137   T   T   T
  0.3600068027735678  0.2464785110422529  0.5092357067084404   T   T   T
  4.7192568710773202  5.3934719530325257  0.1476306228433510   T   T   T
  4.5477778520649839 -0.0749080572751606  5.1674119001468188   T   T   T
 -0.0452572111582167  5.4987766725871605  4.5691506687492565   T   T   T
 -0.3110755583525531  0.0999382518110198 10.4028907467591942   T   T   T
  5.2746550555450993  4.7572271009082003 10.3412470139642085   T   T   T
  5.6296121239551846  0.5072385346126383 15.6142900290280906   T   T   T
 -0.2152443002952512  5.0680648135399462 15.5111489084104015   T   T   T
  0.0052975046096901 10.0977286873009398 -0.1331032661264951   T   T   T
  5.3869751859141610 16.3011352901256288  0.4648171331379765   T   T   T
  4.9984169047598614  9.9087120221839822  4.7637330691262303   T   T   T
  0.1809198601898693 15.2985973238859287  5.1531940682510848   T   T   T
  0.2097222794834795 10.7437054361521387 10.5013039052460755   T   T   T
  4.5923194748885310 15.2255644623216000 10.0497443584404458   T   T   T
  5.2607460509721387 10.4351604437683658 15.6145853053659742   T   T   T
  0.1982642013147960 15.0523341384957305 16.0501263829195864   T   T   T
 10.3395148751597237  0.2950345538110932  0.1795081567189436   T   T   T
 14.9000849450775998  5.5551749816083644  0.1176783079608677   T   T   T
 15.6855649935475796  0.1566998321241685  5.4781131199234405   T   T   T
 10.3635545509004263  5.5454830533582626  5.6255840844840943   T   T   T
 10.4105145258936282 -0.6503693803354564  9.8700022000161383   T   T   T
 15.4133574130364845  5.5135465565827291  9.9054168614252323   T   T   T