Li P  S  Cl
 1.0000000000000000
    20.5609999999999999    0.0000000000000000    0.0000000000000013
     0.0000000000000033   20.5609999999999999    0.0000000000000013
     0.0000000000000000    0.0000000000000000   20.5609999999999999
 Li  P   S   Cl 
 191  32 160  32
Cartesian
  1.1106688615863070  2.0672511067164288  0.9099307238616344
  0.8902719222210745  9.3980792391303751  7.8881041273416770
  9.7437659280748150  8.4200473010098715  2.2047581703867571
  7.4517667101541161  0.5928100352189518  9.6051366960392457
  1.3403667765370109  5.5642580233752925  7.2744619316221693
  2.8294631613690542  0.5240911667578679  3.2018573615378343
  9.3687475099821267  2.0784254615757343  8.5206793740848248
  6.9641421109630759  9.9231994058394566  2.9506717490872170
  6.6546658109618759  3.9284499219959144  9.7924660996682302
  7.6781864655650027  7.8136329666507924  0.3423058090452053
  3.9157651105655771  3.0069783921939219  0.1814867782873666
  2.6135450371210291  7.0883818780138483 10.2649014122049103
  5.4439188885173397  7.1964191049713930  2.2149578530116099
  7.5581224205450201  4.5862994991272377  7.1255564947540480
  4.8526442822097007  2.3401087870177482  3.2427218380794622
  4.0607796995191183  5.7896050437002771  8.0902167684865045
  4.9277017471837929  1.7701702745758898  7.3800042914815140
  8.2465726861567887  5.3450535715353364  2.8096992999585888
  4.0468836097485852  9.1599399646817368  7.7332453092053761
  2.2617659909362553  4.7810282091540790  1.8445549499921032
  1.7234514194216373  3.4571438570160016  4.6200928542945823
  2.7329997237007682  7.8185972069155358  5.5900115799190955
  6.9281645900237159  1.7169350514572099  5.4832132221506242
  7.7906927895224518  7.2104010334840654  5.1736467355647466
 -0.1454362517324108  1.9944796001314835 12.4297042961920532
  1.4241729420820506  9.3783593285717988 18.6389065136247787
  9.7012272671569093  8.1120362242011108 12.8327941221373809
  9.4778677751373870  0.7598901358578682 17.8104208420689751
  0.0963317761972432  6.7653463913249805 17.4357716661531477
  1.7077505579159333  0.8993157579726603 11.1634592292824291
  9.6892961719617059  3.9393688918541496 17.1163698240536455
  7.1277594347059949  9.9050870434934577 13.0929158602095423
  7.6106784556224882  1.5886888208005703 19.8410418584442461
  6.6978927951577658  7.7328116192041101 10.7362399238601434
  2.4127622440996097  4.5128927215025607 11.9478731161139820
  2.6562664222025250  6.9913475297101515 20.3806552336523623
  5.3371542183083340  6.5507036605855546 13.3513136565221604
  6.9177117763193623  4.2210422813145883 18.3041991992593118
  4.8304261695968940  2.0725158846376308 13.3386001941428649
  2.7698361573814356  5.0200302687347627 18.3359324353404851
  6.0268795505345460  0.6036307031455905 17.3778227841066482
  8.5851298458158478  5.3054912595917569 13.1588647311452291
  4.8410759280274673  7.7254754490220039 17.9859329007196038
  2.1166441472679596  2.7840521595628287 14.8703464315596392
  2.7966394952591171  0.2469700767001144 13.8364140642580828
  2.6655648753978087  7.9913409368841304 15.6352192305228250
  7.5982266128801195  2.1934131007704973 15.3723050728862223
  6.8505325016570113  7.8697479731094502 15.5306842847094053
 -0.1038352613349328 12.5572958233223044  2.2879727175239797
  1.8115012589711705 20.0237043719967254  7.7610774236534272
  9.7135381688263465 18.8484785857721207  1.8090637699120693
  7.7578466936501203 11.2556818566154746  9.1638399504423074
 -0.3726692675154484 17.4688494855269276  7.1704039936440065
  2.5493639346758625 11.4909775056145307  4.2232624869790634
  9.6861587393758128 13.1509778955239511  7.4934235128356299
  7.1037275727046705 20.3065889253103968  2.3367895104113376
  7.3583227507125661 13.9713894428438401  9.9956937691412016
  7.6382887489766178 18.3852515801539589 -0.2153951051193506
  2.1100263728833313 10.5426548835496394  1.2913251523573575
  2.6869635407297650 17.5662181425848729  9.7651675506849944
  5.1584814803372767 17.5278660580149612  2.0602029891754232
  7.4121815379446598 15.4492739036909335  7.6121969128096376
  4.4520068609488401 12.9245256590096407  2.1853938877379875
  2.2598841065215058 15.6794403374426352  7.7264870419229323
  5.0839480313380943 12.4915934783189808  7.3035986308273655
  8.5266372168391928 15.9998383088880942  3.0316735102014554
  4.3853214508173615 17.7824731203721988  7.4922687782111845
  2.7192428688567696 13.9174550390269580  0.2013458463505292
  2.1095817061736608 14.8725634850892643  4.4097448563060775
  1.9744877783271981 17.8177400034712008  4.6078879394231160
  6.9800959916257952 12.2890611513021017  5.1808011632604929
  7.0946549662902267 18.3250694397111857  4.5827424823373581
  0.3977043538493911 11.2562832755225273 12.7650207138725040
  2.0592024578523742 20.4316744018495093 17.7951525707275842
  9.9494069277016219 17.3810507992858341 12.7948220200642488
  8.3140211868458067 10.6906327865017587 18.7928109816524085
 -0.1887768538844836 18.5624078633472855 18.1831977432160130
  3.6050700435181131 11.0677543109460235 13.7458169039836520
 10.0047441833543029 13.5540390416320413 17.5686087647600111
  7.3963348793980987 20.1770914276211712 13.3245019488601670
  7.4736650957309507 12.9859301390097066 20.6935619397521933
  7.7023116110383310 18.2071265974161847 10.8900499798716126
  1.8835616574351890 12.4575619712180750 10.6638306842091488
  2.0471141359439153 18.2327161452345763 20.3457862061315424
  5.2664344747886718 17.0237695840132943 12.7441253214499728
  7.5328337923936211 14.6689410592702121 17.0625449326638332
  4.4627204297516707 13.8810402530117827 12.1946861886919322
  3.2457883232358462 16.0370054357110661 18.5129647002197473
  5.3470224427037083 13.6087573298045807 19.0457938404372626
  4.4666851725136851 18.8463480776869439 16.7819145578718967
  0.8385744288393090 14.6312929536948992 12.5317050627266635
  1.9209643831661443 13.8793176987300129 15.3970218847394964
  1.5415262304206090 17.3659468946569397 15.6495656722175482
  6.9126309971481410 11.2849916044638228 16.5728416183112657
  7.7934046421058349 16.5097203357343361 15.0018157448517417
 10.3607955386328836  2.2177028539461774  1.9589733915832095
 14.5039768398986233  8.2400557883220262  5.9128056863234688
 20.2566980248493103  7.1335936053449238  3.8838191734896936
 17.8380796736373881  1.1664860099009917  9.7825785317910494
 10.4660644955019517  9.4964434053136273  7.7457773823537774
 12.5887940871304558  0.2156009887318730  2.2162079489365074
 19.9557587927482096  3.1050148098952226  7.6586742255336864
 17.7663126848465467  9.8088788080913503  2.6254820405296639
 17.2407931211882897  4.6174995613406740  9.4008246716535755
 19.2016566518111098  8.2446483808790720  0.5104047242069388
 13.0996061892898243  2.9127550845147843 -0.0206144483187103
 13.0083483455078941  8.8034519372222597  9.1117781986882438
 15.7476041649321985  7.5164206028773304  2.3158918393753765
 17.9316465823178994  3.5712304272297875  5.5429845316368107
 14.7920032708174212  2.7534692190454773  2.1495157410622268
 11.2512412826926411  5.7348330437867183  7.2984855071349006
 15.2783571594903371  2.7896095854599712  7.7198370323982211
 18.6726173549460626  5.4528033202403829  2.4886155155920195
 13.9639709071194602  6.0786914075926219  8.1313207259877984
 12.5245298400469860  5.0034371410488587  2.6491526428331928
 11.7784282891127159  3.3025476637761049  4.6383897134943242
 11.6030321700532024  7.3136562251787396  5.1513453017627269
 17.2135176613294902  0.6682729655182377  6.9418603529949747
 17.6487792263666208  7.6986496986747781  4.9501068528220911
 10.3320485972029523  1.7129980322307132 11.7740368257611010
 13.1002511511652706 10.4202344356200243 17.8327334210587836
 20.0263370830146350  7.5431829492887115 13.7590928936991777
 17.7950811663173418  0.8180558356462150 19.4858700087505063
 10.1580961833201222  7.9583953013225734 18.2375563493996431
 13.1262710204670547  0.2801443697889382 13.0670896545493509
 20.0349270657582146  2.2111259670031735 18.1696696014540890
 17.1204123756243796 10.1170090258707912 13.7488503678323699
 17.1944194188201571  4.3598826534622379 19.4113948390947009
 19.0564294721088707  8.0224845633250883 10.8183673787419252
 13.0544650819831141  2.6570710165016931 10.4579748266637313
 11.9877116687700838  8.5908543355683307 20.4578664206751988
 15.4663570891874080  7.0381242061861773 12.5716214057217535
 18.2973588726505589  3.8443222715705279 15.9809230152988047
 14.5214859336930573  2.8832271310308539 14.1498938219347856
 13.1859275276688468  6.0224960663661040 18.9945111978555730
 15.3147346256181311  2.7075154685768235 18.2568236341728891
 18.1415400745434745  5.4466433759679242 12.8703930146553560
 14.9037521958873231  8.5308250440648301 17.5996929287735888
 12.0856473646581275  4.8254174150542495 12.9101203480865987
 11.3703863137490053  2.5909516654719198 14.5907992286488106
 12.5879397867608827  8.1234512580242040 15.6388190301938561
 17.0149692427972070  0.8775624029235928 16.1063634949261036
 17.5471845494806580  7.6894607533981079 15.2491405277716243
 10.4567248673295747 12.4477943659716281  1.7967355258131308
 12.9173053552137791 20.2901017978584264  6.6051588324140313
 20.3625618218785149 17.9197576627917208  2.7138414655528416
 18.1231865249756190 10.0580097574649674  8.1121623960564619
 10.2136575125643745 18.7329775899249604  7.2994370201124017
 13.9572385536639274 10.8257786029279082  3.0663326817837002
 20.0218932670647547 12.2239333819716478  7.6198585836984458
 18.4411384637646592 20.5747983593300141  2.2265695431248651
 18.2119087744112562 12.2402134084552010  9.9089931983979511
 17.2703294770208657 17.4205158637404764  0.4778511706490702
 12.9091276622811986 12.9885469040117787  0.1781558268995791
 12.2144778619663370 18.8431054319948714  9.8794408152099908
 15.0123963365108928 18.5683573661243209  3.1884740823435931
 17.7325944708617342 14.7166420013875783  7.0359394765296450
 14.9195796403248000 13.9785000822376269  1.9953287243635962
 12.6063671356717766 15.9934863605729518  8.2147554912297789
 15.3713403757659890 12.7141490646612052  8.3308945206033780
 18.3811811992698075 15.7388515837200629  3.0360659977705877
 14.7958045505738678 18.2709329021822988  6.8368095040262951
 11.8414544173579728 15.0066883445711170  2.8311057217786599
 12.3983329724745026 13.2707235331177973  4.7435858147136063
 11.8682086408807042 16.6301132179129318  5.3183275027589847
 17.4374018164813620 12.0920505329671606  5.4060540023225334
 18.2217634333017244 18.3547674441930440  4.9233888081696202
  9.9934843442583272 13.0815722988581165 13.2662062648200010
 12.7353790328942083 19.6856225688194684 16.9607918164356342
 19.7697325704068589 18.7826458673927803 12.1123514397240015
 17.7278675693222318 10.6755433994318683 18.3027079993163859
 10.0030539217050816 17.6733083838855976 17.4674599609455612
 12.9066345623487209 10.4276986926951967 12.7614146745525066
 20.0801606999750391 12.3345245166896031 18.9019744068346647
 16.5113613135043806 20.4252672714158692 12.8688053492375722
 17.0110545601643679 13.1997487455110623 20.0581371659397547
 17.6052373530056485 17.8217605142923858 10.3233083296257959
 11.7264676556016365 12.0646938991180370 10.4659695655019220
 11.9502089440888195 18.8412061486510645 19.8187692361493610
 15.3448228577305699 17.2447089208703446 12.3693577068137870
 17.5310730296231689 15.1100168881735240 17.9025281756392545
 14.9382236275728122 13.2082528633795189 12.0685104469929474
 13.3873159693714729 15.7168242511286369 18.8834135600961055
 15.7136699082624425 12.4639113814613669 17.1442489333717347
 17.5145088001798470 15.4403120787622772 12.4986164834089148
 14.7467993058667428 17.9156777664645332 17.6541326701661951
 13.0839406125706752 15.2070856256304534 12.0724503038286208
 12.6367174390710044 12.8501682293673980 14.8509479235311446
 12.1005282027470944 16.6964390408737735 15.6599518722476372
 19.3944764172118340 13.4806834661761812 16.0178476345993488
 18.8939925660491284 17.3398346159972014 14.7001037091302180
 -0.2118049225630571  0.2824057189567499  5.2503599714002656
  4.6965458470762913  0.1509148250350772 -0.1642230095390958
 -0.4412168888542631  4.9434834703938568  0.0253548428512267
  4.8938866418046869  5.1827583480061863  5.3479595966374367
 -0.3968593348681836 -0.0084657264550847 15.2064844066783476
  4.8026652931493663 -0.3850061952328613 10.3510763014022285
 -0.2068978912330898  5.0671780652632341 10.2677749228698545
  4.7238027717508428  4.8030552979867522 15.5263664458908544
  0.0068573767487951 10.0862222954770147  5.1346584133279416
  5.0182935990758946 10.2086724943856844 -0.1597186610103748
 -0.3082153131916531 15.5656471161079555  0.0130916548592810
  4.8193354303742550 15.3385482095000842  4.7775930839909497
 -0.4742261597248498 10.4468302206381907 15.6152304580950734
  4.9321809871064053 10.6051170429984598 10.5176131104317871
 -0.4375816808328799 15.4437420548277640 10.1134228330316738
  5.0241562106901698 15.1751382644439818 15.7369553589796141
  9.8675949093338229  0.0097576635817807  4.5766583975836204
 15.1036787413846536 -0.1977527336012800 -0.1337390229448593
  9.9792327581632954  5.1616710783105173  0.0214653493138701
 15.1540350585695123  4.8838032611527380  5.2030060788686816
 10.2485685822016670 -0.3752415604466323 15.2997708384265731
 14.9931283348835827  0.1254624602681276 10.1583235191751182
  9.6325976195717118  4.9310991041822829 10.3488986796089080
 15.2829203710052823  5.4206251432767720 15.5159273054722693
 10.0206715606830006 10.3945223784401648  4.8759083299663928
 15.2939935374297526 10.2682134334704127  0.1588608198545348
 10.1128684572278029 15.4271278470719650 -0.1805250902458592
 15.1849448312421913 15.2729521768773981  5.1295811888109721
  9.9330093040566023 10.4826678932184265 15.3243313174562772
 15.2530835724539138 10.0980006684317889 10.2866789847418278
  9.9883393087371317 15.5732191518945768 10.2694963535643886
 15.1921219996194772 15.3904444338347215 15.3724225583599061
  0.7907532699393519  1.4479911503551377  6.4956623758404151
  1.3175661938111043  9.0111187406125186  3.9637578843697399
  8.7622719913157514  9.1475600791593106  5.8497551032742097
  8.6438243059175921  1.1465927213307681  3.5510860284524064
  5.9720496696249787  1.4584842148045833  0.8237208947538861
  3.5150473414187391  0.7233593485981996  9.1730371010574938
  6.0229928632753786  9.3646481772521355  9.2012732909997617
  3.9563742647435700  8.8618055381828089  1.1056015709787756
  0.4114442756292376  6.2107202184795813  1.4831177138802272
  9.0264741848366494  3.7944915014901790  1.1428863861194123
  8.2568043640510691  5.8367959642269449  9.1825363905389672
  1.0946715953121433  3.8848824645644195  9.4379823051823504
  6.0003715699286291  6.5415385563434354  6.5880047649364855
  6.4237407907223023  4.2182274173899987  4.5510283713260833
  3.7043284727075028  4.0740492097509566  6.5768702695726446
  3.9326798936488214  6.0410925842224508  3.8111007926409988
  2.7223671853242517  2.6511161102131662  2.5849821292487816
  2.2423071214611654  7.5613878260805176  7.9102935433634594
  7.4865174182309451  7.4874540217704739  2.6467297992459353
  7.0170668077046487  2.4799199033683546  7.9132185634120713
  0.9590295387483752  1.1638232508601831 16.1616156516295391
  0.9094900807809362  9.4892190331293147 14.4228443678268796
  8.7896170924922732  9.2074260182497021 16.5014080062885462
  9.1729979578583158  0.9085043601317330 13.8978786980064921
  5.9478716898236295  1.0001415717786752 11.3767012533409471
  3.3371890143293439  1.2278131767434413 19.2489376276462458
  6.2205426846064347  9.1087833470767894 19.2100693603369947
  3.9716219810498594  9.3844831767210000 11.9013306400680712
  0.6042154852715895  6.5679268255225267 11.4344775653369091
  8.7148442621805593  3.4847804208685997 11.2938241671472266
  8.5453899681579966  6.1357879380405089 19.5217381338325069
  1.1864375022245015  3.9833896962482553 19.7376852595716166
  5.9456662356662919  5.9788903424947062 16.8369671821963358
  5.8737928312462131  3.8879464412080820 14.1543889445146469
  3.8695716171882784  3.4207819202046337 16.6586416241079931
  3.2329476025626973  6.0438610879538333 14.5396778418062205
  2.3285534567783941  2.1881339772545640 12.7962330810223328
  2.2660902417201978  7.2557157247207424 17.9559528548130451
  7.4473080034396002  7.6033832401704800 13.0993990405692422
  7.7323751595567796  2.1773525436390524 17.7390080791704499
  1.2603835356088338 11.2473557322735207  6.3715240493334990
  0.6991968636473691 19.7125350727464124  3.7639705374962840
  8.5344162076762853 19.5491658358031586  5.8948383877895010
  8.8334157737319163 11.5895833877250389  3.5069569340174183
  6.1386077362941478 11.3650980522728986  1.1705335713170264
  3.6486336658815239 11.4626006231480861  9.1849494395487135
  5.9579194666025233 18.9011735118236999  9.1515586771496231
  3.6578357340035286 19.4164451997610676  1.1188922054982804
  1.0400947390403996 16.8306712675085066  1.2378618164506854
  9.1552967762861943 14.1919520053096075  1.2095899322276400
  8.6932849028943764 16.8097484174855119  9.2297670049642129
  0.4848357049552031 14.1053754266872158  8.8507409027527988
  5.8515842408785224 16.6892261736780476  5.9554398919027687
  6.2337632811965848 14.2483496797491700  3.9039284298393730
  3.6114425426448045 14.1320634036688269  5.9433740377902344
  3.5824938581414756 16.3801883281634417  3.4951623264722467
  2.0758414181194014 12.8931658490374232  2.0834859932876109
  2.0477313298829971 17.8396756488580159  7.4363164152787329
  7.3580039675731763 18.0491672125004392  2.2435675937616808
  7.5117279493534292 13.0622689702953654  7.6543527204875561
  0.6768667051313428 11.7489219191515293 16.8477585438522404
  0.6808301572070661 19.2442492706282202 14.0664362139805270
  8.9574372455628151 19.3019985832654619 16.5053739528459609
  8.6068858651963360 11.4354529010577739 13.9827010026732292
  6.2695878822067241 11.9056399959290466 11.3771117456257720
  3.8950027721739877 11.5368984214943602 19.3935583980633304
  5.8124427165036208 19.5566267221488488 19.0720382102969843
  3.6167162038991361 19.1588439913274016 11.7216888813910280
  0.7840373074807461 16.6472810363406403 11.2270667759489768
  8.9255002228606379 14.8526310960623906 11.8431741555048298
  8.5570041063136166 16.2135982616697554 19.2671638564882777
  0.7374842594044030 14.4355077624183181 19.2743416400323291
  5.9523588623065580 16.8221604454150366 16.6828953729572227
  6.6183953182543789 14.2827549749983582 14.8651878725309530
  3.9355253741840603 14.1111545950321400 16.9757152680216272
  3.5813837230209078 15.9781673455326558 14.4155949521633353
  2.3768383288906296 12.9022141634238832 12.9485045519343078
  2.6111044528228091 18.1774342496307675 17.8473858710172486
  7.6283009373649726 18.0276705740119390 13.2060066089490302
  7.5762827237483990 12.7700159962673254 18.1965642292970848
 10.9065520456142515  1.3343527819967447  5.7064704294885251
 11.4607210464307361  9.5016123847634564  3.6736556736799040
 19.5976834636181785  8.6490910049791445  6.2981882311446800
 18.9880305645589900  1.4341480457159641  4.1148059747285330
 16.2302755479944558  0.8866854458048822  1.2483800183320140
 13.5016267363353215  0.7898431654965926  9.0883529934194769
 15.9461720556755004  8.6961466028162526  8.7791963041941088
 13.9141875083977329  8.9783389427214022  1.1736272804700538
 11.2009693997593551  6.4315092477217499  1.4069412999930873
 18.8743987349248918  3.6395960852793205  0.9817638828015632
 19.0031244290481851  6.0650311061132864  9.1058190040154319
 10.9160943596673015  3.9994180980668164  9.0533647492468656
 16.3996504599157724  6.2791055990311158  6.1203242486120777
 16.1877499228316921  3.6142388432317927  4.1928335730900130
 13.5954606847077955  3.9664941244287353  6.3359229415878326
 13.9889566376426142  6.2679824200075185  4.0503063311446796
 12.4910981511741888  2.6676834771399029  2.5092783479550298
 12.4642107710353542  7.6839393092404347  7.3513435645050302
 18.0060348268167481  7.4650368391026305  2.8151531617142820
 17.6618593162944819  2.7921724194790345  7.8513976285729106
 11.3811682355630968  1.1107519030046571 16.5973724372325684
 11.1799326066650924  9.3610787088061187 14.1219147898697610
 19.1155197722867882  9.1359717152352840 16.9318665382300217
 18.9153717149127267  1.3008973457891522 14.2238665690036061
 16.0136378637668209  1.6139767839640862 11.2950538171258579
 13.7173977990820060  0.8861862503685780 19.4122537723698727
 16.3649432132514683  9.0698492903881380 19.4616782236305035
 14.0362631282292512  8.7953075126730678 11.3368800861492556
 10.5211582151409786  6.1542122554474608 11.8761056922443409
 19.1561455712328517  3.8584221257521527 11.5243230829637060
 19.0110429647160046  6.2013050002701462 19.4955030753710226
 11.3122789068142016  4.1499815132118325 19.2520134191033598
 16.2677100084551824  6.5949088381297862 16.9234879217480234
 16.4616054414611774  4.3772410219384010 14.1703423066687026
 13.9809225969656694  3.9304437757844304 16.3218676712310824
 14.3061991231135455  6.7416398134977280 14.3810844570732321
 12.5172169689146227  2.4273308433601133 12.6306875908681047
 12.6546109184439111  8.0550951056493094 18.0121397965674497
 17.6224169240902953  7.7614147698511609 13.0035928262604319
 17.6696934878023697  2.7131937089493428 17.8133460754471855
 11.2048910572232252 11.4135161755881889  6.2625287873411422
 11.2175015183463618 19.3790970016077395  3.4992191254652423
 19.2600691808325983 19.6317620673120707  6.5765144561254676
 19.4084125523383797 11.3808725219925417  4.0029770334807440
 16.3712223895669311 11.3769708573999964  1.3661992049144651
 13.7845033554790994 11.3962366781949935  9.6299778993308998
 16.3448964364686731 19.7026766787665508  8.9148127374825048
 13.8117614074113551 19.0738178880643510  0.9920367008074676
 11.1758881363344607 16.8155223127496924  0.9002794077094889
 19.1181344907675772 14.3414031280967542  1.2616556322286379
 18.7540877058963353 16.6352952981270619  8.8916114939655948
 10.9352896788635316 14.1906876639812900  9.0200491350553289
 16.2897497902687398 16.6226322976633938  6.0762520779565401
 16.4567685750179891 14.0292874189818786  4.1388210911341163
 13.8928773257847045 14.2396633509086357  6.5447252500554525
 13.9903082620890000 16.1084291947453089  3.7447759860729239
 12.7489695409931336 12.7811118434047017  2.4384375085872074
 12.4791836600131596 18.0686012374511726  7.2140846065012427
 17.6872919375560720 18.0644742576025550  2.8363930648570963
 17.4969881650896788 12.3835593836844069  7.7944327326614804
 11.1807410671566902 11.6918206145468684 16.4820653685897369
 11.4571311375291156 18.8926513770819433 14.2725767625539799
 18.9381366883029827 19.5718131121801555 16.6787191489173487
 18.9234923400062875 11.7719821807481040 14.3999249543425023
 16.6152886930896635 11.2309496303458971 11.3799678114819951
 14.2191910146259293 11.6719628252461582 19.5529279545954111
 16.1936732061913915 19.3913421811731510 19.0314673907408327
 14.1426573821724375 19.4466331412617137 11.5802833761731012
 11.5415298712375378 16.6785015811859871 11.0055241199499374
 19.1000605978106890 14.2479427312733833 11.4511923732168945
 19.0638964772680666 16.8291120694818872 19.4451813848363244
 11.5401324739579234 14.1880469184080997 19.2253279350291493
 16.5230359655762982 16.4209828069246733 16.4060199116489933
 16.2296455109443123 14.0939295642404687 14.1105777101093413
 14.0823539535665940 14.2507508583579749 16.4917635387610417
 13.7653538768592618 16.4499679918268349 14.0113567513469270
 12.4095544533489388 12.8994401239727363 12.5503350430053953
 12.4097222506453004 17.6686035839971218 17.7553150861415858
 17.8073759396156959 17.8799719726502637 12.7742696703497742
 17.9492607133279591 12.8830846001961756 17.9184794935642664
 -0.5135360468168786  0.5028729652219576 -0.3773655929985106
  4.3957030153895085  5.4597745779633318 -0.1800844163192707
  5.1921320940593176  0.2090596164587595  4.5473890304054292
 -0.3059532704905954  4.9471211558232344  5.4195229512005527
 -0.4769830564987875  0.4275182423838202 10.6593318167008686
  4.4834013671172874  5.5428373558879382 10.9130965822860855
  4.4783831420310873  0.3532439630860950 15.3646589911573965
 -0.6975722491316145  5.6406654110694934 15.5984301873098410
  0.0100782402831621 10.1464774425184814 -0.0803419515908978
  4.6487175056816357 15.5300953977674894 -0.1476465225757234
  4.6576458248728212 10.5722274376950125  5.0439704900785420
  0.0491761945859133 15.9309490331090853  5.1004341931299972
 -0.5994063032092614 10.2505109840669739  9.8512934751787036
  4.5230931414616515 15.5807814329244803 10.4025701959899699
  5.4767504673410272  9.7598939730985812 15.2904412629987299
 -0.0110048279204764 15.6037734161509931 15.1186654355688894
  9.3928106132180336 -0.2218447854389405 -0.2370135030314580
 14.7130462341467663  4.5428585809015329 -0.5501815942237027
 15.3080252951120599 -0.4158126325802769  5.6514286123573587
  9.9681454372722502  5.5324429042937480  5.4340232441171246
  9.5554200522101969 -0.0737214790440758 10.2261610598712611
 14.4232157995138923  4.7467106981837821 10.0515191915543998
 15.1369132929998020  0.3406291068388922 14.8463045034577572
  9.9369095224113178  4.4390036509121904 14.9925819855136329
  9.8373999520506334  9.6005153294588048  0.0288212023684000
 15.7875486109262582 15.4560014794560825 -0.2352024017099294
 15.5542551162324099  9.8577480745181632  4.7031244467621285
 10.5848519958418823 14.9774367633102319  4.4522504710465105
  9.9558875402934977 10.3441685179911378  9.8942058035305553
 15.3657027504109625 15.1970286041092333 10.7795400368135148
 15.0254766761392595 10.4082604856733099 16.4492684996201639
  9.8970427044916445 15.5421578876365398 15.9169639520559922
Cartesian
  0.0003499285065959 -0.0046291703823770  0.0200065038286610
  0.0064759154418858 -0.0030815817487002 -0.0006320914063701
  0.0165661913927271  0.0044420140423951 -0.0071259350732300
 -0.0017189385525195  0.0100197271312756  0.0040077390144671
  0.0023939760457642  0.0217553599791967  0.0171660343377292
  0.0002109962649952  0.0004023580285183  0.0133979703349936
 -0.0104245897423759 -0.0051414868078355  0.0020370684558098
  0.0037901713390458  0.0136983255423500  0.0040413569093666
  0.0163447651303361 -0.0009071164551211 -0.0008833347324820
  0.0096467272735288 -0.0056829502745089  0.0056764747439735
 -0.0112318524827879 -0.0009458093170057  0.0094240639022188
 -0.0060595713523169 -0.0027834686923886  0.0000776158047923
  0.0052032864861185  0.0126323363214335 -0.0029638446071658
 -0.0160470684802614  0.0080379601380012  0.0108815153806869
 -0.0070267883464664  0.0027361444817170  0.0024887364071547
 -0.0120330718619855  0.0065966265429759 -0.0196032768792331
 -0.0083977038921642  0.0038882721103946 -0.0033308186652484
 -0.0089356828317186 -0.0076907677688336 -0.0067551475743748
  0.0011187705926366 -0.0086513743114612  0.0057090735953646
 -0.0048593597943653 -0.0079156195664549  0.0058787434109135
  0.0077407240911162 -0.0033597455632420  0.0067986404538237
 -0.0045488908702375 -0.0061920479870302 -0.0039711891666871
  0.0085645482654683 -0.0017614785447781  0.0073789375999538
  0.0122910089429435  0.0044247424789287  0.0055604606918594
 -0.0019018778696749  0.0109384302060593 -0.0054573745807715
  0.0118520341037866 -0.0020276544423143 -0.0097797148965054
 -0.0233684240204993 -0.0074905889036962  0.0060692066884250
  0.0007005411840984  0.0038139125621298 -0.0063172224938140
 -0.0095223556858018 -0.0009025447387236 -0.0035642780680042
 -0.0116851892948586 -0.0095353267085460 -0.0198854036754951
 -0.0064077061109783  0.0105323983168924 -0.0058522357827868
 -0.0048069893752618 -0.0036556673922998 -0.0001127628293891
 -0.0087080409358938  0.0037677419638077  0.0058495636349393
  0.0125806980035572 -0.0063194420866434 -0.0059320787991098
 -0.0093134518457716 -0.0059968807255826  0.0036361434259744
 -0.0055105756208014  0.0033280065245286 -0.0118395270331899
 -0.0127925856895104 -0.0066792372384293 -0.0046715328624854
  0.0091154580274084  0.0085315320677533  0.0141965380100718
  0.0005208974096922 -0.0095292476035824  0.0027150649769333
  0.0079774747363725  0.0095941392835660 -0.0039692522932952
  0.0041538964525994 -0.0009293522406837  0.0002222660854472
 -0.0093236892814776  0.0175409084200546 -0.0085572489322971
  0.0026653911881051 -0.0131950588006496 -0.0004187492221389
 -0.0094033109834018  0.0053952635012622 -0.0057989665011614
 -0.0100028970518142  0.0129235782626839 -0.0039019926507822
  0.0097290707920864  0.0002579528115218 -0.0082111823597519
  0.0005392152948674  0.0084022520599099 -0.0044264481763198
  0.0067339067473618 -0.0096649000899656  0.0135845744061343
  0.0077920651951912  0.0021024067892909 -0.0056855002260774
  0.0039322342341777 -0.0041172708004872 -0.0089762965234041
 -0.0078152241144903 -0.0026362919391046  0.0026188203598804
  0.0028341746104016  0.0000672102521432  0.0053852774313179
 -0.0099100824930386 -0.0165257377257912 -0.0082617880559682
 -0.0196609997346394  0.0094097248656446 -0.0030654505909563
 -0.0085906642144892  0.0050540846967782 -0.0080435120475673
  0.0083322299962783 -0.0161357441743507  0.0054803541940202
 -0.0029257212374549  0.0068721214877316  0.0082176630610464
 -0.0000837765402396 -0.0157615258440115  0.0038432042505003
  0.0064981117038362  0.0078067155005897 -0.0006454050370100
 -0.0072259590003037  0.0015000381012822 -0.0032761620599643
  0.0115913690781763  0.0028335971045096  0.0015988945544897
  0.0081289294803783 -0.0074139281936913 -0.0110098233656121
  0.0152985213495883  0.0112610113573623 -0.0021465270308850
 -0.0059468470533539 -0.0074315532032334 -0.0035910294927782
 -0.0171000043728997 -0.0046822175840673 -0.0115276613673498
  0.0168552065521387 -0.0026630607758323  0.0063292809678152
 -0.0118052151475031  0.0107902416176383  0.0044437717056194
 -0.0082735290433995 -0.0052744791015568 -0.0025441212730874
 -0.0029456259743515  0.0057201383476463 -0.0145169490319758
  0.0038334311638646  0.0066153998366342 -0.0003755997638967
  0.0107587063244333  0.0029541339157075  0.0020751049468580
  0.0057566825061894 -0.0017805430581307  0.0081793680958355