Li P  S  Cl
 1.0000000000000000
    25.1819793006824639    0.0000000000000000    0.0000000000000015
    -0.0000000000000009   14.5388225279766061    0.0000000000000009
     0.0000000000000000    0.0000000000000000   37.2126966544236950
 Li  P   S   Cl 
 286  48 240  48
Selective dynamics
Cartesian
 -0.7080079052061458 -0.4813008242560708 12.9759976874526242   T   T   T
 23.5868013742070168  6.8471932808486375  7.1191268180379623   T   T   T
 19.0553142278445264  5.9145492277202232  7.6455828747688397   T   T   T
  4.0136085398006651 14.2799222499627341 18.7102762219862910   T   T   T
 12.8679741966646670 -4.6886353190229606 -1.1661874960487644   T   T   T
 18.3361059250708429 12.6351547261421011 -8.4830725650997785   T   T   T
  4.2437758261492471  4.5285368276485469  5.7552646335774531   T   T   T
 14.6841549314050059 13.2553343778341848  9.4322807358652714   T   T   T
 27.9554313439287583  2.3068344683667026 14.5001223217763560   T   T   T
  4.7430879517861380 10.2185662079747672 13.2060329636455975   T   T   T
  7.3168356918462587 10.0706055728895585  5.5356694835015601   T   T   T
 24.7959676363260328 12.2105258266069860  2.6369161393288509   T   T   T
  3.7822838164864669  4.9944581532091643  9.6071862750215029   T   T   T
 15.1601108883533549  9.6188020766911819  8.3878582428442297   T   T   T
 22.6335247131186001  6.7212619105205746 14.1167257599552673   T   T   T
  5.1650519555259962 18.0122528064983420 12.4143362240356900   T   T   T
 10.1361020400331210  2.9624885066261744  8.8929769874829301   T   T   T
 22.1034530188364755 13.5178875548848971  8.4361117583144392   T   T   T
  2.7042715960650181  2.5239291855899140  7.7614509009998685   T   T   T
 17.0825434855945346 12.3652554554327274  7.7720359809098412   T   T   T
 18.1013801191663468  4.1333616265870683 15.1837577554794620   T   T   T
  8.7561811230706788 10.8138968324063995 12.9694862017651378   T   T   T
 15.4144922516601497 -7.2912528892431681 -0.4455776235577185   T   T   T
 23.9447097408175722 16.6318883059144262 13.8026621322916352   T   T   T
  1.7644837121464878  5.8632205738373022  5.5702845604008413   T   T   T
 19.7865148177729289  9.1917150797406855  8.5410822135338194   T   T   T
 17.4553874938076667  6.5722586189452734 19.0364254197564406   T   T   T
  5.4435138608091291 13.7013986618872678 12.5580769057690969   T   T   T
 10.7943696906846576 -1.9334165479306977 -3.2406480901898709   T   T   T
 34.6569017273072433 10.2546655803093074  1.8057374838406319   T   T   T
  9.1402370309206997  5.3730156654488379 14.6247924859183023   T   T   T
 16.9979121078556652 13.4523649129274077  2.9250857187692478   T   T   T
 20.2875062872158587  4.9784705339281903 15.9734607734436462   T   T   T
  5.8125234895853746 21.2488674631654177 12.3288665407934772   T   T   T
 12.1569832472211665  3.4046281480331579  2.5276305669720900   T   T   T
 26.4374673518481451 16.1204536398064597 -0.3953597764318583   T   T   T
 26.2631977126901184 16.5720896230774493 11.5657588452743632   T   T   T
 14.9535858685545744  9.5129661872444515 15.3330849831384306   T   T   T
 21.2405884245036169 10.7403332802906384 -3.6969829347214453   T   T   T
  1.8704144558790199 -2.8618452205591898  0.3454058165820137   T   T   T
 10.6266702072433290 14.3672849340570394  8.9315796372008638   T   T   T
 17.7519874486676237 10.2356291614255888 13.0523313892437454   T   T   T
 29.5683091235912769 -3.1465878594247738  6.6096642805651999   T   T   T
 14.9443261883462064  8.3165605606771607 11.4057819122889068   T   T   T
 20.8149368585335850 -0.6361087919410503  1.7809167247802196   T   T   T
  2.4853076359671702 12.9068769011659867 -2.3118757704451030   T   T   T
  0.9351062616721336 10.7285354006902551 13.0729606681059725   T   T   T
 21.1614477526730091  6.7291437402690528  9.2845055014636699   T   T   T
 -6.0673784110064544  7.0829354452082320 13.8935946036147318   T   T   T
 22.4654446823640299  7.9833425401346680 21.9926430859636284   T   T   T
  8.2700512715977315  3.0537898812054811  6.1755873150845320   T   T   T
  9.9612649411693255  5.1554617665638665  3.2343858224082300   T   T   T
 13.0335324951454492 -1.7515474247015086 14.1477857793800350   T   T   T
 20.9339763090088020  2.9326576776804028 14.5311040865074244   T   T   T
  8.8553078182716085 -0.7887497645460929 13.6496669481023556   T   T   T
 12.1673803578439230  6.7630634428699024 11.0584287194334898   T   T   T
 16.3320299216087008  2.7475445954890936 -1.0449883815363665   T   T   T
  7.1272561443150817  6.6917425149381904  0.9187911508126472   T   T   T
 10.7370795704687438  8.1826860150504750  6.5586406058334221   T   T   T
 21.3735116458527052  9.3897137545437381  5.5274971186297392   T   T   T
  0.5669375471550135 15.8701149627182190 16.4835245502176662   T   T   T
  9.1190784816944390 10.1506885076285194  8.5681512143152059   T   T   T
 14.1213589784986375 12.9808661381718409  5.4122820654663739   T   T   T
  1.5420569088049987  3.4438011886337780  2.3744390373061544   T   T   T
 10.7143641516310595 12.8855527788568018  2.3899083979536879   T   T   T
 22.3682346571528541  5.5051348809509744  2.8147943988892217   T   T   T
 27.4701807754919685 -0.7545740124513205 14.3457564269344093   T   T   T
 11.2602279124712190 11.9656331782273639 22.4521132719281624   T   T   T
 13.0103491053582800 -4.2381764249944531  2.4993481194573293   T   T   T
  3.6102779358897648 14.1180374403726319  8.4561969138238009   T   T   T
  7.0571691701302530 -1.0938082652168948  7.1593276324802826   T   T   T
 17.5990049099759354  9.8679858937788900 -0.1716162314886577   T   T   T
  1.2151343881294623 14.1575032154323885  6.0886162403741890   T   T   T
  6.7464663185955001  2.6225624221110557  8.8113362575980929   T   T   T
 12.2627578260967791  9.6113830258987427 13.7549953572040060   T   T   T
  6.9837046415076953  3.1096462526738620 15.2425128464703263   T   T   T
 16.0512178558965459 10.5558679393078698  5.2705400591516751   T   T   T
 14.1779154711176698  2.6069399467944492  6.1204072730988921   T   T   T
  2.3204424467311187  7.1735798577524426 13.4834714080510807   T   T   T
 16.3502588720654281  6.3320430961775642  8.7930641630657167   T   T   T
 19.0140215942586295 11.9492734814560500 10.8746795093618136   T   T   T
  3.4973353584963842  3.9102944219388123 17.1091110381928786   T   T   T
  6.4326666846331761  8.4506895963679405  8.4245299136953946   T   T   T
 24.1932294965473993  7.2526110423518872  2.8075449686964862   T   T   T
  2.5606900506094692 21.8495799085909645  7.9305268671374805   T   T   T
 17.1750637981953744  2.7073952180695260  8.2520991029484829   T   T   T
 20.0261464652653203 12.8135583918553735 15.4837748322854161   T   T   T
  6.3358611563304343  3.1457300194555118 19.8646378659704084   T   T   T
  3.4936003346761950  6.3055570516051542  1.6374431240047411   T   T   T
 29.7854482785283174  2.7240575351438405  2.7207242684512774   T   T   T
  0.4798809179257986 13.6557875587660895  8.8292668919725674   T   T   T
 13.9598027917489915  3.7573064332133739  8.9451711912758167   T   T   T
 24.5359601452119520 12.1494898623845913 16.6560184231909219   T   T   T
  6.8221307750995432  7.0755185617921716 15.2930947555574104   T   T   T
  9.4227942934775442 14.9233545730451418  5.2797983047119912   T   T   T
 25.6563351915708822  4.1261615188455698  9.1415116933003606   T   T   T
  6.3190365755399567 10.9582012329814802 10.8327817158514712   T   T   T
 14.0190041344356384  6.2839177829944122  7.4013352385077127   T   T   T
 16.3498876291450408 13.7705297005980398 15.1006316179619855   T   T   T
  4.6337291850582796  4.9685007427993160 15.0703172211160279   T   T   T
 16.1661374305094334  8.0994377049317237  2.3991482500571859   T   T   T
 19.1205499243632353  1.8677952506394149  3.3674089865197452   T   T   T
  2.0472583256902341 10.8381244493359006  8.8408218341628473   T   T   T
 16.4723252282760733  4.9703410436887951  5.5702550587063477   T   T   T
 19.9401490774260424 13.6758148823746062  6.7620400986153788   T   T   T
 -0.0554337794669829  8.5982722610821156 17.8087352879196850   T   T   T
  7.3411017678169532  5.7363773120124693 -3.7392932991834664   T   T   T
 13.4077859393099921  5.7954059873795307  3.5102127414412512   T   T   T
 21.5784589504334754 21.1841512618968153  5.4959449958990474   T   T   T
  7.8755770984581233  7.2443743608076376  4.6590254709662409   T   T   T
 10.2843868777962388 11.7286759709689470 17.3196339765559983   T   T   T
 18.6464639243820010 14.3868796661761635 12.6846854653515511   T   T   T
  9.7458736536229686 13.9880035236605629  0.3266223247674436   T   T   T
  8.9749796377261521  1.2730781266863889 -3.4899679176906875   T   T   T
 20.7634918981811900  2.3736195642078228  5.6515104047286737   T   T   T
 12.4114510280744437  5.6158509579358453 13.7533647726303023   T   T   T
 21.2376275020382863  4.9443090156562146 24.6230188534120025   T   T   T
 26.6869504029761728 11.7066728052904558 18.8061360872225691   T   T   T
 12.5970890446785138 -1.2392499732079527  0.2333545463092624   T   T   T
 19.3813702579908629  9.2442634477582821  2.9224412079941549   T   T   T
 23.9129990937732977  1.1745818092352407  6.5184788306092800   T   T   T
 12.0316189672486757  0.4017124054169793 15.6861848385414113   T   T   T
  4.3366919892066065  8.3007373370675985 17.0658937534396813   T   T   T
 12.4024970459155455  3.1489286759700894 -5.6871069583169982   T   T   T
 23.1528283523782896  9.3125059187424988  8.4122125618754797   T   T   T
 21.7193415317707874 -0.3538264054536280  5.2384872134723937   T   T   T
 14.5044970501813655  1.9014726625949532 14.9902141938081002   T   T   T
 12.3559952832084345 -0.3675759847310741 11.4506699211665026   T   T   T
 -4.2237550883767723  4.6433732399120844 11.2174161803563361   T   T   T
  7.6484322608275042  0.0754880029035347  9.6699971539148368   T   T   T
 22.6561514054704602 10.0130357878427638  3.2881630039374050   T   T   T
 21.6506258906889073 12.0108134882945166 12.6213052216972610   T   T   T
  9.1609484238173486  6.6657794334981224  8.1752556729257524   T   T   T
  7.3742387230387507  7.0864209026278973 21.9095071103715284   T   T   T
 -3.6238810985596150  8.3103850430976145 18.3918348729735257   T   T   T
  3.9795152415314985 12.3441841941020876  3.7880250927630619   T   T   T
 14.7328485783387304  1.8504373728868670  2.3211355025261300   T   T   T
 22.3525115078578906  2.4988459198147814  8.8622903843472880   T   T   T
  7.8689557098185112  4.8455414174480520 11.6564228150605302   T   T   T
 11.0968480787831130  2.3370374364469519 13.6697513580922436   T   T   T
 23.3101671924374010  9.5123342254174119 13.9289183146438358   T   T   T
 -1.6028912967847548 -1.8256570455742360 -0.3954599045916949   T   T   T
 11.8763239098751789  8.1989241748064643 -4.0356875148181528   T   T   T
 17.0745205220655940  4.2851851309480669 23.6875206448627189   T   T   T
 21.5271900828612779  9.2493732248946543 29.3707443385181790   T   T   T
  4.4732827458381079  2.0128798439092614 22.2965029663133194   T   T   T
 16.7778255433538561 10.8513138267435032 22.3919132740321238   T   T   T
 15.7663526230792588  1.4614412304172422 30.0698664288144890   T   T   T
  2.6326793875907897 14.5162341993556048 27.9834353228647892   T   T   T
  9.9493533022136127  4.4449951674035111 27.5749321925545630   T   T   T
 25.2735493461978322  8.6282405581063024 29.6886827364153234   T   T   T
 -2.4853247075031231  1.6388052574172767 31.5330699768079761   T   T   T
 18.3261517860922147  4.3170645597892294 34.8000352566332367   T   T   T
 20.2082557426700582  4.2152208674221416 36.6681477488861987   T   T   T
  0.8228089829619180 17.3656497362929514 22.0125668649021549   T   T   T
 12.0651173820318203  0.1660799702228543 21.2081525436016847   T   T   T
 23.7647387711879041  9.2285323438355142 32.4491337341280399   T   T   T
  2.3570354749134141  0.4464009497254832 23.5638572264798754   T   T   T
 12.9509974712357376 11.5919071535916096 24.5001724911950305   T   T   T
 25.9906697049748878  2.7021650603079710 30.9533329383080584   T   T   T
  4.0591238115368276  2.8252517440857359 25.7294515771791055   T   T   T
  9.6777424359750004  1.3573449143100513 30.9349312953550317   T   T   T
 29.9029167219425425  9.4404211352060017 34.6714557899578182   T   T   T
  7.5556491271379986 -4.3507710809498654 19.8885386700835731   T   T   T
 13.9412400228356734  8.5066462732825840 25.1419628462762255   T   T   T
 21.0449231134080357  3.1207334397912936 33.5102728880296468   T   T   T
  6.9437583426550624 13.3029197775333827 36.1805078497272490   T   T   T
  9.6360940567873854  5.2151391340153124 30.4590686080125224   T   T   T
 25.5675197279762365 11.5056826804348589 29.0303139999276318   T   T   T
  1.0037132598115506 -2.7748164249643392 24.0365851537316466   T   T   T
 21.4622051447788778 16.1220717186360751 23.6624736247251484   T   T   T
 24.3864079044283280  1.6966962398532499 28.6581181463234635   T   T   T
  5.2114301969532439 10.3058920044047291 37.7056479849933055   T   T   T
  4.3204590454524494  2.0570825263884616 33.8134260253722942   T   T   T
 19.6764161588941846 12.3216114125254030 19.9058081363234471   T   T   T
  1.6347541574028075  4.1117950162695411 25.3554801823883444   T   T   T
 15.5534479174786249  8.9972231865785197 22.8965460401776646   T   T   T
 20.2483043892354502  7.6710412203342591 37.8055036613179709   T   T   T
 -1.0079603963461485  8.6855615405324258 36.7898891243554687   T   T   T
  7.2812893763934534  4.3712043096943187 23.7769325759943086   T   T   T
 21.2193701682523113 -1.7530716920094731 25.6671399394598687   T   T   T
 23.1829151133199893  5.5966932073803344 36.0058271851727056   T   T   T
  7.6268570874157078  2.4734237367678769 39.7694081431843927   T   T   T
 16.5326048031795132  5.1405230194276541 27.6607053143322617   T   T   T
  6.3060427379463855  0.3776675897727285 28.1660652843545236   T   T   T
  8.3178103706252422  7.7103213733742653 25.6351185075342762   T   T   T
 19.7968430358108414 13.4381462869751118 23.6417861970034551   T   T   T
 24.4788075748522509 -0.0428943655366697 34.5965342634833348   T   T   T
 18.4745070401696125 -12.9600725400170802 33.4656128966126687   T   T   T
 15.0960664244543938  5.4886786355716186 22.2892567244568731   T   T   T
  4.4416255740913435 16.4652068021968141 29.4805152719216608   T   T   T
  7.7792508460113909 -2.0600235109542830 20.9880384123933403   T   T   T
 14.1173202985145103 12.1093576683074886 17.8011416693397315   T   T   T
  1.5053399146093351  6.7697409060862492 33.8735290086606824   T   T   T
 18.1319544638266308  6.3758705208165409 36.7204975727514551   T   T   T
 19.3953583101977074  6.0251612851282861 27.7066672833001171   T   T   T
  4.9944394777044296  8.8721290962660930 23.4510482629817680   T   T   T
 11.2436299931874313  3.4934967815404292 17.2597914714063698   T   T   T
 16.4019217574339962 14.4589306447283654 18.3894481449904283   T   T   T
  1.4380679560371035 10.4850272700281941 42.9384953280796964   T   T   T
  8.8685925311746185 -3.0232613860901423 36.5822253788709446   T   T   T
 18.5154190942222634  2.9795588045777390 20.1699189067372409   T   T   T
  1.8838198149786567  7.1450975646421773 24.2327710326571548   T   T   T
  4.3370355769173274 11.0910348789366395 17.3811326751681747   T   T   T
 15.5493589161066161  6.6844588252999140 13.6965592453443215   T   T   T
  0.7464421543938107 10.4116491031118947 33.8800389337465617   T   T   T
 18.8695651434539791  7.1885533945715254 31.4383741249296413   T   T   T
 22.9562137779421036 11.2918501839781271 27.6742991514995218   T   T   T
  6.5331087962335497 -0.7500187020492178 31.0954586583860575   T   T   T
  4.6516196380494952 11.2781370969059083 21.5272546546220092   T   T   T
 23.0851539193765696 17.7265168178909391 17.5996026922522013   T   T   T
 18.9611154031575282  6.5933950525972183 39.9172521783257110   T   T   T
 13.4401016922001215  4.9803456957076122 37.0398324550447313   T   T   T
 15.9352999858191691  4.7625166936492684 30.0115136623220984   T   T   T
  4.1687859854391176 11.8772737195242861 29.2975670225612816   T   T   T
 12.8545808563242492 11.6245850608149262 28.6804961552087043   T   T   T
 23.2353323469965538  5.6769770381978688 29.3787542913787547   T   T   T
  3.3562920095534690 11.0587731461929124 25.8068848910534356   T   T   T
 10.5492612341725138  4.7343512368452521 24.0124266215836570   T   T   T
 20.6107655503487095  6.9601517151113343 34.0936785729323333   T   T   T
  2.5928761920889940  8.5030909025677950 36.5555302537359097   T   T   T
  3.8820522571031755 13.8315928009985569 31.7208085495133574   T   T   T
  9.7742362281450816  6.9217327405663474 19.1800071033110555   T   T   T
 18.7635417799569630  3.2941927515877478 11.9171296402825160   T   T   T
 15.5011116575244365 13.3573812721258385 28.5672262333512244   T   T   T
  7.7945608098301253  9.8407416363580040 33.9816420995073969   T   T   T
  8.7503030268380542  9.8322676228531236 28.6841819350530578   T   T   T
 21.6111613673044971  2.4950545512072093 29.0074082446084489   T   T   T
  0.1459371810176440  5.3179622950664740 15.2388601684972755   T   T   T
 23.6376916326403510 -1.4491072015582032 21.8424401831268362   T   T   T
 11.8524442747764098  1.3901130109495987 35.0704124933899095   T   T   T
 12.7972163521391789 -3.5379790991682198 44.4246574853279128   T   T   T
 13.5011830751107507 10.1108977374020341 30.3732533502971727   T   T   T
 15.7030346930012357  7.9444576540514502 28.5476568432032316   T   T   T
 10.8477078953037189  7.6807441988842760 22.3518485196380823   T   T   T
 15.4920284382446329 13.0619975917110338 23.7872835064089294   T   T   T
 18.3159831243947266 23.0519492527399024 28.3597429394840859   T   T   T
  6.0147081968018918 -2.3453314468711941 33.8746072357969155   T   T   T
 15.5041389377320247 11.5087264892879055 26.4844324389517283   T   T   T
 21.7229790671349363 -3.2695091522139044 22.7484311499319105   T   T   T
  8.8526614800236629 18.8324301088646422 20.9379258782399695   T   T   T
 15.0007376382905999  1.3183867105639235 12.3105778202692608   T   T   T
 12.9069225169328323 18.0726979023417869 21.7775396265280747   T   T   T
 13.5434025334670647  4.4956065328514008 24.6411094365941956   T   T   T
 10.9612382748054262  7.9416851828153359 28.7377217842773938   T   T   T
 24.1773165688873135  4.6001302051654536 32.4322334855625201   T   T   T
  3.1195576444242468 19.5862213825216465 21.7965648609762788   T   T   T
 14.0505835888400288  3.9800545305825996 18.8334726149542178   T   T   T
 18.5124302756494146 11.9795863985145807 33.6538167032442459   T   T   T
  7.8055089721467148 -1.6359062334861409 26.7996524322759164   T   T   T
  5.6779412346561990  5.0972706264085632 28.2646254144521585   T   T   T
 18.4914983309908116  1.4032643021896709 28.8225517095734922   T   T   T
 23.8361772422095335  6.4206240244415875 23.8658095260144947   T   T   T
  8.0879112330802965  1.4987939336433227 23.9703766748501863   T   T   T
 15.9989909572682283  9.0768373012553951 33.3078936511641643   T   T   T
 24.6622026804506262  7.8818146754294940 48.1408825397691515   T   T   T
  3.4191921398267571  7.4422981791249629 28.1692488053297261   T   T   T
  9.1491931663588897 16.3499427110792759 28.6512476745228817   T   T   T
 22.4484932486520812  6.9358465931592059 26.2381737333290523   T   T   T
  1.6870151094653423  9.1142034758860611 20.5946987782128588   T   T   T
 10.6132670166819185  6.3067619237427772 36.6723157235580430   T   T   T
 28.7018307113315956  8.9014950977510168 39.7966881885127606   T   T   T
 -1.1853336664460998  0.2174003842770760 24.6610861706442925   T   T   T
 10.6311710384908995 12.4655408770221321 28.8110872119737280   T   T   T
 19.3266902397813496  7.0051874521573696 22.4363833537983446   T   T   T
 11.2511157370635857 14.1265668878470123 24.5429431648599703   T   T   T
 22.5490536237945030 12.0924480157393539 30.6706914676964431   T   T   T
  5.1094119796322568  6.4069882816633772 36.0537827288559782   T   T   T
  3.6496626878734379  4.9367949595242813 30.6854855741846038   T   T   T
 15.3166463277293889 -0.6476384159793555 32.6945170290524629   T   T   T
 19.5906261143546061  9.1239253293115148 24.6904233773276864   T   T   T
 17.2259340198010200 16.3902342994762904 22.9243296284744709   T   T   T
 16.2517222164993420  5.8493207794573783 32.9576473858742247   T   T   T
  4.6708009068651641  3.4529122158354508 37.0800888353659417   T   T   T
  6.5035544197186850  7.8913822949574515 29.1764118148479312   T   T   T
 10.6496808008228090 -3.2579163571027658 31.5568584568546733   T   T   T
 26.0175501749034730  9.7809231529333616 26.3792836254212482   T   T   T
  7.1538594421208028 -3.2936666875145160 15.1277102243364272   T   T   T
 16.2605020157221922 12.0097659661064675 36.1677954258802856   T   T   T
  4.4005510204146843  0.2636752414853852 37.5353673038390951   T   T   T
  4.4719491675102683  7.9216380219952764 31.8461776889018786   T   T   T
 18.3093872124083070 13.6490647283746043 31.6203482150439115   T   T   T
 15.0075365165354171  1.5552865879080282 25.1083348013188186   T   T   T
  7.5390415851217609 11.6993543060156284 23.8835758749970744   T   T   T
 12.2484500207856222  1.9522403890524593 28.2729224514907642   T   T   T
 19.4536907811987376 14.6260289100571192 36.1604417265692888   T   T   T
 -4.3688307547095491 -3.8908319968563667  0.9804728718229493   T   T   T
 12.4202262497840810  7.5467412836525147  1.2762337924786222   T   T   T
 16.9130075274915157  0.5126544856709443  5.9594966244698773   T   T   T
  4.4869806230781260  8.7369392646572983  5.9361535677071400   T   T   T
  8.4752372732990846  1.6906744519844819 11.9063124547068018   T   T   T
 21.3102480612060106  8.4387590596740623 11.6837487130470326   T   T   T
 23.4739804112314445 11.7905374774861222  5.9306704644878163   T   T   T
 11.3053550692746345  4.8366850944397681  6.2122514686319761   T   T   T
 15.2797142147869778 11.6302300722194012 11.7859944950086106   T   T   T
  2.2103031365339434  4.9725497195742498 12.0531585705812088   T   T   T
  6.8853168230669315 13.9147997086541508  2.1098862706628356   T   T   T
 15.0180351133760546  0.9862806799742487 -0.3827934070128176   T   T   T
  4.6197284191670347  1.0286415854168707  5.6758518522105064   T   T   T
 17.2902891785156996  7.9756535769988952  6.1144904436884842   T   T   T
 21.7150732190926909  1.1936108051535896 11.8883945357795984   T   T   T
  8.7558821865352829  8.4029348226360732 11.8723239398143345   T   T   T
 13.1236733370708478  1.9768731039397971  0.0650555937595672   T   T   T
  0.9733742070952165  6.5627189878871510  0.5972826068085639   T   T   T
 23.7323883567155818  4.3712532334416290  5.7108610709027525   T   T   T
 10.4417050087754113 12.0850807581475550  6.2022201527460226   T   T   T
 15.2138343980755284  4.5717147064701056 12.0879706303209673   T   T   T
  2.5281891176514550 12.2968435764025443 11.5696742819361482   T   T   T
  7.2161083022807260  4.1942469265674163 -0.6477944132408918   T   T   T
 20.7371551655649071 11.8221754962924699 -0.8737569342728022   T   T   T
  7.3366066338422904  5.2636068339561763 17.6877990372572498   T   T   T
 20.1580985637018628  0.8008110122516170 17.8398390785695575   T   T   T
 25.4905324332341081  6.6495170997923116 31.2146992565048471   T   T   T
 12.6725995812817711 13.8704715162964831 30.8229688999898315   T   T   T
 17.1983492796090864  6.9213356054680757 25.4280224179285312   T   T   T
  5.1062583195890570 13.5370683216189676 24.8020307523248036   T   T   T
  6.5981290205498651 10.3717429118960034 31.5122340483333048   T   T   T
 19.2136469384444268  3.5434923480233214 31.0566856283052886   T   T   T
 23.5271788499774956  9.9778246988411219 25.2869586344169086   T   T   T
 11.0342586491513686  2.5842141344550571 25.4469924816831394   T   T   T
 12.1190355063929402 10.0871707996305773 19.3853341245480841   T   T   T
  0.9104166769795479  4.0534132339202804 19.0117664061842646   T   T   T
 13.2250935137769368  6.7111339978614435 30.9753094757178289   T   T   T
 25.7322116335225317 13.8427733039671210 31.9431548953775497   T   T   T
  5.1059876359840350  6.2611051414977874 25.0621064032931997   T   T   T
 17.6348934526560868 -0.2690158251356329 25.5928627625360079   T   T   T
 15.8412570193638160 10.3127523612626497 19.4743946240545256   T   T   T
  6.8855671821333821 -2.2446843225829896 18.0746326253503575   T   T   T
  6.6446061584164537  2.9860803067809099 31.1387836021332376   T   T   T
 19.5822808048881640 10.6177312690443664 31.2504313975536405   T   T   T
 23.6510606350315520  3.5087354705906031 25.9832295725546132   T   T   T
 10.7972665881495065 10.0274556143495417 25.7688931154123111   T   T   T
 13.3257721341483837  0.9991889545638560 18.2765489851204102   T   T   T
 -1.7026442527263155 10.1898878476935444 19.6545457252845921   T   T   T
  4.6210069839681749  1.3378584028151719  7.9440684856306625   T   T   T
 17.6346698313861694  8.2055286029512580  8.0494155857578384   T   T   T
 22.0194020203749332  1.0326839606382292 14.0046629063191066   T   T   T
  9.6088627958865658  6.5242643694869331 11.3436067463762882   T   T   T
 11.6039460434099677  0.9000362811485496  1.2160935774608466   T   T   T
  0.9741007365278561  8.3422399534255085  1.7574895085866946   T   T   T
 22.7428835872651582  2.9215810369715158 11.4083340631341628   T   T   T
  9.9303575608544676  9.8911443273888082 11.2241122795567119   T   T   T
 13.0024804305153943 -3.8304329837675564 16.2002667509488880   T   T   T
  0.5101638786587244  8.2595474017628021 13.1248113497141485   T   T   T
  5.6961986637003701  2.7498572350946136  4.9362239135660646   T   T   T
 18.1510624624852532  9.4854348426257786  5.1033871377992899   T   T   T
 22.3542634855555065  6.6396741488029800 11.5902372157618103   T   T   T
  9.1831406297060365 14.4351149304842536 11.1551623122227479   T   T   T
 14.1004399923533708  0.9139462891240999 20.1170670051880727   T   T   T
 -0.3103578445970264 11.7247390452299101 20.0843916759455823   T   T   T
  5.3036640095949696  6.8868816136322009  5.4828822931508618   T   T   T
 18.2745180211683973 13.7205300006739890  5.0409897691209666   T   T   T
  6.4258289103722781  1.6477109742819922 11.3264942123719816   T   T   T
 19.4640384571184484  8.4986814219105007 10.8142577906128619   T   T   T
 19.6085228906353315  0.1427021361509908 19.8410589503156203   T   T   T
 11.9697713593809496  4.1571022095469017 19.6883881839921102   T   T   T
 15.1340702723036564  0.3694502342122075  4.7696737488803604   T   T   T
  2.5390628955044887  8.6097847617390073  5.3208047875606503   T   T   T
  2.4106365315762610  4.9854199513846984  7.6703079255553401   T   T   T
 15.0277325870341691 11.5675658958897678  7.1097176085593432   T   T   T
 19.6066352141495877  4.4619249586466632 13.6255853898944927   T   T   T
  6.4173585752704740 11.7862138041374713 13.2020083723568167   T   T   T
 11.6199563316726646  5.3551073604635473  1.5006878224159017   T   T   T
 19.4914472358927213 11.5264598711772379  2.3880413662385918   T   T   T
 23.5946534729064226  4.3555626566354055  7.7010749038502349   T   T   T
 10.8152884263679514 11.8131844061271671  8.3140455705221825   T   T   T
 15.2410390628141634  4.2955331786580553 14.2538411705043782   T   T   T
  2.7773870692227347 11.9479913739901313 13.6442071275304482   T   T   T
  6.1936929425871670  4.4906836133731511  1.3752166736827509   T   T   T
 21.7397933672241592  7.7052623734069341  3.3265493606515255   T   T   T
  3.2347513909771588 14.1733286472078852 11.2524929655981136   T   T   T
 16.1513984834359228  6.2167409034925978 11.5058552387778175   T   T   T
 18.0036170823905870 13.0517867711162907 16.6805543909516771   T   T   T
  4.3162626042723025  1.7538613328681640 19.6658271772301738   T   T   T
 11.6180670168234688 13.5845777564889794  5.4853464605000841   T   T   T
 24.5580017435462885  6.1341363167575711  5.0846510480357532   T   T   T
  3.1512137339968338  3.1688092898152207 11.1570943041509700   T   T   T
 16.2488391059222970 10.0378725068526578 10.7059594519291981   T   T   T
 16.9464606764053229  3.7078027471668134 18.0104472595475293   T   T   T
  7.6473491365011892  3.2344715311230958 17.9477392607573094   T   T   T
 11.8145299254427432  3.0834966853696821  5.3791295460571726   T   T   T
 24.4454216961297703 10.3864040886739026  4.6346611726213789   T   T   T
  0.2396506154695072  4.6873380183141915 11.6858337200468547   T   T   T
 13.1031487471287171 11.5614923613367679 11.2931055810961603   T   T   T
 17.4875728802528911  5.3819337244534804 16.9556662606693038   T   T   T
 -1.0503533209594538  8.3124112635534999 20.2094516277872920   T   T   T
  9.3141629910416128  5.3338182889552348  5.8583396328881205   T   T   T
 21.5821807212663401 11.6931012896482684  5.3174006167236625   T   T   T
  0.6676169960263287  1.2392846046168178 13.8953311386934288   T   T   T
 13.3341121401133300  7.7214811179573104 13.4312109898117651   T   T   T
 14.5350832716130327 -0.7904258251317533 -1.2823075364749941   T   T   T
  4.8927512535050717  7.9919692666341362  0.5700898916995698   T   T   T
  8.6190944413276824  1.3112361082961124  7.6658818501967056   T   T   T
 21.5968641350120336  8.1133846340698206  7.3726544485365935   T   T   T
 22.9327362680919009 -3.5125922304527277  1.4152365605429784   T   T   T
 13.0334723456119637  7.2725618776185303 -0.8201305482039292   T   T   T
 16.7150485054678093  0.5169506304128645  7.9863663335223105   T   T   T
  4.2765818331162304  9.3301702615018520  7.9672781100949033   T   T   T
  8.8723553412515628  1.4995512430590632 14.0126012655541068   T   T   T
 20.8448795117138701  8.6623060373926606 13.6485905232924463   T   T   T
 22.6277049262038119 10.0111047452272324 11.2062074831618705   T   T   T
  9.6534581034737705  3.1736491303816905 11.3753476555505095   T   T   T
  2.5818825854275365  9.4793752202204224 18.0501188609944130   T   T   T
 -7.5335077440871716  0.7041086573376204 20.2149287788723022   T   T   T
  5.3109471987572014 10.1717136530027972  4.6950966241112830   T   T   T
 17.8767394324829532  2.2030285905222202  5.5495498079554935   T   T   T