Li P  S  Cl
 1.0000000000000000
    20.5609999999999999    0.0000000000000000    0.0000000000000013
     0.0000000000000033   20.5609999999999999    0.0000000000000013
     0.0000000000000000    0.0000000000000000   20.5609999999999999
 Li  P   S   Cl 
 191  32 160  32
Selective dynamics
Cartesian
  0.1910758137965290  3.2762574290152653  2.9816260596234723   T   T   T
  2.4704150538857630  8.2799222759390236  9.9207439548267455   T   T   T
  7.5703634923762184  5.3841661496348152  2.7205558525252003   T   T   T
 13.6571374011591153 -5.1389398265832309  8.1882224657438893   T   T   T
  1.7267423152825088  5.3968891991925618  6.5860341968933120   T   T   T
  2.2502658360463101  1.3376071037222066  4.5680399302036685   T   T   T
  7.4478251936870405  2.3064873890636228  5.0606521264189679   T   T   T
  8.0183516310033713 10.0538965520212926  2.5443821297897684   T   T   T
  5.3641834005529043  2.6064807757383552  8.2261960147436639   T   T   T
  8.4552066216568136  7.9817926123445355  0.0757156512436971   T   T   T
 10.1069605876355233  2.6514665448106216  7.2251565940200013   T   T   T
  2.7967010482928938  4.2786983746955949 10.7804092369207201   T   T   T
  5.5575665684079993  7.3292132557035572  1.7232195795896725   T   T   T
  7.4212087896779728  0.1466321718115755  6.9293603573620448   T   T   T
  2.5547618665781187  4.9850773237267614  2.7051994499973375   T   T   T
  4.1438019475775469  5.9908154321661344  7.6514694462180683   T   T   T
  7.4767539836360468  5.0191937444472616  7.6890667587684991   T   T   T
 10.4361085390221628  7.2423276651844990  2.8447315101983843   T   T   T
  0.4106315524405564  8.1962978850998915  7.9018796312298027   T   T   T
  3.1659009801144222  2.6906806654673465  0.2639200758062835   T   T   T
  0.7546337524868681  0.6973254743247264  2.2535350001328354   T   T   T
  2.8427278569990193  8.4646244397509811  5.0685853444889588   T   T   T
  8.3080155058567513  0.8821579370428609  9.2815712266405122   T   T   T
  6.8771618844173554  8.0081603255359575  5.0780349023489153   T   T   T
  0.5444781825743835  2.8703140458620444 12.7737123736155223   T   T   T
  1.8990138354770483  7.2274466726041622 15.9028863969207528   T   T   T
 10.3824442953403402  8.4468322803734370 12.8332137935138704   T   T   T
  5.0096826463831698  2.6940198061574576 18.2043128522311832   T   T   T
  4.7945360209342818  7.0320601008353645 18.2012559678998045   T   T   T
  3.1479132337333140  0.4160873619648373 12.1169036775044816   T   T   T
  9.9880172249836860  2.5994460725749060 17.4910426535596741   T   T   T
  9.0152809402323566  8.0469491768028210 10.8042958971540521   T   T   T
  7.4614381168530262  1.7309729274007397 15.5683427451371674   T   T   T
  8.1480028007483352  6.0088702166057102 13.1398048854665035   T   T   T
  3.3505841001695114  2.1030006710647737 15.0675342789615243   T   T   T
  2.7143641883282341  5.6842457195366984 19.1051257706063247   T   T   T
  5.5166223183576788  7.4628273396745124 12.2881642661251735   T   T   T
  7.9844478309271008  1.1352075794714043 19.5093544716164367   T   T   T
  4.9778521103350091  3.4202929438011598 12.0655503039137066   T   T   T
  0.1169559841231504  7.9313217871966506 18.3648081790746325   T   T   T
  7.1841420119922024  3.8482225808712061 20.5234111194714792   T   T   T
  8.3512199463268697 10.4833198908229832 12.6011163161200805   T   T   T
  1.6565697813828584  8.2565410034759079 20.3901389194989875   T   T   T
 -2.7964357949979877  4.6312910477613300 18.6431758515558315   T   T   T
  2.3600663113076745  4.9056596734283566 13.7751953464910155   T   T   T
  3.4272503656673581  9.5920907894770924 17.2980987668523518   T   T   T
  7.5973798602435432  4.4027762776480426 16.2128719809533841   T   T   T
  7.2058478215454693  8.4355493467789877 15.2806167733703759   T   T   T
  0.3092803713052422 14.0311343759724227  2.9644565969601042   T   T   T
  2.8739488623050740 18.3624704827931460  9.6347028085923494   T   T   T
  7.6213141378724023 15.8342391127606135  2.3377474964303309   T   T   T
  5.8955826439790187 13.1416493661264937  9.2459695227936258   T   T   T
  3.6950252517725626 20.1376032007089982  7.2566764499909056   T   T   T
  1.9782377748300330 12.4120211802306244  0.0120068165617636   T   T   T
  7.8530571627121315 15.2763163807449516  7.5942287505460619   T   T   T
  6.4559417100320688 20.2461060532208599  2.8219818327850126   T   T   T
  7.6396816603832107 10.5845810127955264  8.0671734681879013   T   T   T
  6.4093689784015764 18.3595245461123220  0.8075077256182311   T   T   T
  2.6710523218999365 12.3598610243095344  4.5844388440242216   T   T   T
  2.2230030711470286 16.3947494639092390  5.3369424901465736   T   T   T
  8.1613191562121319 17.5058567687495668  4.8501740673829765   T   T   T
  9.5426559546282927 12.5717316929219560  6.3562629665680825   T   T   T
  4.2887691761960518 11.1944238710805166  2.5801395864665353   T   T   T
  0.1224381363157653 18.6813160197940746  7.9769238411135195   T   T   T
  5.9481342919797475 12.3162438385454323  5.7384171165321387   T   T   T
  9.6142168135930373 18.7361335840456782  1.5935765462920619   T   T   T
  3.0905188535997459 15.7012671192941742  8.3801444301935319   T   T   T
  1.3067450069053024 10.7926365064351284  2.2198421925918188   T   T   T
  4.1192127798442826 14.4403062768511745  2.1507708458301429   T   T   T
  5.2400237403098799 17.2604948228925856  8.1013598899997703   T   T   T
  8.7295373681302948 12.9896811826975931  9.8859400912178774   T   T   T
  4.6123605219242325 22.9657528040955334  3.3837895800846400   T   T   T
  2.4231049850187070 13.5420142166378774 15.1722525175997998   T   T   T
  3.1228239438540486 20.0676741302169326 16.8792211400993786   T   T   T
  8.5435500110746982 17.2186001680110365 15.2902972023196746   T   T   T
  8.2536194671808136 13.2826095732159661 16.1332689459963383   T   T   T
  3.0920921878798997 15.6694804826355760 19.2628358810046194   T   T   T
  0.4354913703785439 14.3572743133730949 13.2285040512167971   T   T   T
  6.1363020361176472 15.0339925609807850 18.4104279553034793   T   T   T
  7.6891239636788304 17.9031566384511791 10.7468900763891106   T   T   T
  9.9865308622569859 12.6890358628985922 20.6458290979626540   T   T   T
  6.3641126266415053 18.6906534696290869 15.1824380976101736   T   T   T
  3.5656204238978328 10.6264029786296739 13.6120518257432064   T   T   T
 -0.1621201299110741 18.1847094752265477 18.5030525209931653   T   T   T
  6.5195775420675330 16.4855184349459343 12.6435605608534178   T   T   T
  5.8926348699428441 11.6764446408730596 17.2861085968188775   T   T   T
  0.5774377759139278 11.2106250125589284 12.7997526629001239   T   T   T
  1.6987082267073841 19.5168434342624550 20.0342976402728183   T   T   T
  5.6409345292957616 12.9555557072772896 19.9945987048257656   T   T   T
 10.0485620806994138 18.0282608534280833 13.0333425523263085   T   T   T
  4.5520331188436307 17.9437644027947130 18.1249483065027626   T   T   T
  2.3783436299482439 12.3764122126642651 10.3441614886953985   T   T   T
  3.7519126128495510 15.1505226353628490 12.3717070805525093   T   T   T
  2.0655866634223199 16.6299871091164846 16.4062281012973123   T   T   T
  9.6043514772990601 11.5359578262726306 18.1043618526311221   T   T   T
  8.4258427192810821 20.5244434224233814 12.3071275745696393   T   T   T
 14.7151794619806395  2.2557175992691523  1.2309431990304840   T   T   T
 13.5107480288058284  5.2221357971848157  7.6666779535693195   T   T   T
 15.8330744327708910  7.3780454822673924  2.4310776469328879   T   T   T
 18.3543722981752744  2.6485868896831568  5.3507916522707113   T   T   T
 14.8687033907827395  7.2236548811022727  8.6249998739420448   T   T   T
 13.9401846887484187  1.2838163916101508  4.6309008470131214   T   T   T
 20.1809753672194674  2.0414247722183338  9.1279397664228998   T   T   T
 17.7702366707479378  7.3226243300909406  0.1533457332121700   T   T   T
 18.0629474244683870  4.8815271868781904  7.5093204459692284   T   T   T
 17.5602864857541014  5.2755444522395587  1.9810472901682186   T   T   T
 10.9570460488054060  2.6915289367962583  4.1421512573466561   T   T   T
 13.5029187195378899  8.0171200345772160  5.5127982519863528   T   T   T
 17.6133969729217732  9.9406317841839247  2.7037849215049161   T   T   T
 18.1211281204123864  0.4228860488727829  7.4322308833083346   T   T   T
 11.2741950711937733  1.9472669541459391  0.2386176384399955   T   T   T
 12.0937036303923069  8.2989289453628459  9.9270271191272474   T   T   T
 15.6247120184399204  2.8012195380002525  7.6518044384589023   T   T   T
 17.6019713166215190  6.9740887449779239  4.4217258664524524   T   T   T
 12.3966881811933671  4.5469786188917185  2.4649836802957439   T   T   T
 11.6030936275425969 -2.3696613112054337 -0.6185629679664663   T   T   T
 10.8111885663354617  6.6302519705345775  6.7284218145752268   T   T   T
 25.3374614939036782  9.1168145711711439  7.3754129733012732   T   T   T
 20.3910295698494544  7.1593636914594230  3.1326828562829196   T   T   T
 13.0299719570985157  4.7955755092511625 11.4330511729432356   T   T   T
 12.8291987294457748  9.3034547925060913 16.7177676045548118   T   T   T
 18.3601165853536195  5.4378858505500354 12.7588237458572387   T   T   T
 11.3517031189541893  0.2323805431693386 22.9211796067090532   T   T   T
 13.7378703722169373  7.1103282516381441 20.3144330431630564   T   T   T
 13.0405951145132271  0.4270501436981977 13.3054492635950155   T   T   T
 15.7687822743689416  2.0891442456787273 18.1009593080786679   T   T   T
 13.1685478008628980 10.1224007155095066  7.6601865603461192   T   T   T
 17.7127226543957974  0.5750702873516538 15.9440845362774279   T   T   T
 15.9800202280667154  7.0873859216043922 12.8139891369498731   T   T   T
 12.9933999575623549  3.6865007871434980 14.7450753832603496   T   T   T
 14.0419231246977567  5.7054392217760999 18.1531063560517723   T   T   T
 18.8329639664511674  7.3116080540474275 15.2011003527967894   T   T   T
 18.9607706040798831  3.3042068678463759 15.5806901644385523   T   T   T
 14.9894148653805619  2.9912921919235154 12.7068896989557079   T   T   T
 11.0383058818082258  5.8504293473888689 17.5390730334913911   T   T   T
 20.4424866686207096  1.8663717035708880 18.3291174272226627   T   T   T
 17.4441636709679067 10.0152408860501332 13.1214911109134658   T   T   T
 12.2477444967479148  9.8788624081033500 19.1529627650684873   T   T   T
 11.6866372190976691  1.8558267210778183 10.8887131137647195   T   T   T
 10.3607981294399583  3.0794227245003789 13.4902913200265040   T   T   T
 15.3547410985828474  8.3748923614570518 17.2569526231566925   T   T   T
 17.8989599694305141  1.2173490767263622 19.6740709206900632   T   T   T
 19.9788917149366405  8.0162559683367558 11.6195137895631078   T   T   T
 14.7976434424259029 12.5262644601919231  3.8299064508891059   T   T   T
 10.9043433960413729 16.7244343206918913  7.3011922820826873   T   T   T
 18.2490270537211501 16.4435357674601121  4.4306426168389121   T   T   T
 17.9408946992890321 12.4085146988114587  5.1423165131496775   T   T   T
 15.4216627894606670 18.4203839916292580  6.8700517450519509   T   T   T
 12.5574844947684827 14.4422522635576200  4.6085332047941279   T   T   T
 17.6059307082089127 15.0830170726605264  8.3344168021593532   T   T   T
 17.5924952716850633 20.0453650694636565  3.7336693382435242   T   T   T
 19.4211834143158519 14.3062185932373591  6.4050635576202826   T   T   T
 18.4816737709833205 18.7101761106210027  0.2475751103033878   T   T   T
 12.8590199716871609 11.1667529398647449  4.5533929915210098   T   T   T
 14.2329276001147349 17.5663101719933508  9.4821540892429415   T   T   T
 17.8185882963337079 15.8690034692637258  1.8960575074330568   T   T   T
 19.3089342648369104 12.4784770308968120  9.5153077267741430   T   T   T
 12.3736667030836749 11.1977221958312736  1.1825751767297719   T   T   T
 11.3845622238848350 18.2911576105481366  9.0525013119124331   T   T   T
 17.7596782581655326 10.4693257734144165  7.8293395930214995   T   T   T
 20.3539127132840569 18.2078538228818303  2.4075005083487109   T   T   T
 13.3644025241964250 18.3221196816489851  4.9841410897228320   T   T   T
 10.7843030751029545 13.0872352876229705  3.2031053744302538   T   T   T
 14.0276221989669825 14.6038410622348156  0.9452635722265776   T   T   T
 16.9118350828495352 23.8175336721855331  9.9171592223215246   T   T   T
 15.8400213679397783 12.5821305054678820  7.5042015977171852   T   T   T
 15.4726392372430350 18.4346092433868485  2.6666256436980325   T   T   T
 11.0131973270295589 13.7259496438071622 13.4917665178619330   T   T   T
 12.7931070596569043 17.5245061268950408 15.6415474459213915   T   T   T
 18.0345709146810975 18.3120178151186934 10.4950050793409133   T   T   T
 20.0186092922216616 13.9045717562288669 17.1623987472063249   T   T   T
  9.3235727957512822 14.7630458167338041 17.7717834641225281   T   T   T
 13.5028414011553775 10.5669485641031695 13.1131945819184370   T   T   T
 17.8137396587547840 12.9524703889396413 20.1753236462141210   T   T   T
 17.9177606470411774 15.2849709782737264 12.0447137938784490   T   T   T
 17.6981567478734689 15.6945797230223878 18.1540905422979506   T   T   T
 18.2873766996300695 17.6303410034868158 15.0941194383817159   T   T   T
 15.4464605033513127 12.8117891220646225 12.8453734417144592   T   T   T
 14.2542967262214155 17.6731611009334912 19.6357247922260783   T   T   T
 20.4097169131345701 17.4551864991171968 12.9536720390802103   T   T   T
 17.9593200305334797 13.0762260544382194 15.4549902117659688   T   T   T
 13.9376408004142576 12.3711743998667494 14.9908561737771322   T   T   T
 15.0677300357245034 19.5312916982624536 17.2505129480613029   T   T   T
 15.5717172928916963 13.6784360109346004 17.9782482323389274   T   T   T
 18.8725914145391904 20.0505351965645247 12.0786387628568246   T   T   T
 12.5396365030230008 19.9647404262225834 18.0766978227134594   T   T   T
 12.3404360472010932 12.6653631158757083 10.4551492105259864   T   T   T
 13.5642761287215432 15.3446671666379899 12.1897087155829364   T   T   T
 10.3105893142725336 17.6507583191900892 17.3611051551511579   T   T   T
 19.6811402352799050 11.3163724420701737 18.5257578556349358   T   T   T
 15.8426517856073072 18.6805506188884358 12.7769272534599896   T   T   T
 -0.1069222017525613 -0.0552184306350265  5.2267654223504625   T   T   T
  5.1022854477742126  0.0664410642649572  0.1597174816069773   T   T   T
 -0.2266274214208128  4.8956794638793886  0.0069349456756731   T   T   T
  5.0617858800211115  5.3074404282015264  5.0383840729120104   T   T   T
  0.1639450553252191 -0.0976346966222848 15.1336702942468104   T   T   T
  5.2834101802184996  0.0119550069170802 10.0617308160712504   T   T   T
  0.1515473554721479  5.0657561041688437 10.3091673092800544   T   T   T
  5.2184675168826340  5.6044753290021960 15.2659715632209281   T   T   T
 -0.2328541285472887 10.3153433600532303  5.0787380568736644   T   T   T
  5.0276691654257304 10.0964823704840700  0.0159528532242753   T   T   T
 -0.1320499510890521 15.7852383203222271 -0.0626333591642141   T   T   T
  5.3007682623188330 15.3220032677015876  5.0688407630175698   T   T   T
 -0.0187091362578082 10.5438809357875130 15.5452667480809783   T   T   T
  5.1617080286553243 10.4429663264186292 10.4803363838939259   T   T   T
  0.1774229917082983 15.1576726453082422 10.2128180835272513   T   T   T
  4.9856725207335941 15.5584933012050257 15.7615080832140642   T   T   T
 10.3068784034754959 -0.1327725244150862  5.1416840689273009   T   T   T
 15.1364582803682097 -0.1833191255098028 -0.1496062172530438   T   T   T
 10.1974102670178031  4.9344593298978587 -0.1266482041499256   T   T   T
 15.3357349464089356  4.8742313756472226  4.9546108042331776   T   T   T
 10.2314237200373928 -0.1401531901329160 15.5098202145579567   T   T   T
 15.3746846196137525  0.3917380611910766 10.2265380595395765   T   T   T
 10.3347615436204379  4.9523698047075042 10.2819186285171238   T   T   T
 15.6339183272795967  5.1171069058633973 15.5221122240175067   T   T   T
 10.2254823626764342  9.8124527099519252  5.3859368217470971   T   T   T
 15.2542605682805270 10.2387614605760131  0.1290043119037307   T   T   T
 10.7910279393548461 15.4928762299598901  0.3288147810790499   T   T   T
 15.6111016369885274 15.3105323551909738  5.2938227139934524   T   T   T
 10.4746399740365046 10.6599018634001457 15.5572482315676783   T   T   T
 15.3014475433721415 10.1324977331159918 10.1940396434760885   T   T   T
 10.2992893502475500 15.4535254118889984 10.5293694209099939   T   T   T
 15.3044330907686561 15.8043551498712915 15.1599310584643217   T   T   T
  0.9510403626228128  0.9314095822457529  6.6269936882592120   T   T   T
  1.0435753554264606  9.0919366438842939  3.8102686869025493   T   T   T
  9.1076793570178918  8.4183227354897259  6.3169335033366663   T   T   T
  9.2683945932285408  1.0537288728652456  3.5926144417183323   T   T   T
  6.5006381273131781  1.3984954582454496  1.0010601748894361   T   T   T
  3.6839537408981173  1.0094738989276182  9.1337436311055704   T   T   T
  6.6274062425894069  9.0729311006224620  9.4201797329630406   T   T   T
  3.6870869369430124  9.0953705888680929  1.2040799083739904   T   T   T
  1.0207295197583925  6.2901407931522160  1.3210140459500135   T   T   T
  9.1354652596421406  3.8229236369223836  1.4272962577661485   T   T   T
  9.3311714931967309  6.0963472966654448  8.8666766513753910   T   T   T
  1.2029336721822679  3.8122728867688798  9.0474740246838117   T   T   T
  6.0591353363423996  6.3374123488511094  6.4243883169055795   T   T   T
  6.5309325282917428  4.1420327225897760  3.8970625464950754   T   T   T
  3.9870576762789485  3.9616935773271722  6.1589008775089091   T   T   T
  4.1291498234615522  6.5743153390223883  3.7260547986865005   T   T   T
  2.4833856740616995  2.5974589538903778  2.6007070647060746   T   T   T
  2.6159301203281378  7.5888895962326366  7.5757263212510280   T   T   T
  7.7175486800585782  7.5928059487983122  2.5326485569482191   T   T   T
  7.7878280181668069  2.4017753411504095  7.5901121275782817   T   T   T
  1.3710678518306423  0.8753585364965769 16.4185501288070661   T   T   T
  1.1979294832352507  9.3196581743200007 14.6887967800712520   T   T   T
  9.1455521364689112  9.4401240285962800 16.4872416108124078   T   T   T
  9.2584295794058313  1.2391217030182462 14.2003784453385489   T   T   T
  6.5201346211715094  1.3363698916204074 10.8368513501693613   T   T   T
  3.7685588069746450  0.9074649921905847 19.1883264942098002   T   T   T
  6.0929208332759339  8.3866530506179391 19.7913036015681527   T   T   T
  4.1261343039426084  9.3538807908341912 11.7476342397202842   T   T   T
  1.2779657124396888  6.0516354236353198 11.6755899106146739   T   T   T
  9.0646221497085460  4.0675953336000061 11.5425965056774107   T   T   T
  9.0845321470594840  6.0255808132825655 19.1519368992698062   T   T   T
  1.1069920276989742  3.7268657144092976 19.6920694259181133   T   T   T
  6.4627420848286317  6.6805089636386308 16.5314349019615392   T   T   T
  6.4732908260629305  4.5505053637211352 13.9832976037678094   T   T   T
  4.0771031793107211  4.4216095926524730 16.5406723984880593   T   T   T
  3.9552994190997905  6.8511834116896990 14.3387933373548204   T   T   T
  2.8640243072813147  2.7404946338029190 12.8895811881679272   T   T   T
  2.3131260748157434  7.6239933243177473 18.1472101361943530   T   T   T
  7.8888178413397139  8.2899310050257267 12.9433581736060965   T   T   T
  7.7085564722796933  2.7625949403727610 17.8417809768927604   T   T   T
  0.8347544893958877 11.6284507114717002  6.0863899739215874   T   T   T
  1.1242873247780525 19.4565630350614036  3.9132007856533342   T   T   T
  9.0157557366209904 19.3527386871272746  6.2297867422757678   T   T   T
  9.1118166556026363 11.1151779495072560  4.2022247364740917   T   T   T
  6.1866107316796155 11.4807607557075411  1.0091769775520811   T   T   T
  4.2255678484127168 11.4261955302721656  9.0373080114657220   T   T   T
  6.3729971071547249 19.4680603212575214  8.8163156682734254   T   T   T
  3.8733607102940382 19.8400479790136188  1.5646374602372644   T   T   T
  1.1034512551322770 16.9342191273818692  0.9880476846468723   T   T   T
  9.4850908521981143 14.4785847851554497  1.7192336898120542   T   T   T
  9.2992611955982696 16.8983307700773686  9.1518349168527280   T   T   T
  0.9748331375741738 13.9257875456547549  8.8148743008666361   T   T   T
  6.5617839366044644 16.6064458871831206  6.2996923735274004   T   T   T
  6.4432936679730712 13.9477008953673618  4.1369346306769152   T   T   T
  3.9280852660141359 14.5123118372258197  6.3727461979655837   T   T   T
  4.2905672309286809 16.2836086553192843  3.6972432289260935   T   T   T
  2.5414850727567879 12.8115774118730350  2.4061816982106117   T   T   T
  2.9920975067665410 17.9720320651107066  7.4882728701469174   T   T   T
  7.6721051383582095 18.0945307709787677  2.4682759373162373   T   T   T
  7.3271348687961675 12.6683436425781260  7.6295310451461740   T   T   T
  0.9588936319016523 11.9239954111293009 16.7844097232132938   T   T   T
  1.2213759795673371 19.4034024603084418 13.9017228788252947   T   T   T
  8.7230385399360628 19.1455065244742499 16.4657391914753148   T   T   T
  9.4688536414223528 12.0718261344881679 14.5270613514116249   T   T   T
  6.4435406064999574 11.6469536839296079 11.4142883545543352   T   T   T
  4.0593646259740641 11.3100569351464646 19.1645836262521847   T   T   T
  6.2642098886339568 19.4598806359527394 19.4390498412190205   T   T   T
  4.5437403570223536 19.1424100330991571 11.2194627684132620   T   T   T
  1.3733058502339239 16.2825603645410162 11.4508182318104161   T   T   T
  9.0355919477757549 14.5287084613241184 11.8151487671117561   T   T   T
  9.6349693788928938 16.8461519101824493 19.7213438876418046   T   T   T
  0.8536073339580464 14.4946355701865492 19.2584947854727311   T   T   T
  6.1330030994712388 16.9510320254576925 16.7925964028655379   T   T   T
  6.0899634414533379 14.2084060670654395 14.5951688020739265   T   T   T
  3.8364456110906544 14.6247402488032296 17.1289033660732919   T   T   T
  3.9001029669606799 16.8479959222755333 14.4676541206845108   T   T   T
  2.5102558423693853 12.8997154965295433 12.8179902888589421   T   T   T
  2.1992806125679651 18.1583946874211577 18.1225276850380368   T   T   T
  7.5498896750500242 18.2714766990106838 13.0938206990522659   T   T   T
  7.6630640406357200 13.0527246786926838 18.3736885463546642   T   T   T
 11.7198956283832665  1.0797220653961419  6.3176911954520998   T   T   T
 11.6639975927593955  8.8997311486032871  4.3002700045597049   T   T   T
 19.2893689218091922  8.7861027118961204  6.0992846963232266   T   T   T
 19.5264859669962192  1.1705213386043760  3.9358056840600280   T   T   T
 16.4994027770862637  0.9777416140855245  0.9764898824694231   T   T   T
 14.1784919111486651  1.8298120861636957  9.4059934276014641   T   T   T
 16.3687723097212512  9.0329465820770736  8.8998136613361503   T   T   T
 14.1001597308129636  9.0988507984754570  1.3416557515933996   T   T   T
 11.7619383365617036  6.1165396534605323  0.8526079009461035   T   T   T
 19.1968652637239003  3.6650378309874898  1.2067537953320799   T   T   T
 19.6615842632181703  6.6110036022917971  9.5491155755643558   T   T   T
 11.5551542946565853  3.7974389449198518  9.3335581884404686   T   T   T
 16.2947551533266193  5.9780491667111262  6.3476144352254291   T   T   T
 16.7339704522316843  3.7813239294276726  3.9131584923426561   T   T   T
 14.1625197000948138  3.6042991095576480  6.0424683934963310   T   T   T
 14.1458745146621059  6.0917171358590769  3.8344020148746156   T   T   T
 12.7009440467640982  2.1702234326842489  2.7266716378202238   T   T   T
 12.8249489129308838  7.3792143270038908  7.6062357734291295   T   T   T
 18.0967123566493413  7.6491194788003840  2.2252727934136018   T   T   T
 18.0559568429447665  2.7611195782203866  7.7398039112916228   T   T   T
 11.3827361682806334  0.8176535368445496 16.8427320657296846   T   T   T
 11.7823058624955799  9.4322353601698392 14.4213466449808454   T   T   T
 19.2354157179119944  9.4077643601630871 16.7025941347085158   T   T   T
 19.6216976571442139  1.4048235984721285 14.2199742874825148   T   T   T
 16.7335038857338603  1.3448822967576304 11.5089616235896628   T   T   T
 13.9724172137192078  1.0484203432598189 19.0330204981807967   T   T   T
 16.4018876217121843  8.8464463848489565 19.3233725768376843   T   T   T
 14.0611363782198175  8.9113847688431402 11.2966776459616547   T   T   T
 11.3228270903686195  6.4950185311109605 11.2340054520349870   T   T   T
 19.3399653172777874  3.7142706296884849 11.3834612879233354   T   T   T
 19.3539671007267167  6.1324794828627844 19.2447697647440670   T   T   T
 11.1486030352868486  3.5577283927556422 19.1410221718831970   T   T   T
 16.9302374574988121  6.2753031786513667 16.6594163534364057   T   T   T
 16.7026216611646987  3.8946293491683845 14.2684526291627947   T   T   T
 14.5608876552660451  3.9638484797936595 16.7642802929787038   T   T   T
 14.1568298372675585  6.2503416848967426 14.6783413118818853   T   T   T
 12.8064022692341108  2.7052253105591615 12.7989413897199462   T   T   T
 13.1285982415335525  7.7319586896846006 18.2012080292239418   T   T   T
 18.1534439961649205  7.8492965968009862 13.0036048801093962   T   T   T
 18.0023371041599702  2.4677490518676026 17.8329716080267744   T   T   T
 10.9875972715798564 11.0726552954409900  6.9431876316585344   T   T   T
 11.2189047573547711 18.9861298914001502  3.8576898471155521   T   T   T
 19.1793407958175948 19.1332615656915124  6.0324879605397888   T   T   T
 19.4092044877899603 11.4141236444415348  3.5796456549840445   T   T   T
 16.6728197310308239 11.3406967819391546  1.0241297569984116   T   T   T
 14.0062480060700167 11.4878124413503269  9.2462427300920336   T   T   T
 16.4341955581984465 19.6630674841235553  8.9755385172491202   T   T   T
 13.8833554596090529 19.2226724946885845  0.9518983817284464   T   T   T
 12.1588963119081122 16.6384556845696601  1.2136534375063768   T   T   T
 19.4283253993879725 14.6291341114910995  1.2675138395559813   T   T   T
 19.4991456297951906 16.3751866299718927  8.9603118160125419   T   T   T
 11.2074569286336949 14.1263510585502470  9.0968554765303633   T   T   T
 16.7804269583284302 16.4331759422919852  6.5883609060724933   T   T   T
 16.9280412395208977 14.2668284166624098  4.0164295945633004   T   T   T
 14.4347418659837370 13.8684007668755491  5.9807785136232932   T   T   T
 14.3444980621767009 16.6366014192350100  3.9378463923313123   T   T   T
 12.8924172951755978 12.7475933269678592  2.9528758893445066   T   T   T
 13.0498630784874283 17.5212202824180707  7.5605839076741459   T   T   T
 17.8972880778459036 18.0884195349352339  2.5773223711046533   T   T   T
 18.0305735879384379 12.7922229748293503  7.4684722685970168   T   T   T
 11.6719655532466327 11.8865098325511305 16.8629224596387743   T   T   T
 11.5259771509208893 19.2364677671938828 14.3052220516363011   T   T   T
 19.2800489939208468 19.4720181102459513 16.3469047787472199   T   T   T
 19.2074095194962808 11.6638494219005224 14.2076850798052838   T   T   T
 16.7504686738182009 11.2943665849724120 11.2529561559229432   T   T   T
 13.9612470797353296 11.4699017324013077 19.7555519776210140   T   T   T
 16.5366035889153409 19.2791619341017579 19.3253897672123180   T   T   T
 14.1092315058611746 19.7764108722641723 11.4310006603623560   T   T   T
 11.6294513138427256 16.6827201471522777 11.6251492054829342   T   T   T
 19.5870422489044813 13.9500208556457608 11.4069337765980645   T   T   T
 18.9408599009815113 16.9341121670816683 19.6061164406451169   T   T   T
 11.6890836421487698 14.0141176496110909 19.8425635431444931   T   T   T
 16.5117796419672764 16.8517206656143586 16.5147191225268237   T   T   T
 16.7048373966947530 14.5468225401269589 14.2576622764832202   T   T   T
 13.7623074155684648 14.9153180566943533 16.0732217412252680   T   T   T
 14.2398995462523992 17.1860279157656670 13.8472135653398087   T   T   T
 13.2245510931113177 13.1541016260084191 12.7161690181060969   T   T   T
 12.6359393192864555 17.8904262216980534 17.9433433590391722   T   T   T
 18.0586768183221835 17.7239920948765182 12.7889176202866324   T   T   T
 17.6540498033912883 13.1545247578699449 17.9284019425802121   T   T   T
 -0.2868738381134990  0.0014064753967585 -0.2606679921241072   T   T   T
  4.7556285246731411  4.7940972331218212 -0.4591692296216328   T   T   T
  5.4121243886420523  0.4590481624827308  5.1364737442673363   T   T   T
  0.1616265081375653  4.8444361396411644  4.8921555875026224   T   T   T
 -0.4228116817848300 -0.3288044624594688  9.6840858586756049   T   T   T
  4.8029802771548820  4.9613854630376970  9.8395424645079306   T   T   T
  5.2627276811999364  0.8847530576714140 15.8138038234989864   T   T   T
  0.3720257785612986  5.2657603508642028 15.3006598707297847   T   T   T
  0.2745665870712225 10.6084507670131494 -0.3846740537546262   T   T   T
  4.7286318470637632 15.2424221293102420  0.0911447634987105   T   T   T
  4.8120054874225984 10.3885214329555779  4.9186953968875269   T   T   T
 -0.0450207078755222 15.5151760226488040  4.9332540509229501   T   T   T
  0.6261949093337971  9.6784984427951954 10.3362868626047231   T   T   T
  4.9676528710623904 15.5324618241183714 10.1254845751180547   T   T   T
  5.1333900099374672 10.3727470491603135 15.3333612101725389   T   T   T
  0.1700996442354028 15.5056923968590397 15.4870973013693227   T   T   T
 10.0578918547113698 -0.2370197275301311  0.1552523355684014   T   T   T
 16.1023950676626590  5.4357125563967346  0.1031788907660981   T   T   T
 15.2356950183975055 -0.5200508331618829  4.9916653318169875   T   T   T
 10.3004032597916346  4.8288751680134832  4.9353591719470513   T   T   T
 10.0279126064289059 -0.1756899947758840 10.3870596862462037   T   T   T
 15.0327734512238909  5.1982712837656218 10.4391227653567711   T   T   T
 15.2410985004806161  0.4977437449587856 15.3155828305289425   T   T   T