Li P  S  Cl
 1.0000000000000000
    25.1819793006824639    0.0000000000000000    0.0000000000000015
    -0.0000000000000009   14.5388225279766061    0.0000000000000009
     0.0000000000000000    0.0000000000000000   37.2126966544236950
 Li  P   S   Cl 
 286  48 240  48
Selective dynamics
Cartesian
 -0.3052162736865889  2.1013982126533448  7.7156017608601326   T   T   T
 12.9573363421488637  9.4163544930067857  8.8120319034897197   T   T   T
 17.5600754057458310  1.5533788214315725 12.7547158100402118   T   T   T
  8.7753448297498746 11.5085455036965705 13.2028114959828500   T   T   T
 16.2930927676302417  4.4324678008095093  2.4205939602430862   T   T   T
 28.3355529423789427  5.3196476702601219 -0.0794760132301945   T   T   T
  3.5922932885617942  2.9127281186105409  5.6974813753437390   T   T   T
 15.4173173121692990 11.5869890298372091  8.6363315558319389   T   T   T
 20.8783995205144564  4.9137280699317341 14.5350873555224798   T   T   T
  5.7722478857390831 17.8203671221963802 21.2338481580989757   T   T   T
  6.2597052616374143  7.8734104501399784  8.7930858407086081   T   T   T
 24.1518187088093406  9.9486475798218788  2.3265063018287875   T   T   T
  1.1074429668080257  4.7548281128276049  9.3839233396564588   T   T   T
 16.8617410729943131 12.1315618661956055  2.6729585396619968   T   T   T
 18.3878100276674203  2.5027853140993952 15.9103548764844209   T   T   T
 11.2268136518389188  8.2354023631962860 15.6700790154284046   T   T   T
 13.3137623170282531  2.8196429313136431 -0.0117354073161708   T   T   T
 22.9698467868137080 14.3248798224859097  5.6486103322056183   T   T   T
  7.3714779827849330  0.6003272722733686  8.7899442282865170   T   T   T
 13.8164517400179889 11.4121175552931380  5.8777165775556792   T   T   T
 21.6630220981000150  6.7555635738149089 18.0427573782906485   T   T   T
  7.4116685507016369  9.0870044659603906 14.7810636959385828   T   T   T
 10.3690069580427355  2.5433170199742023 -1.4441910342778552   T   T   T
 28.0572187543754055 12.8513813108275610  3.2647545948393804   T   T   T
  3.9090056362879029  3.5315044432773441  9.4221406078549013   T   T   T
 17.2476792408711930  9.5283620651062648  7.8652920232410244   T   T   T
 21.8713648860100562 -3.7287971594774367 18.0453385357282272   T   T   T
  5.3734658290072597  8.7419029400721904 12.5178828092283911   T   T   T
 15.6538313658595278  3.0951685615561795  5.5058936583344948   T   T   T
 25.4393873987669181  0.4923099326778473 -3.1897781911111664   T   T   T
 10.4241870333826228  5.7619561552309113 13.7002773822699506   T   T   T
 15.4019355525819108  8.8438261096486528  5.0745277693219162   T   T   T
 20.1580173453129952  2.7308991569750045 11.1635390331372442   T   T   T
  6.3634394894620989 13.3434933697204965 13.6422434731492963   T   T   T
 10.1346584362323000  6.2635586364525162  6.4524026092159970   T   T   T
 24.9621225547026704 12.6524578125286293  2.8519455782847047   T   T   T
 29.9792671793679055 17.9870069324023270 15.3991562376922442   T   T   T
 11.7195164044776803  1.3687008305049759 12.8933192894209725   T   T   T
 19.1704728289715582 13.2702384932930890  0.6301540178975360   T   T   T
 -3.2521049100832009  4.7240084039988135  3.1645695662409126   T   T   T
  4.9048729742762172 11.8201472398590059 14.9823890192430440   T   T   T
 15.1079964175317940  7.1519845499451957 13.1635104087319821   T   T   T
 23.9937235700233487  1.2856999785291074 13.5963195082371247   T   T   T
 10.6470220203212538  4.3879288241362575 16.8596146365917399   T   T   T
 13.7565751628401181  1.5123712704057586  9.9269872010030795   T   T   T
  3.8610203243297287  5.6032175463348075  3.4205087274302288   T   T   T
  6.9683440134976689  5.5936269864544270 15.1600155909912822   T   T   T
 19.5349912062755848  6.7989478719528789  8.7148016788454203   T   T   T
  2.7227883551205885 -1.0675630544966033 13.1085480781629773   T   T   T
  7.7836318905210309 13.1251685153472160 18.6009891024688692   T   T   T
 19.2235942791442689  1.0722637989624522  1.8771716409110493   T   T   T
  4.9032992922061975 10.2620074061908984  6.6712118067700636   T   T   T
  8.0378871380280987 -2.2271089531735502  5.1361258182487388   T   T   T
 23.0139511898696760  7.3615800717213205  5.9857119333829596   T   T   T
  2.1835913808360572  1.1255184663504030 15.0857562623980641   T   T   T
 15.0440880189023751  8.5455747881159922 16.0406647570475549   T   T   T
 16.7012981159782434 -3.6665306931845971 -2.9354822914304668   T   T   T
 14.9536633686556542  3.1512924637385811 -2.6637879541121299   T   T   T
 10.0194073749634125  0.6219487829296578  3.5086123275576524   T   T   T
 22.9701073583242064  6.2654693480309795  9.4179291064486570   T   T   T
 -1.5782348500390841  8.3084071335772318 19.2653198532609586   T   T   T
  7.1639064727819068  5.1254011211919996 18.9623226256229067   T   T   T
 17.0979874700036589  8.4558374732303214 -0.0629084774536417   T   T   T
  5.8138604201195889  4.6849472414489224  0.4418176372565433   T   T   T
  9.5038239734000420  8.1683718696729475  8.7421297380238681   T   T   T
 21.0364905217521603  4.6546979113487277  7.1557655645717659   T   T   T
 23.6167540454172240 -1.2926274479408193 15.0336942317145219   T   T   T
 11.0528119190312371  9.0544356661981453 12.6536881958533858   T   T   T
 16.1570088062666457  2.0661840629528516  1.0869674786506545   T   T   T
  3.1139807279480407  8.4387986128462114  1.8686689073156706   T   T   T
 11.2449594216085504 -0.9124321462602613  6.6047352125247283   T   T   T
 22.0300709296119948 12.5748104222526589  3.2894260160060691   T   T   T
  1.2463661948544689  9.0240658370039277  6.0239890422677824   T   T   T
 13.0621533472854061  4.3703766059590139  7.4426854462756431   T   T   T
 18.2615165515774827  8.9391604087409604 11.5531908632948603   T   T   T
  7.9964026391031018  3.2849651637446988 11.9696835687272269   T   T   T
  4.7432858377231879 11.6539031294428703  1.7401264530375578   T   T   T
 23.3088486807937372  1.9948542979947721  3.0410930828795819   T   T   T
  0.0003713273420683 15.0143016424443569 11.4925419940401330   T   T   T
 12.8569801559396844  3.8301889281283561 14.1585516107353637   T   T   T
 18.4174723314893747 12.8356048801209131 12.6383375152667323   T   T   T
 -1.0016983636910413  1.5605536309414194 20.8139142890654227   T   T   T
 10.0233545168055205 14.8209559881004367  8.8816820796731637   T   T   T
 25.3329289470562600  4.2691288555782885  2.2996909901902747   T   T   T
  2.2667671565284206 15.4281167079870887  7.9455265132457056   T   T   T
 16.7163654542043112 11.0258246725023064 13.4403571641204795   T   T   T
 18.9815663664895489 11.9862941663855054 15.0573741712045646   T   T   T
  4.9951190201281621  5.3145313859521215 12.5767954672386981   T   T   T
 13.1461475362088560 14.1742089600356831 -0.2938180623450135   T   T   T
 27.7175998470691738  8.2167772142471431  8.5183444347532689   T   T   T
 -0.5869425204391741 12.4086356663564903 12.4552838489271966   T   T   T
 14.1469842549511498  0.8311156252930335  6.4514727943358334   T   T   T
 19.0655158625836556  8.6540726404798320 15.1317116381445071   T   T   T
  6.7510166115337000 -3.0353127153987609 11.1914849968152943   T   T   T
  8.9224260226127257 10.5435375452426765  2.0787172113393275   T   T   T
 18.3299080763541582  0.8239842436822690 -1.4861556101702189   T   T   T
 -1.5052787642934033  4.6129316933614088 12.6715927281066563   T   T   T
 17.1565020156258043  1.8050052952298208  8.2402834170419013   T   T   T
 17.8457821255095723  4.9066197859634695 12.9097868853001785   T   T   T
  8.3352078610347036  1.9064741726145655 14.0041701551446796   T   T   T
  7.7104430292679353 11.1370490104458941 -2.3897581956743008   T   T   T
 26.2129851719953457  4.7901969787063221  5.6775354066440791   T   T   T
  3.6293987677505934 10.7301469235374274  9.2618874859809264   T   T   T
 15.7274461255651641  4.6877686716658005  9.2206122453422452   T   T   T
 21.1960595968805556 10.4240017171528141 12.2720123801751893   T   T   T
  4.8750521409261829  1.9623075269683417 12.8896121760352926   T   T   T
  5.6882740451438147 22.2155677578530302 -0.1575584562781621   T   T   T
 22.6901963321203048  9.7040970538472191  0.0285716796792432   T   T   T
 22.7793904733480232 13.6073217348724889  8.7683886045673844   T   T   T
  6.2192225915700838  5.0260393587971084  7.6022198183587637   T   T   T
 12.5067245162960869 11.6473676047987578 13.7885303250593889   T   T   T
 27.7001126970539850  7.2848070137079848 14.4069621800582794   T   T   T
 -4.3830439754301338  3.5079732095253044 -3.6677625363640405   T   T   T
 19.9640111682050510  5.4499327879168815  0.7165523741437321   T   T   T
 20.5822934223156722  1.8111847986871488  7.0297380603782074   T   T   T
  8.7508060151564653  4.3751895009722919  8.8768538251704676   T   T   T
 12.8957004690917039 -1.5546316910775664 11.1567918843438854   T   T   T
 22.5876441283426601  3.8712116386250583 17.0776231335711230   T   T   T
  7.5890860658928077  1.0255244338657947  6.0146432730775699   T   T   T
 18.2776964026777229  7.4577683756606703  3.0565298747478602   T   T   T
 30.0019248673042220  0.0537621388578101 17.8866885910302607   T   T   T
 14.7352235785064387  3.2124182043111915 17.3291497787145659   T   T   T
 -0.0377907695461451  6.6684993862864008 16.0712836165241626   T   T   T
  5.0777627608175502  0.0229314557316671  2.9127652717440005   T   T   T
 20.4675150905590293  9.1470772730627363  6.4476596016486685   T   T   T
 19.6572622225850004 -0.0462498534854622  5.5064539749284318   T   T   T
 12.6733000561614286  5.6978262817815502 11.1615620350615501   T   T   T
 14.8869410410021921 -0.8155613892735628 13.4839763638437038   T   T   T
 -1.9022010410608357  8.1790593679344887 14.1192056945851405   T   T   T
  7.6197471572499733  7.1280364505224627  5.6665154547443288   T   T   T
 15.5802651773056251  0.6781310258447120  3.1789489691939172   T   T   T
 25.6209155652663014 10.6276186824543792  8.9330618661912808   T   T   T
  7.1257967904576462 10.5257369890873154 18.8764220619093628   T   T   T
 10.7605324673263762 14.2781434067705213 14.6364108563145514   T   T   T
 -4.2256162573314322  1.9508048268125924 14.1949773560157730   T   T   T
  1.2097780885922915  9.8730095594284428  0.2912837171282354   T   T   T
 19.9299557990120242  5.7361407176197474  4.9901719152850363   T   T   T
 19.3401719473825580 -0.5199157025867898  8.9545734554237697   T   T   T
  9.0575256903079087 11.7758762451576438  7.9871051415473069   T   T   T
 15.7706469287691906 -0.7975510261839199 19.5420776853165670   T   T   T
 25.6170738226695214  9.4720110301470086 14.5352111383058347   T   T   T
  3.8328805831237940  1.6109061443341868 -2.3166707585482986   T   T   T
 12.9874767089255254 10.3650380316026745 -0.6461324871917384   T   T   T
  6.5852050119359502 13.1648692757540413 23.8352569158089977   T   T   T
 24.5002345628585871  9.7085411955793113 28.4499801735323317   T   T   T
  2.2648764485125072  1.9778844139169887 22.8090120669620191   T   T   T
 14.6234305707286989 11.6934057908930580 22.0544128809433708   T   T   T
 18.2528699479249354  5.6948824789889203 34.0293949552385442   T   T   T
  6.9137641181626961 16.2682778953569880 36.3232576238116565   T   T   T
 15.6457538646016694  2.4574089191354154 22.5608655967665683   T   T   T
 19.5071568217958315  8.0998362288135120 26.2457354939166407   T   T   T
 -4.9899715533208253  0.5349411367008660 19.9159640857332434   T   T   T
 11.1331666027773277  7.6171766415103139 20.5206848159054864   T   T   T
 18.4846035454863014 -0.4118950491318069 28.9270520053290383   T   T   T
 -3.8542331658064897 11.0230631929794516 28.7007118386868747   T   T   T
 10.3271688316689634 -1.5470483619455970 23.3740102838042709   T   T   T
 21.8332013456410969  9.1644424191610732 30.7498852081388385   T   T   T
  0.7174555295226058  5.3819736849532678 25.3724203290902004   T   T   T
 12.8035397149272629 15.3087097028661354 18.0160357375994771   T   T   T
 17.5266633510076453 -0.5972920378252863 32.0301266657271384   T   T   T
  7.6539529423295969 18.3884431359461438 34.4758540760434329   T   T   T
 12.4052272151271659  2.5983721401214184 29.6201985208492253   T   T   T
 23.6370996868504228 12.7768026092610274 28.1673869630424782   T   T   T
  3.1503960867255927  4.8247951080899680 22.6884539744806517   T   T   T
 13.0860445080943375 11.2463313411027723 26.2336828671710158   T   T   T
 20.6530439001229276 -2.5307630991501453 43.9491314383506051   T   T   T
  6.1315204818340536  7.6521404101917518 40.1143789858062263   T   T   T
 13.6640882618316262  5.9230152803443588 25.5366995026934767   T   T   T
 20.1856702140434869 17.1387903656924721 23.5523526251213688   T   T   T
 -0.5669114660386243  4.8257690074664312 22.4286080601790552   T   T   T
 12.0461146371394054 10.3553346320812665 23.8174282472557621   T   T   T
 25.0486259754923815  5.2594721600047087 28.9492545461616118   T   T   T
 14.8219335836053467 14.1403897210450928 34.2017141068601092   T   T   T
  7.2006137491868127  4.8459690974811060 24.5036833999063894   T   T   T
 22.0980190320124557 12.3704336649163640 31.7741539495691896   T   T   T
  3.1489359070564409  3.7960907757561717 25.3445498123664450   T   T   T
 14.4117001764032224  8.8631611909630745 24.1832663143708011   T   T   T
 14.1482633941271683 -7.1370338870344412 44.8932094716191301   T   T   T
  9.8577270837787214  4.4397686802421301 40.6383581049847749   T   T   T
 10.8318266169646353 10.3348969037889269 19.0511300071330680   T   T   T
 20.5607767759336610  0.8618780873389731 26.0904628083647658   T   T   T
 27.0227379553067237 -1.9809105571852768 37.8162677238732101   T   T   T
 12.1937239219978526 -4.8032113701839769 33.7656168401682208   T   T   T
 17.4357919311108631 10.1274079868483362 28.0349830540381646   T   T   T
  2.4979355375100156  1.0091135853849691 27.9338602847720452   T   T   T
  1.0362659429371512  7.2113862828900670 11.7869642289682766   T   T   T
 22.8895918075429279 14.4345438110125794 24.0625572845817715   T   T   T
 27.1604438586110923  6.4764123323661167 30.3301114855278833   T   T   T
 11.7554556083183428 -3.3705280213652871 31.5840200541827869   T   T   T
 15.7194573736465770  5.9761783051653365 30.2811430794537948   T   T   T
  2.7111525811084998 17.0994300612864301 30.4447569570145617   T   T   T
  7.4960238257893383  9.5598405445009700 24.8376963192325704   T   T   T
 18.3884593790468926 15.1306758878296108 22.4795251768940609   T   T   T
 -0.8951751792963303  3.6662986939192339 32.4864071673927128   T   T   T
 12.0735700987226409  9.9556248226150217 40.9665077543458125   T   T   T
 19.3108380657101826  7.9018905501176961 30.2514400357689297   T   T   T
  5.2261632807653386 14.6591592475335784 31.4946291843922594   T   T   T
 10.6765311833121750  7.2945604606974284 24.2853713987845872   T   T   T
 25.8474628232445376 13.8471543135160022 17.8936488015987223   T   T   T
 -0.3149288608775652  9.7546764577101364 34.0956152904504251   T   T   T
 10.0286759319082819 -5.9325637384115986 35.8988355331390210   T   T   T
 16.3245499366451625  9.2380782757997206 31.7847953014350715   T   T   T
  6.0420744894561960 16.1242881741908306 29.3716294985029407   T   T   T
  8.6985454324900111  5.6176428672766630 21.6482642437541664   T   T   T
 18.6246179011619155  6.2375215026293906 23.4615200665634767   T   T   T
  1.7324729960267786  6.3240078822416708 34.1798942765649940   T   T   T
 12.0695964468159804  2.4348767831089102 33.2424716963814291   T   T   T
 16.6363678775661050 16.6516822113052605 31.5094980563054889   T   T   T
  2.8392558078436503 -1.7527488811001608 29.9701236815219936   T   T   T
  4.6413012539182334  7.1418727354064666 18.7883537264176113   T   T   T
 20.9668373495802207 12.9021948974712100 22.3035132332108148   T   T   T
 25.3622916782576233 11.1619967358459036 31.0255221994901902   T   T   T
  8.7089542154888360 10.5640169057612425 32.1691529163601331   T   T   T
 18.1910291666629007  6.4742235602534288 28.2450466857191707   T   T   T
  5.3004188988502241 14.1492215328262514 27.6034100918207912   T   T   T
 12.3582714405601273 13.4509156424788188 34.3573731120214774   T   T   T
 24.5342868412507045  2.3780617702820339 29.4985210616383036   T   T   T
  1.3972410169414169  8.4052434212904483 23.8441772740930595   T   T   T
  7.6612815763044209  7.1946747581702608 26.1694561791679590   T   T   T
 14.7742871675425889 15.8958694785786463 29.0851092334004910   T   T   T
  4.9466553595830742  7.2534618674826330 32.0939062621696110   T   T   T
  9.9286200254187769  9.3596090051689487 28.5703368777491633   T   T   T
  4.0713941755195666 10.6277394325191210 24.4530961264440272   T   T   T
 14.0222155560376240  2.5070196638396736 25.8183030491310070   T   T   T
  9.0312898415515761 13.2090169012135537 31.0049749619678252   T   T   T
 10.3738086986995413 -2.6732637205640257 36.3186024595088242   T   T   T
  5.9125011871466029  7.8046594073587787 23.2287734063664928   T   T   T
 25.6169579604638322  2.2834198677053457 24.9041266071763125   T   T   T
  4.1189732810920834 17.3281091309720914 18.6647926605837355   T   T   T
 19.5118020688703808 -1.6403987369528610 24.7357275609282254   T   T   T
 24.3527522993872871 12.2700639029898912 36.1087736792832885   T   T   T
  8.3398379925226376  4.7297539400281083 27.9837999338979522   T   T   T
  7.9398039628803589 11.7348367508565712 28.4128679211745307   T   T   T
 22.1497468197821199  5.6493363172151412 31.3898653215797161   T   T   T
  1.3760349602338302 11.9667303412085584 25.3332289223895941   T   T   T
 12.7096497671927295  3.5780904360755530 22.3158665603020339   T   T   T
 20.1805487235490553 10.8154998154961550 34.5363285650969090   T   T   T
  2.9536073753785526  8.2890694665106484 36.0259123872826450   T   T   T
  9.4919394497086511 17.1087000973776391 31.0163213823097905   T   T   T
 21.4917749963032954  1.6237177253918154 30.6983257617782641   T   T   T
  1.8942310341742705 13.0747232733762431 22.7678093759297901   T   T   T
 18.9147851982483850  3.2187670384961393 19.1754721993844655   T   T   T
 23.4241722195769491 19.7492514934810188 36.8800571414212612   T   T   T
  8.1382487360291940 -0.6165473779202388 38.0840736550172352   T   T   T
 11.6463800220019120 12.6532046375894129 28.2672958275332213   T   T   T
 21.4074774137352328  3.4642428104966667 28.2137059026629373   T   T   T
 -0.0875577637539545 10.1826050770180299 22.2946616430117359   T   T   T
 14.7445243259812440  5.3961671187653453 22.0140557738735083   T   T   T
 11.8867868266355572  6.5062155461617985 34.1037213968649695   T   T   T
 -0.4192976679171788  2.8921870396937122 36.6911273348833760   T   T   T
  2.8667915599197191  9.0322603143983180 27.7422927958955938   T   T   T
 14.2014220410155971  9.3027555702453331 29.3192620005307205   T   T   T
 18.8321525334573394  9.4469882538124192 22.6625225785362510   T   T   T
  6.8163918741785832  1.6734040577608351 24.5927790031187179   T   T   T
 14.4136457504334903  7.6582506472220455 34.8434849780903875   T   T   T
 21.7386837948858833 -1.5792125031864963 36.2497377738344539   T   T   T
  4.1625251565271029  5.7297645974376188 28.7842927518009581   T   T   T
 15.6581830971399913 12.8831695971288234 29.9809566919294497   T   T   T
 14.4591865583774712 13.6947080314449270 24.0792652752079768   T   T   T
  7.3156483009994737 15.2677069711533910 21.4584101498550730   T   T   T
  4.2387750220914224 13.0563831784629727 36.6707357858317664   T   T   T
 21.5144779757876670  2.6504270338698617 36.7030843436374852   T   T   T
  3.2486475646290347 10.0014776786947657 30.2456863519373584   T   T   T
 16.2776148271881418 11.2677920503171958 25.6685929006298075   T   T   T
 17.1585970460437949  4.0919423785311668 24.8884256872206500   T   T   T
  2.7187071948658885  9.7818508000566524 21.4208562041537185   T   T   T
 10.6153886235066199  5.6534327376423317 31.1604246759388950   T   T   T
  2.3286355394416400 12.2622823266657051 33.7746500166703640   T   T   T
 -2.3697430607849488  0.2058869351957071 38.0880256917828888   T   T   T
 21.9117391542584770 -5.0735002339988995 22.8101927372764592   T   T   T
 25.9592340985005308  5.8833594923218691 19.3446892124977836   T   T   T
  8.3131437159803934 10.5872112550825879 21.9557086675206463   T   T   T
  9.3896462805639498  1.6909277676612147 27.8586365610198925   T   T   T
  1.5296707277627257 -2.0179761011664978 43.8497947234292411   T   T   T
  5.0798795517002810  4.8810215167844211 33.6904905856749792   T   T   T
 17.7777986981725569  2.2612223454439437 28.6405953104658657   T   T   T
 26.3275607166486552  2.0316120021167121 18.7786832102229262   T   T   T
 11.3232421825948499 -1.2685555354113696 20.1652432927339476   T   T   T
  9.7845205170308684 16.1036803675214237 22.3298833032896766   T   T   T
  2.8902789132264273  1.7043485493851882 38.6895694906750833   T   T   T
  6.1293083346692452  8.6371322512418942 29.4200607215265499   T   T   T
 12.0515396524279250 19.3158981553541658 28.0323378082317411   T   T   T
 23.0015382372794690  7.1772393021118051 24.3710359803599630   T   T   T
  9.6792508876856189 14.6908147232347304 25.2312274690035174   T   T   T
 12.2305476630745797  6.4955317802230441 37.4273920213975231   T   T   T
 16.0630640251805765 12.4924546584342036 37.1291017006262791   T   T   T
  0.4184113055043358  0.0712889017812813  0.1684673448693586   T   T   T
 16.4830682605719048  5.3631551989805128 -0.5634001487837337   T   T   T
 16.8473967374801781 -0.8555415530057110  5.8036691160689680   T   T   T
  4.2090393409454823  6.5846531407588120  6.0351321493983905   T   T   T
  8.4727116157202573 -0.3693590463668267 11.8969795712106841   T   T   T
 21.0349781026644465  6.8862245562398190 11.4418251478542832   T   T   T
 23.4627704901916623 10.8282314190190192  5.7827883870454624   T   T   T
 10.7031215444636771  2.8166252898051245  5.7736481733627940   T   T   T
 14.7557551631573585 10.2192968555788557 11.9617149702618253   T   T   T
  2.2675366253956879  3.1439486466516819 11.9389327443821802   T   T   T
  6.1574804792218805  9.9037209934495962  0.1688482078930026   T   T   T
 17.9206205383950596  3.4794419687309954 -0.5010081634478847   T   T   T
  4.7026468321542669 -0.1601035324131657  5.7881671062702003   T   T   T
 16.7648619771072376  6.0474888999419054  5.9007730083948653   T   T   T
 21.2859283750501511 -0.3498141446465525 11.8222484668806516   T   T   T
  8.4003856857850518  7.1990832625679948 11.8983823372868969   T   T   T
 11.0219864204486626 -1.6585261897599626  2.1156822269723858   T   T   T
  1.0592221004083073  7.4830162923724108  0.5453228275430230   T   T   T
 23.0100864773364400  3.5375336918674241  5.4765465190463161   T   T   T
 10.5367148803280024  9.7731539518811541  6.2664248936836291   T   T   T
 14.8337341008494192  3.0540988701150007 12.2626147531747822   T   T   T
  2.4266801425661790 10.4581097403082666 11.8519935961291694   T   T   T
  8.7085530974196086  7.5606421104853254  2.2797747235702679   T   T   T
 19.2568151629612530 10.7303771962203083  0.2219675432934674   T   T   T
  8.6813722782550116  7.4273187939693637 18.0057588844137868   T   T   T
 23.0002452217650877 -0.5758519191170409 18.4929181659206421   T   T   T
 24.8260174376235838  7.2886240078034890 31.7657150982258969   T   T   T
 12.5130031815041889 14.7753721528843975 31.2364606179235729   T   T   T
 16.7933385260345105  7.9391624396988778 25.1681448919138333   T   T   T
  3.7114581351620548 14.5046201657696230 25.1113137160125888   T   T   T
  5.9107378689724763 11.2985487258436770 31.2321651336706658   T   T   T
 18.7763499323610148  4.3692276316549359 31.1882662831744248   T   T   T
 22.7152250895293051 10.9735525588675671 25.3065516059224898   T   T   T
 10.2115801169598939  3.6460994054608218 25.3357199374211284   T   T   T
 14.1130555712243435 10.4689413611706446 19.1216993119800733   T   T   T
  1.5562576454254711  8.5320970551691389 17.8877378784253374   T   T   T
 12.7846157599963650  7.7701483140714007 31.4019893535999053   T   T   T
 25.1155345111803108 14.7021193366707710 31.1237133641496335   T   T   T
  3.6921233865536212  7.3864281156285054 25.4047269723628197   T   T   T
 16.4509294308286158  0.2251064559381450 25.6062251840250674   T   T   T
 19.9219436586773355  8.8045382282852422 20.1554985803737132   T   T   T
  7.6439358855464326  1.9640542338295817 18.5043333640840686   T   T   T
  6.4277389815063533  3.8599216334090514 31.1887025269223521   T   T   T
 18.8902492007540950 11.4523545959014061 31.3553543216196253   T   T   T
 22.8062121442890344  3.3473253842151305 24.9183860455361952   T   T   T
 10.2096603448886558 10.8299984384610148 25.7828156430399531   T   T   T
 16.7479208420558763  1.5564984180652655 19.0482677912537497   T   T   T
  4.0479383816593675 11.0761201788580710 18.8232528371519372   T   T   T
  4.8068027711904202 -0.0420585102342727  7.8463907337082111   T   T   T
 17.3771486667927917  5.8870173953745093  7.7916816222506498   T   T   T
 21.3513497773492560 -0.5204187630180852 13.9392531651009062   T   T   T
  8.4434117112757079  7.1049924039302104 13.8309519971785555   T   T   T
  9.0322044586151389 -1.6264430641413783  2.9628687556289059   T   T   T
  0.9196429751415349  5.5880134595369411 -0.7629766929481054   T   T   T
 22.3168789363421283  1.3696954078980379 11.2400437885552389   T   T   T
  9.2607699648900823  8.9140077540163087 11.1367457243296570   T   T   T
 13.7946018285889771  0.4661950469505203 20.0417406590939677   T   T   T
 -5.6693707456151037  8.1873911300349143 17.9936531720440662   T   T   T
  5.4583219249525934  1.5801555425297453  4.7868545582331441   T   T   T
 17.5348945765596973  7.8931039705517643  5.1804887711348355   T   T   T
 21.8235695535684791  4.9595008889849534 11.2198542570495992   T   T   T
  9.4369713495708751 12.5050163598175761 11.1338827638705631   T   T   T
 20.6045131620793676  2.3566971378316079 17.6236156400857915   T   T   T
  5.4194473166783466 12.0942624022643184 17.5489119116982621   T   T   T
  5.0651754133997189  4.8317834941969258  5.3998861634211384   T   T   T
 17.9731997191819381 12.4598247335905015  4.8210380999171232   T   T   T
  6.5721012637118195 -0.3546092243126922 11.0841173248930129   T   T   T
 18.9578380301257354  6.6039453204595251 10.9101674812889780   T   T   T
 22.4540488909959848 -0.4379055072665523 20.3513608329569848   T   T   T
 12.7693530156772717  7.3545407515627748 13.1651088705461294   T   T   T
 14.9707153490711740 -0.9474332164565854  4.8112210506003068   T   T   T
  2.3227096529071276  6.6893951267942882  5.1474950875960879   T   T   T
  1.9751214089757763  3.1580006400305431  7.6524601418558866   T   T   T
 14.9119845178685022  9.7113005323922064  7.5632998605265733   T   T   T
 19.1038461825372998  3.0390120954280579 13.5505714580997694   T   T   T
  6.5086077427842861 10.7559733320797015 13.4149158590645676   T   T   T
 10.7439398347102202 -0.5912508349664659  0.1672982982742455   T   T   T
 23.0126948436314969 11.8769928237934526  1.2535532583603581   T   T   T
 22.9874523434112810  3.6083094219977818  7.5375113195393775   T   T   T
 10.6240699651952948 10.1140728043083872  8.3097505934976645   T   T   T
 14.9743375102016056  2.6131324720077336 14.1954664753419735   T   T   T
  2.5195833499695026 10.4825382006086496 13.8174491020872203   T   T   T
  8.0809850511603312  5.9281925364927579  3.2341758928711917   T   T   T
 17.3994412697181744 10.4174004824452577  0.9331980123023704   T   T   T
  3.5790452802707100 12.1597009690296805 11.1903793138268846   T   T   T
 15.5294030495521742  4.9456581877963401 11.6976144614705628   T   T   T
 19.9797060419344561 12.1456667530337103 17.3404754770072778   T   T   T
 12.4366713337110912  3.2423745860634670 17.3739574576419642   T   T   T
 11.4130517674155829 11.6129275302492410  5.7203564684595962   T   T   T
 23.8074918980657664  5.1615695573139337  4.6053804432327725   T   T   T
  3.2273921281189031  1.5997180342250359 11.0105933841063042   T   T   T
 15.9302757891401114  8.7173961839856027 11.2284635002508431   T   T   T
 18.2517547779446758  1.6789381635388492 20.5551687609463869   T   T   T
  7.1196243492299240  8.4602486499264415 17.3105784359394761   T   T   T
 11.7452438509085120  1.0773529129154782  5.2559622088791427   T   T   T
 24.3721262773169300  9.2010406020503890  4.9053738111070171   T   T   T
  0.2351640902146772  3.1171459184771422 11.5964860159171899   T   T   T
 12.7198966452767444 10.4222061198473828 11.5133073539958986   T   T   T
 25.2903545805286925  3.7911531300546222 20.1143240191602573   T   T   T
  5.0931056834910233 10.0824347866673865 20.1908313738905285   T   T   T
  9.1609544663919493  2.5503744648279603  4.5001210359195536   T   T   T
 21.6739884380576520 11.0405393981166409  4.9092761819130875   T   T   T
  0.5391185585686166 -0.4119770279321702 13.4440880114398134   T   T   T
 12.6335635732841016  6.1695330880054318 14.8941864279463623   T   T   T
 16.6559955498190178 -0.1993432939893910  1.3201203910360326   T   T   T
  4.2869365068670069  6.5505015674371432  1.1506947755308321   T   T   T
  8.7576233605201352 -0.6030174816670475  7.1065198961880602   T   T   T
 21.0699086327879179  6.8619384227481071  7.0175753402745533   T   T   T
 25.0542479525373700  0.6638850347980405  1.9953431704284117   T   T   T
 14.5579542890564770  4.8220740117129282 -0.7623168692823314   T   T   T
 16.8216545157823028 -1.0283570573900411  7.8848320884760241   T   T   T
  3.9312866722093838  6.2826459771421668  8.1083166539581164   T   T   T
  8.3753118049219850 -0.3634413650357545 14.0160449917858649   T   T   T
 20.9275023610629027  7.3995079668073300 13.4112888414754021   T   T   T
 21.9371394458383939  8.3343263118962252 10.4268934732848155   T   T   T
  9.4329690672434623  1.3804909061110715 11.2763036171175166   T   T   T
  8.1518648128694178 17.3874880076476259 20.4456712553145508   T   T   T
  2.6550919160092543  0.4724127059587895 17.4033053998304723   T   T   T
  5.4196106949389744  8.1560652524105617  5.3949911051625659   T   T   T
 17.6108423184584950  1.1937716467458133  5.5093693734596894   T   T   T