Li P  S  Cl
 1.0000000000000000
    25.1819793006824639    0.0000000000000000    0.0000000000000015
    -0.0000000000000009   14.5388225279766061    0.0000000000000009
     0.0000000000000000    0.0000000000000000   37.2126966544236950
 Li  P   S   Cl 
 286  48 240  48
Selective dynamics
Cartesian
  2.3096681784265165  5.5344882224105509  9.1446445291433669   T   T   T
 19.7171595365517547 10.2926459185091908 11.2827432991015453   T   T   T
 20.6126041692734745  5.8456531701026266 18.0141818787102679   T   T   T
  6.0890709412999104  4.7436177004920212 19.3186121945780869   T   T   T
 16.5472357064386699  0.9643182886802160 -0.8959489358552671   T   T   T
 28.3418763502850055 13.6437354105763724  9.3888049027813132   T   T   T
  2.1362095272084320  5.5986669463675263  5.5324100792372830   T   T   T
 17.2777289046446896 12.2709184250529297  8.3615052274848995   T   T   T
 14.0275429662823363  1.5004715933777883 23.1243112410892095   T   T   T
  2.3477886793513436 11.0916335253813649 26.3454602827628364   T   T   T
  8.2461847330308782 -1.1584260697118884  5.6605809935774385   T   T   T
 25.5519833610823213 11.3275363262457596  3.4409953252603565   T   T   T
  5.5421587980902327  4.4623150221037085 14.7910198190416189   T   T   T
 13.7615652884469348 14.1247559515719630 15.4520975213143323   T   T   T
 18.8612095642203244  2.1703888392492052 11.3431475986031067   T   T   T
  5.2675283200935450 14.6740485523046935 21.5353755211051698   T   T   T
 14.9027157510759451  9.9321725227240627  5.0685579277361335   T   T   T
 24.4356223087696307 15.9280836108697663  2.9922217362561940   T   T   T
  6.4093036930173639  2.3751896401126267 11.8917059094943234   T   T   T
 16.2779058056205628  8.2443179070581571  2.6369989525159565   T   T   T
 19.8767197380699798  5.8985096613473802 14.2625270050352420   T   T   T
  6.2635504816801220 13.2949080171343361 12.7198342994334439   T   T   T
 10.9644863161885358  8.5219178948999961  5.4065799274564812   T   T   T
 22.8854265484359658 13.3411258919522098  0.1766266756059692   T   T   T
  1.2918955401664358  2.7213264571800990  8.6470730721990581   T   T   T
 20.6112865000116443 12.9880220999471767 14.5661244561430365   T   T   T
 19.9903407335094201  1.5425977197279410 14.1650538892909310   T   T   T
  5.3188470414811331  9.7956484025823123 13.4841171017527124   T   T   T
 14.8507220924464853  1.5035318693421247  6.0162252575334172   T   T   T
 24.5943889483303622 10.9400280170945159 -0.4682162347122449   T   T   T
  4.3845826515891675  3.9082812227519388  5.5758228221294965   T   T   T
 16.5724446661121192  9.6265034348265708  8.3329856515872702   T   T   T
 17.5867754489612409  5.0437636684811586 12.9120923341013238   T   T   T
  9.0386348553039220 12.4878641497750920 14.1632247019426085   T   T   T
  4.7695571827806837  8.4032869555035354 -0.7323960411864434   T   T   T
 23.5073379120510566  6.4768697346564919  3.6800718503100214   T   T   T
 27.3180651927009492 13.3601540862564363 15.0733579206167647   T   T   T
 12.9714503573200108 10.4872467092749275 15.2626572684617869   T   T   T
 26.4309438071847609 15.2120211227856039 -2.3776578115496037   T   T   T
  6.1775052137618909  2.0814195651418865  0.2200393937907796   T   T   T
 10.1904433589710628 19.1919124753655339  2.5634882100794747   T   T   T
 23.3745105265092477  5.5271090345319687  8.7412086540681155   T   T   T
 24.5509970479304442  0.2047918720133449 20.6774402795999919   T   T   T
  9.2078825694831679 12.3069180171769901  8.6598263454788658   T   T   T
 13.6813946605238552 -3.9204529686140006  8.0981277833599687   T   T   T
  4.1072993716467945  6.8434096036463874  3.5758097545897223   T   T   T
  8.5517122278084514  1.5106813829444066  5.5578331342702860   T   T   T
 22.2682739054060335  8.9617930058290369  5.5463989046399549   T   T   T
  0.0870262908399018  1.5870931549440925 11.4610421681582544   T   T   T
 20.7380721223339535 10.0441994709249300 22.1177951001235620   T   T   T
 15.8109636921619536  5.7929833674295326  8.4465214269563660   T   T   T
 -0.2074936287636094  4.3985088023711949 -0.7705701413451909   T   T   T
 11.3968232882549394 -0.5537594963229978  7.1837110792058327   T   T   T
 24.5674549957421817  7.9398386392263900  7.1519314774331999   T   T   T
 -0.8464111787284790  0.9473941343531475 15.0664056029262294   T   T   T
 10.7953622733143302 10.1511097062246414 17.7683810313288930   T   T   T
 18.4071486546881999  1.9486674668624131  2.8480094256568598   T   T   T
  6.3820402931677496  6.7006595287047981  2.0268357513728952   T   T   T
  7.3826844582781472  2.2005813507320151 -2.5692544744016765   T   T   T
 22.9541297355308700  9.4756671312586995  8.7545449346433184   T   T   T
 -4.2597045056645850 14.6309357294153131 18.0960553702878642   T   T   T
 15.5800504587082127  8.1918266217303248 12.5521597823585545   T   T   T
 19.7401936302554830 16.9603156623443247 -2.5933360870844875   T   T   T
  5.0684743714919831  5.5931052760192808  8.1402541490518114   T   T   T
  9.3991598037336512 16.8133870872847879  8.6808533433308437   T   T   T
 19.5957641292171587  5.2359371011434632 10.4877114877271733   T   T   T
 28.4049320580633236  0.9087889144601941 12.9280414278781741   T   T   T
  1.5197096425512848 16.8147981479540256 19.6737910610539437   T   T   T
 17.8524015621375298  2.7861184297822694  0.6104583748699485   T   T   T
  6.1345672714557526 14.3164517121048505  3.0072537415413372   T   T   T
  7.4002492587063928  0.1159611752282686  9.0775400504391310   T   T   T
 19.9855774194181279  8.2799824529922645  8.4334919871324256   T   T   T
  2.2706476665542086 10.0432130601404559  9.1793757884078016   T   T   T
 16.7114244437603361 12.1863985417626317  4.7848856555735990   T   T   T
 14.7398122272855563  6.2439192147146061 14.1136812554515796   T   T   T
  6.5854743790045243  5.6492226851034424 11.4811179935464729   T   T   T
 13.8447618297681529 10.8467811842594486  1.1239291510169085   T   T   T
 22.3462666638282741 -1.8674561451275788  2.9195570521520060   T   T   T
  2.6336266401456112 12.9169837056748733  5.2462666412206378   T   T   T
 12.3460115394058789  5.1099708083055013 12.5887051209479424   T   T   T
 18.1921842479157050 12.8556988195878859 12.6740614725835172   T   T   T
  8.4764142381620271  5.9390830135448249 14.4791448626676544   T   T   T
  7.9832366181515662  6.3583837618696828  8.7340901651870730   T   T   T
 23.7719891030026531  0.5250884490191481  6.1241425039053725   T   T   T
  1.8867083503609805 10.2254728191949091  6.1356108963187559   T   T   T
 13.4022915346300913  2.9936246710312888  8.1088284426606201   T   T   T
 26.5678138614447121 17.1824994486962019 14.9956587422603782   T   T   T
 13.8225657221414071  3.7773053031461465 17.5817545365237962   T   T   T
 -1.5104016945635534  9.3421275728355546  2.0590019908394863   T   T   T
 20.7172071878854283  5.8958125600412714  6.1454609984866666   T   T   T
  9.4465898378543702 10.0631682537787412  2.4636280512238207   T   T   T
 11.9843113264069743  1.9481209336989052 12.7950751115705277   T   T   T
 19.6544588753413620 10.1577438426919073 15.8758065813362972   T   T   T
  8.4810353403874661  2.1704005758649307 14.5044470205899465   T   T   T
 17.0474163717461877  2.8557406903997196  8.5571482252082713   T   T   T
 21.7508496459025551 -1.8424233071588227  8.1491947570153993   T   T   T
  9.4895421893368059 10.3294034173917133 12.6062285735646817   T   T   T
 13.6273830866404069  0.2178842015092688 18.6672194235658893   T   T   T
 21.8888633131972838 10.5926297028544099 13.0948342005836782   T   T   T
  4.8887474000498043  7.1523170471015920 16.8884378239477719   T   T   T
 16.7530228720219156 11.8301036490117966  0.5060014082723723   T   T   T
 34.2892197929957021  2.8586945253925511 -0.7787040742749566   T   T   T
  0.0441094834874864 13.0194657373729648 12.8570560694448908   T   T   T
 14.2841851550118282  5.8206513019542321  6.2123112212522384   T   T   T
 17.8321003231584072  9.2462294146615136 13.6264910736245461   T   T   T
 19.2949871636548096  9.0413309579860126 24.7709518746841972   T   T   T
 11.3968412668598322  9.2073941441495961 -8.5810406724407748   T   T   T
 28.9122492690729374  4.0556685815942366 -2.4739841484524039   T   T   T
 19.6796722102745747 14.0130037324314110  8.9936089509028747   T   T   T
  7.7946472500994579  8.0000155247764440  5.3563972317818953   T   T   T
  7.9321951932663595  9.7173242117101424 15.0391507710074066   T   T   T
 24.8938207839963894  5.4826709753015885 12.6931065744583744   T   T   T
  0.3452049074866819 13.4841796580140993  0.9096668071459634   T   T   T
 12.0808528109370616  8.2675485463651164 -0.0747569466432710   T   T   T
 21.3000181813658926  2.3685520990170557  8.3611481514552324   T   T   T
 13.7473991447710571  6.5450839805079770 10.3658920098051368   T   T   T
  3.3906842109369895  3.2557683855764705 25.3606539192505629   T   T   T
 25.0303601271406464  8.6093197559581789 11.2472091108198153   T   T   T
  0.7586323653650026 -1.7375462270001472  7.7752084069662724   T   T   T
 17.3246268378804515  5.1820034204348646  2.8672455462695816   T   T   T
 29.5351482017320208  1.6349969080134115 17.6437071153699598   T   T   T
 15.8447371728735540  1.3865797182627282 13.8163005670039922   T   T   T
 -1.4018463693966436  8.0768987510353334 13.9618513682362924   T   T   T
 10.0196513216988148  0.4301074737709407 -1.8254346912528037   T   T   T
 17.5102029144236084 18.4284252400255184  5.9988910099134323   T   T   T
 29.8493971733176480  2.5923598560648262  8.8277945783665626   T   T   T
 10.1392232290840578  5.5715196728114575  6.5357463149959889   T   T   T
 14.8274868200958672 -0.1570130011118374 10.9392428102731696   T   T   T
  1.0066894119965770  9.6090652883940884 14.0161626301371278   T   T   T
 10.7477503430400798  5.1732738093684842 -3.3965625316612309   T   T   T
 16.5522858476548294  3.1901445570987526 -2.6244165848639294   T   T   T
 30.2980335299903345 10.9409278988163976  7.3024548398037750   T   T   T
 12.7491104914931537  9.4188004933213527 11.8509191696543112   T   T   T
 13.3645337694492419 19.9247694853685431 25.0751561758219133   T   T   T
  2.1280773005199909  6.5454741333776374 14.6650379854810495   T   T   T
  1.9212787076838898 16.7077649610265411  3.5708842619043728   T   T   T
 11.7214366315783671  7.7474536833917362 14.4502678391166484   T   T   T
 23.6426970520442623 -0.0670296860620598  9.1316254597348738   T   T   T
 10.9682162988366709  7.8115603711421651  8.9721459638349703   T   T   T
 10.7922713405399335 -1.3259821691273292 17.1904591029069991   T   T   T
 28.3721634308118453  7.7526341658290372 12.2143956876938375   T   T   T
  2.0243283496591813  8.3421455201436103  1.3873235478893768   T   T   T
 13.9557613331268815  7.8871690661927616 -2.1710472086529227   T   T   T
  9.8820881683166775  5.5150630947075765 28.7489054859255475   T   T   T
 21.1950615195932670 12.7107875785841564 31.0910518623935488   T   T   T
 -0.8448752803944993  3.4592055595919233 22.5321237936705749   T   T   T
 16.3551239873545526 10.4598227514046833 24.0326924402696278   T   T   T
 17.4326625373640240  8.0343874930313284 28.4993309898871310   T   T   T
  5.3657694092477373 16.8360475773212137 40.1072037343585492   T   T   T
  4.5044608416814294 -3.3630080315684929 24.2883773980991720   T   T   T
 23.4090267570790189  9.8057322710172805 32.3190791193421063   T   T   T
  0.9992541248250698  4.5558752200607158 25.3479009248334499   T   T   T
 16.0460798793247577  6.4759899013999798 17.8404028921463329   T   T   T
 13.3605419141013275  0.6840055288492023 34.5015011629425032   T   T   T
  6.3074921482438713  9.4621263496882833 39.2335548988234422   T   T   T
 11.6572727446937741  2.5176658623675250 30.4657051599368387   T   T   T
 22.1097136160738046  6.9873690884831738 25.8106967311032385   T   T   T
  9.3789591590392334  4.2325795518970990 12.2404231513921715   T   T   T
 16.5948686050096654 12.7907846758207810 18.8529086875416709   T   T   T
 16.6379795621519477  5.5368963404347493 36.2512446032596074   T   T   T
 11.3664323477197637  8.2289792391378782 34.0279214429721009   T   T   T
  9.3132738344305128  0.7129011314661959 30.6450544340728541   T   T   T
 22.1860441332525085  1.1569710975545280 22.8827295632900771   T   T   T
  2.5913857898918957  4.6766018045261735 22.5049322998261125   T   T   T
 14.2010530300759239  6.7224362056631666 28.6739706122676807   T   T   T
 22.3350314565996229  5.5707144534615054 34.3760533346767261   T   T   T
  3.2291993564347052 14.0239876755421164 40.2158082610320520   T   T   T
 16.3196952301387483  4.8957956757150196 23.7905294245295309   T   T   T
 24.7089269771292805 11.4004656866914793 29.8508739940501435   T   T   T
  0.0704588905986934  1.4937098174924535 25.0427792987223548   T   T   T
 11.8466411987364495 13.2909096063261032 12.5436316997061681   T   T   T
 24.1257370085233021  3.3658794987013678 31.5061116671654240   T   T   T
 14.3399184303060760 12.3574076895122609 34.7249870801510525   T   T   T
  7.5037808129597758  3.5732484807762299 28.3877509620533779   T   T   T
 19.0142630874724077  5.5628613310456609 34.3191291841427812   T   T   T
  6.4909887563759670  1.5009269679610839 24.8284551630636976   T   T   T
 12.0270422167493365 10.0135370060299245 22.5537890424473169   T   T   T
 16.0969782735998592  9.6673604429802467 36.0022764166628804   T   T   T
  2.6036580969724912  5.0465135036438129 36.7783658199816301   T   T   T
  9.6370197825763189  8.8015363530475028 23.0392147728877887   T   T   T
 19.0946038622698282 -1.9635175252960153 24.9399620159671294   T   T   T
 23.5422939774729088  9.0402257034277369 28.6933813571988203   T   T   T
  9.3258994127073560  8.2717380923610975 36.5143590784552430   T   T   T
 25.7694418169699730  9.1197187213894217 25.6644508941313063   T   T   T
  3.8053909039386515  0.6616426742562449 32.2483635416192556   T   T   T
  6.8265000533967228  5.0748408032733661 24.4813076532092566   T   T   T
 19.8635153143568388 16.9139538262957849 24.7098373601791117   T   T   T
 20.6762631215187724  9.0637054481520352 30.6369664065724834   T   T   T
 19.7788521602788450 -2.1936758052702738 36.3660733145243853   T   T   T
 12.9048655737856723 12.3069122409852731 24.9194803414415347   T   T   T
  4.0996751599908867 11.9958990119383344 28.9708424631917723   T   T   T
  7.4284212542715116  8.0535557000670082 25.9079804165994396   T   T   T
 25.6370525473869222 20.1220602479010822 18.9440165148766120   T   T   T
 -1.2476621115635256 13.0333398635621869 33.6728387980753752   T   T   T
 16.2385244077240003 16.5275171563336798 28.5596366877334944   T   T   T
 21.9493487405199019 13.8963426485115882 25.4167394578224766   T   T   T
  0.3452600727753322 12.9194606296243641 25.2351097232208836   T   T   T
 13.0878041776420559  2.3816786895292474 25.9121023275113345   T   T   T
 18.3363169099764463 15.5232300617261920 22.7951807162759046   T   T   T
  5.7563242201490654  5.6470762370788732 29.2407303627853921   T   T   T
 14.1146621992133667 -11.6790172553286133 37.5110399971535884   T   T   T
 18.3831482149999488  6.5626690323193086 31.0244701766573634   T   T   T
  1.5750747530427927 13.2694440074968369 29.7586985907031902   T   T   T
 11.7559744575885166 10.4544700860498878 31.3583825750916994   T   T   T
 15.4660712776306575  1.0689734255449175 31.8998141943948070   T   T   T
  3.0526203710572615 16.2638668287120858 37.7624324280869388   T   T   T
  7.8830757531617426 -4.5370774877150835 33.8439659039444223   T   T   T
 15.3548643146897899  9.1903133662275351 30.8076860343171006   T   T   T
 10.4281827795302178 -0.6612757413094361 24.2640268970618465   T   T   T
  7.1758523213940189  6.2668149399738136 21.2893642355857011   T   T   T
 20.5569172074148483 13.6268161238357592 21.4042406794011626   T   T   T
 21.5626302679650834 11.9349429703907361 28.4723397254343809   T   T   T
 19.4933992647814449 20.3733406606118841 37.3017884576269836   T   T   T
 14.2592210560543027  8.3499050646103434 22.3705879490626742   T   T   T
  2.9227086627191117 12.5563882991675442 32.4174936541892151   T   T   T
 11.9739039541550074 12.1352586072733857 29.0183221835594765   T   T   T
 19.9440027602177992  5.2561284173217491 22.6455245332005859   T   T   T
  7.5894290899445638 11.9455259704578118 23.2232778012742180   T   T   T
 12.3457280549900670  3.8276418466578739 23.1173869984369880   T   T   T
 15.8944801499052470 14.6802258060433530 39.5337066531724446   T   T   T
 10.6265067216220110  5.9619769397376565 37.4838577395716612   T   T   T
  9.7821299513342073 16.3943148944461576 28.0015146804994508   T   T   T
  1.4017061951743017 12.2086737859126906 19.0324402497776752   T   T   T
 15.4655147511714635  3.4632488811925408 26.4094095268724409   T   T   T
 19.7519831875205298  9.6600747715425612 34.2074156421980575   T   T   T
  2.7062864377686742  5.0946582629922936 30.8250977716311283   T   T   T
 15.9916445276228849 12.2857668146434129 28.4470031777676091   T   T   T
 28.7727901280541474  1.0039415292844063 28.4940636983306987   T   T   T
 -0.4840508807463952 11.1149661144955445 23.2674854650804903   T   T   T
 22.3211444909189680 10.7568519365525894 18.7677621742378342   T   T   T
 19.3486885315871362  7.5544063201384333 40.2250674079572264   T   T   T
  8.7721142678758461  4.2241607309563278 32.1667861567765527   T   T   T
  8.4710246933640860  8.5078280379800120 30.2384223152932243   T   T   T
 20.3662964786844043  4.0186884319123015 28.7619774446807348   T   T   T
  1.9563889484209918 12.4211130007924915 22.3782258540628760   T   T   T
 12.1365648735274139  6.1008305408596257 20.1721880824984865   T   T   T
 11.0035613271400532 11.2326519657600343 35.5770997328621945   T   T   T
  6.2935030636942182 -0.8177586363189403 37.4970941296704012   T   T   T
  8.5614937178944110 11.1562038845195346 28.4228911488073557   T   T   T
 21.5241179795024138  2.0078278453339409 31.3250890497911811   T   T   T
 -1.3548716199706268  3.9171459376129509 16.5760188170477534   T   T   T
 13.1848238060577305  9.1827494829816345 25.7098560443122572   T   T   T
 22.6367923574754712  8.1787585941352745 35.2698637661738843   T   T   T
  9.0923501814447150  0.3295240954012412 38.7597294264839007   T   T   T
  9.0784658796092206 11.6054754762861521 31.7340628103695970   T   T   T
 21.7072415457384977  5.9829123315829627 30.1976951055988785   T   T   T
  2.1724919135813425  8.9315256210706337 22.3901485609324098   T   T   T
  7.9237381040943697  2.2505901617662212 22.1217998614569780   T   T   T
 20.4545419927975800 14.9449172922643037 42.6502384899946776   T   T   T
  6.1133773999348229 -1.0367131479005307 30.6015199066578774   T   T   T
  2.2582918674670380  8.4177504007283837 30.5171137056250110   T   T   T
 14.9763541450232651 -2.0215838790501515 31.0099488849222205   T   T   T
 19.6009528758905134 -5.4377751860929964 19.0502581801048692   T   T   T
  9.8418980599028334  6.2742495900411424 24.2280066756627370   T   T   T
 14.5820137687392499 13.1662454704275085 43.7065464839627111   T   T   T
 26.2384954873569498  3.6108928861491250 33.8101066963541967   T   T   T
  1.0877160708603335  7.6101781858957516 34.6188941585053271   T   T   T
 14.0305242838662192 14.6779916453459904 28.8734549623504257   T   T   T
 11.7038177894991744 13.5101571089635968 21.0699658046670670   T   T   T
  6.2588696334904830 10.9823042636925585 11.0174787270900918   T   T   T
  7.7791742130169297  9.0664948912614456 45.3443893850210600   T   T   T
 25.0616919629390082  1.5616860484637651 37.1382583034318117   T   T   T
  4.7279266554723289  8.6320183465384588 28.3444077010723881   T   T   T
 14.7743092197655397 12.4752263097254144 22.1379580562567639   T   T   T
 16.9149264559089048  5.5930053429705815 28.4854434989712963   T   T   T
  8.6471624766908768 15.7299580608470961 19.5482456256258175   T   T   T
 15.2189056513365060  5.7625603758036616 32.0861753825635105   T   T   T
 -3.5653610424239996 17.5450515351913232 40.1654236827081093   T   T   T
  4.9536287380463797  7.2613196957805792 32.0793560538152178   T   T   T
 18.3400220836733183 -0.3162736366498299 30.8467948895066755   T   T   T
 24.5990048697323545 10.9555664805472190 16.4016524010455811   T   T   T
  6.1792964399623349  8.3020751666909796 23.1011211863667931   T   T   T
 11.3426462158209436 12.9566796140190164 40.1913554526629753   T   T   T
 -2.5411383961707221  2.0149526466836374 28.4171971651160042   T   T   T
  3.0032213971724766  5.6375410443703453 27.7512094330468528   T   T   T
 24.6571528193956055  4.6125506689259250 28.6415023258960559   T   T   T
 22.0735452913887400  3.7760168915920462 12.2845537854225100   T   T   T
  1.2168377296245612  9.1452520632271508 19.2658148313977300   T   T   T
 17.3017490574408228 12.3919021304860806 34.2534074882378832   T   T   T
 -6.4842655023870632 -6.1552582788577892 36.4606675635018576   T   T   T
  1.9110459738733061  0.8347377623526732 22.8019703969632772   T   T   T
 18.5619053847862645 14.8936708669772351 27.6681131495453307   T   T   T
 23.5246244020343767  6.2055434405447274 20.4450764310969717   T   T   T
  8.0555084262398964 13.4032191504047091 26.1173754982972213   T   T   T
 13.5726826686274986  4.8227102031511802 34.5803434815400266   T   T   T
 23.4406511000879405 15.3726214730523338 34.6142007141360750   T   T   T
 -3.7079959462816832  1.0108541709816810  0.1518454142068961   T   T   T
 12.7071249532006902  5.8539990717969337  2.5436917515327626   T   T   T
 17.7559646473210648  0.1526061443026561  5.7372564221398985   T   T   T
  5.0991599394389047  7.8853922375532353  5.9907759078340224   T   T   T
  9.4171545649155188  0.2085488737068117 11.5322968988880987   T   T   T
 21.6129696729740388  7.3714246958189973 11.6354719106036146   T   T   T
 23.8002956507434931 11.5797960527616119  5.9709176325683320   T   T   T
 11.4061560816094296  3.3627873421800061  5.3113720256832169   T   T   T
 15.8022165703853954 11.1175755970013519 11.2466443665336993   T   T   T
  3.0201066565952193  4.0501275217200687 11.6070807341267308   T   T   T
  8.0200102500678785 11.1244673522989643 -0.5593599191992984   T   T   T
 21.3075058815796297  3.1798414907906931  0.1217485321757946   T   T   T
  5.0518639686487150  0.3739252966283976  6.0757743656422685   T   T   T
 17.5114580563942184  7.4484852753553525  5.8031376697876187   T   T   T
 22.0676263767253857  0.0190605727340445 11.7121102090421481   T   T   T
  9.5647926660765776  7.9307977896253421 11.3855505505956174   T   T   T
 12.7804686103635969 -1.1789717898409444  0.3197970821947176   T   T   T
 -0.7671289913013968  7.8757155155386345 -0.1564430488777259   T   T   T
 24.0152743788341496  4.0433620885915449  5.6797823033472659   T   T   T
 11.6954388125930144 11.3387270215472853  5.2129769540169804   T   T   T
 15.2253544007522397  3.7538042937135940 11.4488676701522110   T   T   T
  2.9571731337611045 11.4876526732616675 11.9915323501125552   T   T   T
  6.6357307477742999  5.1390688728792444 -0.2297719118701264   T   T   T
 19.8297367788127730 14.7843907302408155  1.6828379342574635   T   T   T
  7.9548410668518956  7.3759224399427481 18.2796474476124935   T   T   T
 19.4287222218939988 -2.3942983771354700 18.5737807092550753   T   T   T
 24.6908470604519508  7.0305777516369350 31.3306151185485966   T   T   T
 11.8026387753935804 14.0786796924998221 31.5862833147759368   T   T   T
 16.2624190649561413  7.3524767348725950 25.3495778668569294   T   T   T
  3.7617957023298834 13.8363942278108460 25.7798967568943453   T   T   T
  5.7251765653381330 10.4800003797803001 31.3924980696669351   T   T   T
 18.3683293435706432  3.4578640845894633 31.3039361258506439   T   T   T
 22.4892270805119949 10.8669591895472735 25.8347437892374607   T   T   T
 10.0050877834454344  3.3385792548892739 25.3043798297926337   T   T   T
 13.3196354988052423 11.2904065195717820 18.7023469516713128   T   T   T
  3.1600479964473718  4.5917137446825054 17.9358491287700019   T   T   T
 11.8496815497557897  6.8475769882324231 31.4855587716516858   T   T   T
 24.8141251208194262 14.5841448375940992 31.6198889204660283   T   T   T
  4.2822822356368437  7.0668021009248401 25.1904286088174239   T   T   T
 16.1231397652163295 -0.1310435565251569 25.5454742378381212   T   T   T
 22.4339080600658818  2.5693554687635118 19.2003603050273952   T   T   T
  7.3356317179355024 -0.2731413144772438 17.2084817389475191   T   T   T
  5.4809343130671895  3.3369534086588186 31.3792649540266879   T   T   T
 17.9163384726710575 10.4677048766311458 31.5700766946903109   T   T   T
 22.4255837279129224  3.6764223158246483 25.6728875059012118   T   T   T
  9.9406220489549781 10.7391746522383080 25.6029229855175089   T   T   T
 12.9533524073907333  7.3680583596735323 17.6849899719372985   T   T   T
 -2.1014236363964209  7.9989703189050232 16.9589599515505007   T   T   T
  4.9233742443102662  0.3564364561466694  8.1623726428177488   T   T   T
 17.4663925314488679  7.6463745476855962  7.8331900144751714   T   T   T
 22.2973776402132344 -0.0099993023766482 13.8810194324571263   T   T   T
  9.5652727385825251  8.2417765012457913 13.5170847786003172   T   T   T
 14.9028705925194078 -0.6258007291012088  0.1789582155114468   T   T   T
  0.1208121948472038  6.9672534919171607  1.5199236510583427   T   T   T
 22.9239797156298977  1.8322590305564703 11.2429413802634421   T   T   T
 10.5016773461563684  9.5302384230055353 10.6446891645189829   T   T   T
 11.4607794340679892  1.1256395308719029 19.8305278031724335   T   T   T
  5.0618226288582129  4.4436696077496602 17.1958851438323421   T   T   T
  6.2662076441109855  1.9095216709407441  5.5590995883932832   T   T   T
 18.3550191320569454  9.0129932624286724  4.9075882097401520   T   T   T
 22.9502349868204973  5.7229373945253004 11.0345662431159788   T   T   T
 10.2093348488665399 13.1392485397707546 10.7440023977563222   T   T   T
 14.8018800604131293  6.9098042372830673 20.1405067673841494   T   T   T
 -0.7787625639392203 17.9854830054881205 19.9631249882005726   T   T   T
  5.9825746983520229  6.1613826250638324  5.1329155721248352   T   T   T
 18.8232175443685534 13.0321784423423992  5.3661205612401970   T   T   T
  7.3826508924794823  0.2226314203442357 11.2864112541318278   T   T   T
 19.7622575376801421  7.7053062357671518 10.7139798650024058   T   T   T
 20.4739730419099502 -3.4766218798328832 19.9762122035003102   T   T   T
 14.5227063707155732  8.5373887537430981 18.6810975693055070   T   T   T
 15.8571869774837513 -0.3566450720099806  4.8277887839172537   T   T   T
  2.9845852398774180  7.7753219672837748  5.5163466932057865   T   T   T
  3.0035244487427617  4.2737326775493170  7.5009569422004834   T   T   T
 15.7626963332783099 11.2622131117384363  6.7779176203433362   T   T   T
 19.6810811722451646  3.9445654146849369 12.7544575539525997   T   T   T
  7.1540693192230549 11.2059588441641225 13.3527220834363121   T   T   T
 12.3522827185497004  4.1119199966683615  1.5216163513379022   T   T   T
 23.9736295243762285 11.5832304692424515  1.6365166991136699   T   T   T
 23.8258797116695149  3.4955621101284411  7.7797003406998320   T   T   T
 11.4975657152102428 11.1210016718011708  7.2244619242669081   T   T   T
 15.4004956032249414  3.8744196502137727 13.4293283240068071   T   T   T
  2.8815100799215263 11.1068328661645417 14.0082103953610844   T   T   T
  7.0378609671026249  4.1094056597407258  1.7584877283409648   T   T   T
 20.4608909179616134 12.8819930933479085  1.5622401888160551   T   T   T
  4.1432087361680825 13.0721360991354025 11.4558459492453011   T   T   T
 16.2343202938193514  5.4229506606645135 10.8151311706329754   T   T   T
 18.2317266217518394 16.4941828426790096 17.4185933651943685   T   T   T
  9.2346971890683509  4.5375008083174269 19.3275392006566697   T   T   T
 12.6437381825771595 13.0910807709644139  4.7607129225090628   T   T   T
 24.9981866931751995  5.8028363314710028  5.4310557058354751   T   T   T
  4.2490998765001455  2.3589448315288877 11.1791071720373250   T   T   T
 17.1731055816099385  9.5006053375205681 11.2732552806168567   T   T   T
 14.8742410318572436  1.5945000614221938 16.8174504812252792   T   T   T
  7.2875732636482562  7.6653320562065757 16.1766161167810196   T   T   T
 12.0264224913506581  0.2806862879486809  1.5539068732830776   T   T   T
 24.6439034909080519  9.7994955158622297  5.2580336248796247   T   T   T
  1.2681153019084761  3.7690359890426532 10.6791653038881691   T   T   T
 14.0454815130021515 10.5998767092001813 10.2887559790728140   T   T   T
 16.4266149712767202  1.0351299694511389 18.0609493080416499   T   T   T
 -1.0412726426724395  9.3717327291484196 18.1753018880264392   T   T   T
  9.3664492612508479  3.3857610360687556  4.6305259696557250   T   T   T
 21.8644488899137173 11.3360362826179717  5.6282759315239339   T   T   T
  1.1844652770520407  0.5352282428375600 13.7489165187491853   T   T   T
 13.3683569522592087  7.2960287768271650 12.8194163922925171   T   T   T
 17.8604403719471634  0.1993050858565260  0.9530325483792028   T   T   T
  4.4273619456138125  8.2057845920083849  1.6120401815916297   T   T   T
  8.9832729690620088  0.0383421592236615  7.5649380752790067   T   T   T
 22.2506088268505806  7.6812931299122136  7.4960838515269295   T   T   T
 26.3739253745978885  0.7359090359563452  1.9985628840069625   T   T   T
 10.7685951415257346  7.0547194666591970  2.1850097613762314   T   T   T
 17.2996656276646874  0.2735913335726340  7.9641983390658675   T   T   T
  5.2812826911519437  8.0291438278156981  8.0424363351668848   T   T   T
  9.7241044173535975  0.1818569060131016 13.6370055517334521   T   T   T
 21.6032298346061538  7.1521081298322882 13.5006562025926709   T   T   T
 22.7050115788595690  9.1130576271436503 11.1961494902425507   T   T   T
 10.1172334641296224  2.0687244094183290 11.0423931599808665   T   T   T
  7.3096622557265931 12.3063142825659639 17.6685199876409449   T   T   T
  1.4451404137817032 -0.4032428199942779 20.6518931763937914   T   T   T
  5.9962516795345504  9.5290659331258745  5.2449570749288430   T   T   T
 18.4662324704771237  1.9813605664950174  5.1799150048301268   T   T   T