Li P  S  Cl
 1.0000000000000000
    20.5609999999999999    0.0000000000000000    0.0000000000000013
     0.0000000000000033   20.5609999999999999    0.0000000000000013
     0.0000000000000000    0.0000000000000000   20.5609999999999999
 Li  P   S   Cl 
 190  32 160  32
Selective dynamics
Cartesian
  2.9644039928916772  1.0901031877776108  2.9426517240365482   T   T   T
  3.3165793310028797  5.9944662219966371  8.2338678698299805   T   T   T
  8.9598807014539616 10.2873729655404809  1.9317146575433111   T   T   T
  7.9642560811782683  5.4356759561962171  7.5567939900327081   T   T   T
  5.1088806649755512  8.5028823506291911  6.9007395508425393   T   T   T
  3.4081372852944583  5.9197532488916522  1.3553550379145540   T   T   T
  7.8575228870912639  0.9864363911174583  7.5246527388067843   T   T   T
 10.2457219739368526  7.4356281603183065  1.5587317418337439   T   T   T
  5.7949570418734746  3.5434587416033261  9.4819433800416402   T   T   T
  8.1198434108804403  5.4710323504334859  2.6943328030095675   T   T   T
  2.8890687516212763  2.8878196214366860 -0.0443731058875290   T   T   T
  2.8894685779675733  9.9328588342564057  8.8155565086473242   T   T   T
  4.9892654018725269  3.5818978356001807  2.4639436782951551   T   T   T
  5.0898136703443120 -1.7463038079783522  7.0455302246192861   T   T   T
  2.1201383159455336  4.9479879385713730  4.5201111822586073   T   T   T
  2.8188931099117394  9.8988827801471722  5.6128254804347479   T   T   T
  8.9860634272644546  2.8584741154806328 10.2497534715845671   T   T   T
  8.7867052877107259  7.2726641538269883  4.7516912118267536   T   T   T
  0.9481380748896611  8.3424044656231722 10.0590429697741346   T   T   T
  0.1829866956996836  3.0314860147009117  1.7473085918158944   T   T   T
 13.0083955020309041 -9.4086222871720917  0.7824949449581659   T   T   T
 -1.9701027521713923  7.7574118115964508  4.9709383581990449   T   T   T
  5.4165191146655944  2.4693406277383736  6.9909457370097048   T   T   T
  0.5546366412321819  7.3192456813350280  6.3955384095637458   T   T   T
  4.3524437027126321  0.7476645019964733 13.3695439164193441   T   T   T
  2.7547523077936242  5.8624642463303616 18.9312023269840601   T   T   T
 10.4108626648335125  7.9470111657427926 12.4625907859890770   T   T   T
 14.3345677242310821 -2.9712337479283133  9.5129753395585404   T   T   T
  1.7200293108747893  8.2899735009665552 19.9387638865121168   T   T   T
  5.1778521719692474 -7.4341377098570369 12.2745723790610732   T   T   T
  7.3498182624511514  2.2831018090787665 16.3872577028159938   T   T   T
  5.4605880630078802  7.5443444509226101 12.7657835472197796   T   T   T
  5.5836357116248010  3.5801223887852069 18.0797624879420376   T   T   T
  6.8548858099784153  8.4312518079122807 14.9224142219037557   T   T   T
  3.0491846788471753  3.4208001396861802 10.8226048071379122   T   T   T
  4.5166547243721418  8.3829285375512725 17.2025837431627444   T   T   T
  4.9405985796990164  3.8941715476509775 12.2252546613354447   T   T   T
  7.9687765625555631  1.5672510340300576 19.7772930132677267   T   T   T
 -5.2532302818873919 -3.3715988464242028 17.1974588212130470   T   T   T
  1.4813018971577034 -0.1928876812777659 18.9624956950550434   T   T   T
  7.5125927860516555  5.1436836137437014 19.7180406228160621   T   T   T
  7.6854137417756876 -0.7445255077274460 14.4376605442310613   T   T   T
  0.0952647942656755  6.9102645924874162 17.2272351415847851   T   T   T
  1.2733623297831786  0.6314095248758959 12.3294484834184157   T   T   T
  1.6921434580562109  4.3594860236103905 13.9594390542864524   T   T   T
  2.5450421847043279  7.4965876372622340 15.4942750511021003   T   T   T
  6.3485106437325971  8.0435978947859166 21.0328244812684311   T   T   T
  7.6270290536107987  9.9047526788825468 12.6242060472558890   T   T   T
  2.9013349837154041 10.5465533048965412  2.5060647135898795   T   T   T
  1.9088810049245635 19.1385778778183173  9.8886299382754110   T   T   T
 10.5498119383258775 12.6884142289495401  2.8326092358990209   T   T   T
 10.1497248417303449 13.2741130953956059  7.6923292877155189   T   T   T
 -2.8727457399937153 21.0317444164901062  7.8563418742601181   T   T   T
 -0.0312811088680372 12.2988173779049461  1.7129756151873770   T   T   T
  8.6911116545224374 14.0939342590809442  5.1377580575931141   T   T   T
  7.2409709535080440 18.6931451889092131  4.7677270834340986   T   T   T
  5.7298677380810847 13.9920143654991804  7.2337449989840330   T   T   T
 10.1343150627751726 17.7107037438634372  3.2053802245065368   T   T   T
  7.5675122523583358 15.5190608824414031 -2.9713656541268247   T   T   T
  5.6783090519604293 18.0458771713937338 14.5731919860350843   T   T   T
  7.5132559081181496 20.4456442974650194  2.3332945759666299   T   T   T
 -3.7165918281919263  7.7896688956862130 14.6676096864637362   T   T   T
  2.2942957604026288 12.1242489070522890  0.1898486247614828   T   T   T
  3.1189216036800311 19.0171482711640785  4.4250837871144997   T   T   T
  7.7351909232393625 11.4672728944783486  8.9916707909053937   T   T   T
 12.4779426094835522 25.0532958013845324  3.2822424877404730   T   T   T
  2.7207024628028691 16.1758027481529290  8.2737819466470146   T   T   T
  1.8528730082303204 13.2223983272974461  5.0804639530466922   T   T   T
  1.8734187589425173 15.3120769635395622  2.8009654814478289   T   T   T
  0.0259430354470646 17.9903951667239639  7.4421768023296657   T   T   T
  7.2489120921163792 10.8366890062419650  5.5633398722988696   T   T   T
  8.0348937986819582 18.2789795372705086  0.2920295504730717   T   T   T
  8.9991723240209325  5.8801732882206474 13.8823959930332013   T   T   T
  4.4727005539542537 13.4420106248124149 22.8842140021189309   T   T   T
  7.4689747303907428 16.0149379725533940 12.4579745690380381   T   T   T
 10.1004235814243124 12.8544059553822265 18.1321714571394814   T   T   T
  4.6233426405631706 20.0372911784761349 18.1455081848213240   T   T   T
  2.7583868307549699 14.7597781815013533 13.3290559714359365   T   T   T
  9.1353101461348203 13.0165487115534884 15.1216643532805417   T   T   T
 11.1519092718281918 12.8803408887806139 11.3169204937498868   T   T   T
  5.1738154816699362 17.5314512166037204 22.7145963542772620   T   T   T
  7.1883578492918305 18.7522066745645510 11.1495054064250088   T   T   T
  3.4053927292109805 10.7710098842905424 13.4271873378819482   T   T   T
  0.5357760787956387 17.4123908779305729 18.9524015821507881   T   T   T
 10.1227116964561468 17.3450338301562468 14.5776315831473102   T   T   T
  7.3384572719562513 11.0431393659298127 17.8033012275530815   T   T   T
  5.3131756122886058 12.4109114970626671 15.6457364080634207   T   T   T
  3.5472879269412485 16.3125574040782588 17.5829646558460730   T   T   T
 10.2069255137544470 18.6629723234082832 12.0286621044167941   T   T   T
 -2.7333148817283521 22.8799226079821416 20.2076095115574539   T   T   T
  3.1886213253029445 13.3697843961317915 10.2788005044624260   T   T   T
  0.7710970287254219 12.9724818069122865 13.6011727332350763   T   T   T
  2.9975287636424199 17.8390799761176915 20.7915282447404053   T   T   T
  5.5758199554987433 13.8606238854913304 18.9379939231869265   T   T   T
  2.8357767430952623 20.5810650727683964  7.4411558590525857   T   T   T
 13.9144682974147873  4.0818787242075034  0.7601046098118945   T   T   T
 10.6674028449170990  8.3218917696241306  7.7219526629994251   T   T   T
 19.7851478793880133  6.1003973334993304  2.7220254500121279   T   T   T
 17.7318215016019458  5.2379025677117967  8.7652350252599120   T   T   T
 11.8361019989103742  5.2201391376077977  7.3717477194050725   T   T   T
 10.7585685716731163  7.0704899490969302 -3.4173769353823982   T   T   T
 18.3170005679763790  3.8858069849901837  5.5293605571678466   T   T   T
 15.7111180103009840  7.1736809872269909  4.3410765435937053   T   T   T
 19.1012279584384892  2.4443648817661598 10.0720064544448036   T   T   T
 15.5240184676460178  7.5393470977225157  0.6899693664611263   T   T   T
 16.7308668391221680  5.1239968344637425  2.4061237416598940   T   T   T
  5.5398054096166227  8.1632102235305286  3.0931328888831473   T   T   T
  8.0962068172848127  7.6297451903609774 10.2593726100093114   T   T   T
 15.6866359828870650  2.9364451956231297  7.2811989028052650   T   T   T
 10.4696501747315338  1.7622353084955467  1.9609275001115050   T   T   T
  8.8836197534480057  3.3354303510390078  4.9615788910927865   T   T   T
 16.7235201282284933  9.8062682589971022  2.8785097632687169   T   T   T
 19.9859868269204952  7.3981409548008612 14.1767158509345972   T   T   T
 12.3894874916311011 -0.2855082815952319  1.9295787017921895   T   T   T
 15.0048371846664459  2.1864144181099197  2.8642980427825928   T   T   T
 13.0024748099694794  7.9460441038156011  9.7127976269987695   T   T   T
 20.0834603401572593 -2.8318356243781695 14.0026208428726200   T   T   T
 22.8548911462499227 10.3901719444704828 -2.3092688781741297   T   T   T
 12.8280313375175385  4.0722825877178384 11.6217136073025031   T   T   T
 11.7566273654244213  8.2141275091150678 19.4020810055959991   T   T   T
 19.0175482754933398  8.1559716970124612 10.7822814359828332   T   T   T
 15.8275772222032618  3.5041650997096272 18.4817680530905619   T   T   T
 12.6798978475275899 14.6126742393492979 21.7141444528597525   T   T   T
 12.6029942965331987  5.1187285070382780 17.3048607366273650   T   T   T
 19.8017822081518027  3.5514962833458372 17.3101674651707924   T   T   T
 18.2169552442255558  5.2277122741788382 12.9344421900794195   T   T   T
 17.7217581942181681  2.2584829769821613 15.3341411174170545   T   T   T
 18.6176924592771478 10.4312123674838553 11.8953446493247874   T   T   T
 19.0346045700150732 -0.6619777166288220 11.7892839170055215   T   T   T
 13.1071928468515164  9.3630002269741688 16.9598589958537502   T   T   T
 16.2788583296879494  7.6293846338818900 11.4168613969484838   T   T   T
 13.2777744212920386 -3.5955858501233435 19.9448686429233071   T   T   T
 10.1377003281458435  3.2108520946472456 17.4606039707054528   T   T   T
 19.1483190384730619  9.0800251541473838 21.5104877228210931   T   T   T
 15.2404173220723482  2.1195142692964350 12.9278744210110172   T   T   T
 20.2509079632932796  2.8580919994864145  7.4111493276486966   T   T   T
 12.6362030845986126  7.0357335235125520 15.2056947025290672   T   T   T
 13.1655951329852297  4.6907513809492807 14.2071358581483338   T   T   T
 13.6388360978014465  1.3310262958972949 15.2809970566250648   T   T   T
  3.6119772740876170  2.4099094910126810 15.3087207242760091   T   T   T
 19.0228605293593773  0.2470540751989063 18.3301564008635545   T   T   T
 19.6550395263115369 13.3331779643624913 15.7184017179078950   T   T   T
 13.5812035245638665 10.3514848531658412  7.7051290905545660   T   T   T
 14.8281770011628122 18.4397677456431559  5.9150717737428788   T   T   T
 19.9404588412079811 19.1885228008346438  1.5592164901782166   T   T   T
 18.3362483350443455 13.0602157517980100  5.1944764890237574   T   T   T
 10.6113875815361123 18.5651726306065008  8.7156775939773325   T   T   T
 17.3435735589776137 10.2615136463607044  6.7091912589937825   T   T   T
 18.7910030280401408 13.5988475124019228  9.4437284234091035   T   T   T
 18.3386189751030741 19.8042268036014129  3.7490115142275449   T   T   T
 12.8649071935381905 10.7855998794751411 11.9035711533276753   T   T   T
 17.8823804249778142 16.0266258549518668  1.5800554835307405   T   T   T
 12.4456070938351786 14.8710673419042099  4.4157527965860499   T   T   T
 12.1092783941967355 17.7391526873681471  5.8104878832361759   T   T   T
 20.6327463887424827 17.9121492119080301  4.0232894989721739   T   T   T
 20.0785838556137399 10.6416744613475860  8.2609361186805401   T   T   T
 14.7500063006592583 14.5550400224337331  2.5942191970763715   T   T   T
 12.5012384591260481 21.2899247763838169  4.4891295737114438   T   T   T
 16.1465958166792127 13.2574114361585522  7.2987679153608065   T   T   T
 18.4290423940321304 15.9991075505807778  4.5757441106753411   T   T   T
 12.6226982516880177 20.1762868894357617  9.0511280513513412   T   T   T
 14.9118059039448472  6.8708833417356390  8.3094700087917666   T   T   T
 13.7021398661141198 11.4210885938117013  4.2406626526217144   T   T   T
 12.7811457810335707 15.5439845515002926  7.6232307768946210   T   T   T
 18.6869938956586452 15.3283089025965680  7.2514387815117125   T   T   T
 15.6864100531984185 18.3906130786255630  2.7913326441955388   T   T   T
  7.6458242909604035 14.8083910569512582  9.1399475906917775   T   T   T
 13.9307443179272941 18.7693165843403023 15.5332108568698519   T   T   T
 15.9263359052759359 17.5529688482376081 12.9789230141430778   T   T   T
 15.8645774555038681  7.1879496003511916 17.8185177977966340   T   T   T
 10.4711690283219383 18.2270203970900511 18.0771808914741889   T   T   T
 12.0319601035835273  7.7285920855745713  5.4246405410951946   T   T   T
 16.4556101138074133 13.6637928874637034 19.5904598935007783   T   T   T
 15.3747205702866605 11.5313759022323303 13.8565780249721886   T   T   T
 15.7817589520930266 11.8412069952964139 17.2711157642896573   T   T   T
 18.3524404804242245 15.6674209218653946 13.5218299278810772   T   T   T
 13.3173007324827388 15.1583862107801774 12.7763089048274150   T   T   T
 16.2627545451093596 21.1255455301626327 17.8337929783656115   T   T   T
 22.6064730316605456 19.1198626898053838 16.2581502351745790   T   T   T
 19.3840127769209509 11.8273993289849120 18.9439742797354640   T   T   T
 11.1860175022743906  1.1728212821122013 12.2286637012256332   T   T   T
  7.0899533935685746 15.8215403613612438 22.6774196545501852   T   T   T
 17.9986762122226303 10.6855111610747784 16.2922449089134709   T   T   T
 17.7257138753735362 17.5168258692270697 10.5644229437244093   T   T   T
 12.7405278554514521 20.4409037733953767 18.7244744677392205   T   T   T
 14.7434337098260517 13.7189436981272408 10.8467972522580425   T   T   T
 12.5868283301657424 13.2987156013789445 14.9286088429112347   T   T   T
 12.2881735734440980 15.9132875239452929 16.6587637974626048   T   T   T
 18.1947081515623097 15.2568859987771273 17.4143779725598833   T   T   T
 17.8764318880935811 19.7992816351515408 14.4127479794837505   T   T   T
 -0.0561651718389653  0.4262613919004468  5.0943542909078046   T   T   T
  4.6683459366279338  0.3751202775054188  0.1837949835732586   T   T   T
 -0.1414535893373989  5.6784569367379394 -0.1905241155833613   T   T   T
  5.4468516466430916  5.2473551755517782  5.0304434507425020   T   T   T
 -0.0650309504432797  0.0139669414384047 15.2747008910374031   T   T   T
  5.3782931880364417  0.3829718270228631 10.2735635090695894   T   T   T
 -0.1096258828858821  5.4411072975592614 10.0704743923121871   T   T   T
  5.2739460164945644  5.3869751485066484 15.3394575253291769   T   T   T
  0.2206440541115827 10.5941679213234501  5.1272758843568011   T   T   T
  5.1332664459688706 10.6205341402403057 -0.0622007291922694   T   T   T
 -0.0412550861036098 15.6122592182413644  0.2083498125277303   T   T   T
  4.8839629544283936 15.6176854792206470  5.0754784256972840   T   T   T
 -0.0003130190006951 10.2775396965099066 15.5006537642074438   T   T   T
  5.2041276819118245 10.0267310328516182 10.2051358352381580   T   T   T
  0.0761050688776837 15.6038117649561432 10.4259175298933879   T   T   T
  5.2869281566378614 15.4070270697376728 15.6542530403524758   T   T   T
 10.1235402398231127  0.1551574318094290  5.1447950975988928   T   T   T
 15.3287597536926885 -0.2527639694284571  0.0939903092333074   T   T   T
 10.5667330862797080  4.8125970764612376 -0.1529195194932230   T   T   T
 14.8487197330542813  4.9724344436225714  5.2447220927264393   T   T   T
 10.5142754354530013 -0.1177368398552173 15.4536528463462535   T   T   T
 15.7165736509352936 -0.0709549864699461 10.2741603128287640   T   T   T
 10.4090154559618639  5.3311459039712812 10.2323197422262044   T   T   T
 15.6593004865481351  5.0187006838508470 15.2819470765794030   T   T   T
 10.3363991513353977 10.2602548673943552  5.3276896437882009   T   T   T
 15.8324060775811404 10.1294263560246911  0.0184567671849385   T   T   T
  9.8734483307623400 15.6447509057945897 -0.2839686084807139   T   T   T
 15.2519146774411691 15.1421732811531804  5.1689472252089246   T   T   T
 10.3305148107335949 10.0511871515499713 15.2413294581034737   T   T   T
 15.8828164035804154 10.6712878054842655 10.3186539856724195   T   T   T
 10.2194462484465998 15.5254591916454245 10.9510270932971192   T   T   T
 15.5394226809535745 15.2084841730099072 15.4284042252815077   T   T   T
  1.3584269830795648  1.4197068142846185  6.1955906514680539   T   T   T
  1.4312281585149043  9.4201809035333319  4.0246387719198937   T   T   T
  8.9213666404371281  9.2660245315512704  6.4472763061366063   T   T   T
  8.8186149875483757  1.1594428463961894  3.7913343402484774   T   T   T
  5.9295385602607000  1.5686202461496972  1.2516163396278890   T   T   T
  4.2184570468884388  1.5584943305302659  9.0989007065956216   T   T   T
  6.4137403372210002  8.6369365158258731  9.0446818579709998   T   T   T
  3.9123105560303668  9.2329671868469863  1.0629545738795911   T   T   T
  0.9795914698859624  6.7813551298094348  1.2292698611723194   T   T   T
  9.1692862851386927  3.8318135055092863  1.0902927868142440   T   T   T
  9.5760864290753442  6.6992684111239473  8.9328500118055825   T   T   T
  1.0146870872507487  4.0492099357517510  8.9933327115381871   T   T   T
  6.7113856903774112  6.5554398753935912  5.9402748221727864   T   T   T
  6.5832678290294453  3.7788150612786828  4.1706058629566414   T   T   T
  3.8698230472930404  4.5687910202883160  6.1282986572479992   T   T   T
  4.2357404969734196  6.3383431771909935  3.7167025054686444   T   T   T
  2.6697532721104489  3.3676950304201640  2.2243801038900193   T   T   T
  2.7955454264084842  8.2340325337306961  7.2549978000978363   T   T   T
  7.9467921156830332  7.6306784871597850  2.1180985440674744   T   T   T
  7.6474249268275800  3.0509486505279035  7.9248733441652028   T   T   T
  0.9391439007091961  1.1583298662771409 16.5369977722835131   T   T   T
  1.1372779103849850  9.1686470321275007 14.1812355288946321   T   T   T
  8.9532175503415274  8.4688252873730843 16.1040656690789490   T   T   T
  9.3928249060199143  0.9894411532542569 14.0840168849846687   T   T   T
  6.5268358997823031  1.4981557983011915 11.5756597605521474   T   T   T
  3.7880588719516148  1.3833938836982200 19.0822305734719215   T   T   T
  5.8369152879720829  9.3185104692807403 19.0770435611041371   T   T   T
  4.1666484248001980  9.1093384327139511 11.4426539552264632   T   T   T
  0.7445554657428503  6.5686973174006553 11.5951735438139174   T   T   T
  9.0200273023426831  4.8070813979083287 11.6023384522786834   T   T   T
  9.5556842541878204  6.2967025465910140 19.2758812225620417   T   T   T
  1.0210541344125319  4.3073973206271150 19.1756494694530915   T   T   T
  6.5285596006376023  6.5324901845372345 16.6782767878281426   T   T   T
  6.5436290786340461  4.2476232728450780 14.3158927017808786   T   T   T
  4.0849224646711555  4.3401078142017759 16.5243792889253704   T   T   T
  4.1306770384181606  6.3599002357264043 13.9362583879576558   T   T   T
  2.6341516341490330  2.4304710283448623 13.0106373009080158   T   T   T
  2.2055905404532870  7.8387169947140496 17.7036801621969211   T   T   T
  7.9381912462810833  7.6898985232195942 12.6565764996257446   T   T   T
  7.8256626256610122  3.0296460384467303 18.2640376352009959   T   T   T
  1.3909753613469003 11.6405062581269227  6.5133259636063325   T   T   T
  0.9857171996485449 19.8171309135875049  3.6083612071529871   T   T   T
  9.0409917358553358 19.6266603738281411  6.4708036264965374   T   T   T
  9.1775919364574126 11.3919580843652390  3.9534977560546358   T   T   T
  6.5027478414341138 11.4171703859207252  1.1012457223203855   T   T   T
  4.5432119214230209 11.5302320830632485  8.8563770187368505   T   T   T
  6.5489694607243649 19.8316094173609088  8.8702854925201606   T   T   T
  3.2570490771098366 20.0824870246477545  1.4096866333661076   T   T   T
  0.9753040630349108 16.9260374901254238  1.3596746783070583   T   T   T
  8.8479711044322080 14.6101196587649547  1.0040386900102660   T   T   T
  9.2845680018293670 17.0074148271893648  9.8595506938735777   T   T   T
  0.7521952899742608 14.3428210387571493  8.9704723917966476   T   T   T
  6.2818262880798255 16.6319497760612727  6.2857736822370782   T   T   T
  6.0002748517414108 14.3944161932560970  4.0614886535258403   T   T   T
  3.6802209747217094 14.3849882271187397  6.2288211894771264   T   T   T
  3.5639076844421038 16.6025890480158331  3.6898752133343944   T   T   T
  2.1159341312322097 12.9515971580710580  2.6366128291797120   T   T   T
  2.4141261899095787 18.3865171889422001  7.3296134877807528   T   T   T
  7.6170141062593473 18.2384964318948057  2.5514810082774746   T   T   T
  7.8613955406306619 13.1692844019346165  7.3851768130861188   T   T   T
  1.0043458226158635 11.8573724828518401 16.2997267756445794   T   T   T
  1.1474364942524551 19.5517932938377825 13.8622320861121118   T   T   T
  8.9213518130158107 19.3106297196403425 16.5633093715873514   T   T   T
  9.1005812275592746 11.2510301558831021 13.8625995237998669   T   T   T
  6.5340689262821954 11.1726278150795562 11.2935397645044393   T   T   T
  3.9977638655210157 11.9945431725941010 19.4033571509687519   T   T   T
  5.9412408136289923 19.4915308239701339 19.9385512069202449   T   T   T
  4.2248479077916272 19.4612495757069262 11.3424814053541105   T   T   T
  1.6409608794645181 16.6676170632544789 11.1494733751064317   T   T   T
  8.8128766970529728 14.1048739890403994 11.3945558080691320   T   T   T
  8.6433225516211998 16.9174623360208329 19.1560348047222675   T   T   T
  1.1872726125300119 15.2439194248944681 19.0204090680614328   T   T   T
  6.4526777908287869 16.9745864913760940 16.4844781212322822   T   T   T
  6.2315037892237113 14.2050957530440609 14.1232169766587710   T   T   T
  4.1377184167001761 14.1392154086920403 16.8062008022426426   T   T   T
  4.1205040468940686 16.4365390868890096 14.3438934688188304   T   T   T
  2.7613853480187442 12.7127292896612971 12.5686547771215107   T   T   T
  3.0998348966931890 18.3654725942961292 18.3055072911167542   T   T   T
  8.0957473225719312 17.9798839408653386 13.1688043449631369   T   T   T
  7.6794228297780966 13.5300247079427791 17.6245662213601868   T   T   T
 10.9947936033173708  1.7053281890067309  6.1502385930698980   T   T   T
 11.5852230437445662  9.2664331700739773  4.0604619225181997   T   T   T
 19.4785028514001084  9.3898268638015452  6.5046018950539617   T   T   T
 19.1862497353058359  1.4284498668586991  3.8017946890665861   T   T   T
 16.5817560225582916  0.9608206304543063  1.3939669428042678   T   T   T
 14.7747860719704196  1.1863248434561910  8.7260588516538196   T   T   T
 17.2966748933413079  9.4689321162555178  9.2251390492450884   T   T   T
 14.7737821775591129  9.5865863422743320  1.7141394135081067   T   T   T
 12.1093928818493062  5.6348991454762531  1.0495055001046196   T   T   T
 19.1536888569793540  4.4911661679433879  0.7486040577862424   T   T   T
 19.6340372606731108  6.9697281880097020  8.7651042925279903   T   T   T
 11.5350034590183341  3.8767472930659173  9.2670120165801961   T   T   T
 16.2737741665287032  6.1346948620492157  6.4162353420477043   T   T   T
 16.0348431940562115  3.5645606147004192  4.2024801568683996   T   T   T
 13.6288826690822287  3.6985714512345846  6.4196695816000506   T   T   T
 13.8064577455000919  6.1686708469156013  4.0805706582568391   T   T   T
 12.7487157824693558  2.1088599013811469  2.3108539854228276   T   T   T
 12.7089907950588898  7.6304109756043399  7.7152331056420627   T   T   T
 17.9265863886268839  8.0549244319793303  2.9312110954724111   T   T   T
 17.9770592880557949  3.0037904066079113  7.4829063848396009   T   T   T
 11.5231358642211923  1.1719567124417523 16.7713041384729316   T   T   T
 11.8199368243486056  9.0671858923683004 14.3057957096218900   T   T   T
 19.2901837660437359  8.8802696716206331 16.5112475761124351   T   T   T
 19.1739744493049784  1.1650963434221999 14.0599942851813626   T   T   T
 17.1769268298182318  0.9436632457619802 11.2050455747259363   T   T   T
 14.5315693151209384  1.2325029775157519 19.2786467350162489   T   T   T
 16.7714342107011163  8.7383635395422701 19.4716145298399965   T   T   T
 14.5581288166577885  9.2711535297836711 10.8540524737721498   T   T   T
 11.9293763449057089  6.3547903519863862 11.4224735788356409   T   T   T
 18.8937832491922499  4.4124117179000573 10.8468886922513654   T   T   T
 19.8111884459381535  7.1810669564927432 19.2614503708234928   T   T   T
 11.6607883834304396  3.5151664283401556 19.4535221835954673   T   T   T
 17.2593108966898861  5.8956988956631227 16.4586649945740859   T   T   T
 16.6883739944837153  3.6509753608046527 14.0739402244007881   T   T   T
 14.4085756661923945  3.8591293260938162 16.3816051290506444   T   T   T
 14.7362451712670453  6.2813926973525227 14.0370418372229739   T   T   T
 12.9170112364131011  2.4647321415919290 13.0797134800382810   T   T   T
 13.1434064743545651  7.3552175961226105 17.8792637258630123   T   T   T
 18.0220293765912345  7.6349766441809779 12.9834361803484715   T   T   T
 17.8283014987507435  2.4041713221373842 17.6646726581520284   T   T   T
 11.5144747441719701 11.5464114780437441  6.3861770333535368   T   T   T
 11.5122467826647572 19.2955173604575094  4.1962080357146831   T   T   T
 19.2890413084862793 19.7244131174101689  6.1645958643573904   T   T   T
 19.4412587223968245 11.5769007486550084  3.8766484081811248   T   T   T
 17.4065781160547495 11.2146762852596034  0.7256363313322431   T   T   T
 14.6549458502285308 11.8295356652215045  9.0433758437707823   T   T   T
 16.7969247017829346 19.1333316367929740  9.1914765727788978   T   T   T
 14.0281273441421295 19.1344649120620112  1.0991867300705587   T   T   T
 11.2262375095184002 16.8996486354707365  0.8442982916935414   T   T   T
 19.4400143911170176 14.1082604308662276  1.0263020689521076   T   T   T
 19.4672612482602467 16.9771365941623884  9.2430655186906296   T   T   T
 12.0060958906506201 14.5282033710305125  9.7995709830543092   T   T   T
 16.4436075655190095 15.9096156842755629  6.6462269852957059   T   T   T
 16.5271117109358485 14.2926830552481796  3.7723441247521405   T   T   T
 14.0961754770715650 13.6286901044697419  5.9640487523204451   T   T   T
 14.1362140528139513 16.5378921504285756  4.2806719952295813   T   T   T
 13.1010829049551365 12.7419332476464344  2.5397307799968072   T   T   T
 12.7935292635268496 18.0528292966250383  7.8548434866189645   T   T   T
 18.3777735624168628 17.7451215264632580  3.0127830957778854   T   T   T
 18.2125765468576084 12.6537081541116638  7.2446935571943660   T   T   T
 11.3232853473862267 11.2887809997407036 16.5096099254540079   T   T   T
 11.6119223657786144 19.3090932667706667 14.1240785248619041   T   T   T
 19.7877140337231161 19.2098786251073363 16.5820697674980444   T   T   T
 19.1334103096808938 11.3135191131540296 14.3029585980748521   T   T   T
 16.7284505082896899 11.9860315212487691 11.7244046800735884   T   T   T
 14.4614992777392786 11.0992893868315967 19.3335772581026042   T   T   T
 16.4631756322216241 19.0930273693921890 19.4380149145732730   T   T   T
 14.0675881731033083 19.7520956145863060 11.2095379683307641   T   T   T
 11.2319220125837287 16.6082804963579456 12.3920451484850016   T   T   T
 19.3665842496032887 14.5874533700146287 11.5027868954644639   T   T   T
 18.9913025248285621 16.8349798171158191 19.9820743954012698   T   T   T
 11.3325536744020194 14.6510924329220078 19.2757987155083832   T   T   T
 16.9341694181603941 16.6191787111107452 16.1520732238393165   T   T   T
 16.3658737535559666 14.0072896564569813 13.9986429326936932   T   T   T
 14.4286097046182391 14.0935682637172643 16.8444238249722069   T   T   T
 14.2113541843945654 16.4750168376712836 14.5908597406367360   T   T   T
 13.5902184044764738 12.7779109148264602 12.9250499595315773   T   T   T
 12.7584434094814227 17.9596446024059553 17.7481833181577429   T   T   T
 18.0265868055460565 18.1382864556497800 12.9925533450219586   T   T   T
 17.7541638137648157 12.9123008515440372 17.7501975632168332   T   T   T
 -0.5369491443263434 -0.3246680633848262 -0.3967012579468520   T   T   T
  4.8840829896835549  5.3754404462594225 -0.2030715340580971   T   T   T
  5.0621302866191549 -0.0839287371324995  5.6469835934536690   T   T   T
 -0.2537736854802354  5.6016364476336173  4.8596149375767546   T   T   T
  0.5451735279723825  0.3179664800577933 10.1086172314214053   T   T   T
  4.5407203834619443  5.1395418760851852 10.3733174858873980   T   T   T
  5.3440734573354725  0.3962383100093001 15.3433896841092121   T   T   T
  0.1263882926048761  5.1707030542078671 15.2560493752410604   T   T   T
  0.2041493708485659 10.5914319980710019  0.0710831640995092   T   T   T
  4.9060986251451766 15.7198353749975119  0.3517756480680871   T   T   T
  5.1953826468932203  9.6264505818944830  4.9252273058177867   T   T   T
  0.0106485838215561 15.6518527535575664  5.0914463513417987   T   T   T
  0.1929478487316496 10.9016947235895607 10.3517018327189554   T   T   T
  5.4426302522520453 14.6090312806417213 10.2550864689048087   T   T   T
  5.1442308822698442  9.9668902593605004 14.9303671281123922   T   T   T
 -0.0942087813638743 15.4164651962991481 15.0587015067846792   T   T   T
  9.6630555828088767  0.1005257598961548  0.3274662355476442   T   T   T
 15.9814670895272695  5.0883010375648130  0.1747681364683671   T   T   T
 14.7723828064243392 -0.4483635537391378  4.3415871268112989   T   T   T
 10.5016688594607679  5.2466467588606340  5.1924405116707311   T   T   T
 10.0904358016375451  0.0318122730514017 10.2547231045368559   T   T   T
 15.8296327131969967  5.8295626591900245  9.9078123011249861   T   T   T
 15.5428041225277980 -0.2145881382052248 15.6544131666503379   T   T   T
 10.8175696494676004  5.2545624277920613 15.5799259745385950   T   T   T