Li P  S  Cl
 1.0000000000000000
    20.5609999999999999    0.0000000000000000    0.0000000000000013
     0.0000000000000033   20.5609999999999999    0.0000000000000013
     0.0000000000000000    0.0000000000000000   20.5609999999999999
 Li  P   S   Cl 
 191  32 160  32
Selective dynamics
Cartesian
  3.0638856778006800  1.5036812813299145  4.5840331893089852   T   T   T
  2.6340577802496967  5.5746429414550240  7.1051274640190689   T   T   T
  6.3704486741621444  7.7660627669110269  0.2968110278470747   T   T   T
  5.5662784147977256  0.6787704317201221  7.6510975449912744   T   T   T
  0.2617146795510844  7.2046622224587464  6.9507059584739590   T   T   T
  1.5897293006814475  0.5038472768781971  2.3378962155188745   T   T   T
  9.0581735622257007  4.1765317552195951  7.5418631059804007   T   T   T
  6.4903506397873176  9.7795566598719930  3.0730836248836786   T   T   T
  7.8408341021572854  2.7140264506460361 10.0690738735951228   T   T   T
  7.5549589618919919  5.5229553880100228  1.9055387692211854   T   T   T
 -0.1573010145401378  2.6925429329402557  2.9108358865430368   T   T   T
  3.1166324178713527  8.1907593359098136  5.2621007055461755   T   T   T
  6.3997876568527845  7.7310408659779721  4.4035813652721503   T   T   T
  9.3645545491464883  1.1502464663536653  8.4599035387716945   T   T   T
  1.9760487067244679  5.1510865290350969  3.0534347549906249   T   T   T
  4.9730057962522434  7.8879992746203058  7.3537556353437985   T   T   T
  5.5937726211234597  4.1014360352642898  7.9450133123497881   T   T   T
  9.3820602061367797  7.2080985127404906  3.7969750028221543   T   T   T
  3.1528899936728467  7.1123540789996955  9.8810234061107813   T   T   T
  4.7596264621250670  3.1376510355617455  2.3287558824120365   T   T   T
  2.5886002124624361  2.6764922088221805  0.1902273790605729   T   T   T
  2.2148763136041234 10.1802313489507057  8.4335416381878332   T   T   T
  7.1712339474723592  2.3722768715879368  5.3980685793725769   T   T   T
  9.5646024545830954  8.5840734656931055  1.0787216555644275   T   T   T
  0.0592485492881881  3.2694841582539125 13.4565626884100968   T   T   T
  4.7820230127511349  7.1461506188194388 18.0795383595170804   T   T   T
  9.8387779165932709  6.8276576000121825 13.0724544700688146   T   T   T
  7.8927698510584836  1.4243423253907810 19.8285751996642752   T   T   T
  0.4547638256195978  8.4153155014525236 18.5106282656917926   T   T   T
  2.4007084178982252  2.8178810497037885 15.4396168541320371   T   T   T
  9.6875530274924362  2.7965531205950258 17.4165854001400682   T   T   T
  5.4854927331280861  8.1672714071693679 13.5101805005584605   T   T   T
  7.6243291730048384  4.6443474300864303 18.7080173743259230   T   T   T
  8.4652760879845079  9.9063551186799845 12.8202310783022906   T   T   T
  3.2220558845571214  0.2358133945280244 13.7636409102120787   T   T   T
  2.5614185410515224  7.6249181204241268 20.4823925751317724   T   T   T
  6.7244996845428320  5.5507914891681605 12.1758902501434481   T   T   T
  7.7807956260471780  4.1873625664387504 15.8925409488963947   T   T   T
  4.8878146526252602  2.4481979877137130 12.5896584409875754   T   T   T
  3.1365043872760037  7.7550506767705301 15.5406734881294870   T   T   T
  5.2452770785131042  2.0517618180137696 17.0132324081396575   T   T   T
  7.4557461514632708  7.6830638179413047 10.5017097934174100   T   T   T
  1.4440602894539185  5.6605982533021955 17.7457578782880638   T   T   T
  2.1387891593275596  2.4788914219980533 10.7460668182224506   T   T   T
  2.7552271321911390  4.6717857316372129 12.8116655454742183   T   T   T
  3.4468709919266458  9.9759190815759418 17.4325859042689437   T   T   T
  7.4916640245387693  0.3686297450550007 15.5942414666358342   T   T   T
  8.2181055689179772  7.3016422846291116 15.1061344487342737   T   T   T
  2.4659610092641970 12.3727022334015757  5.3202806986118789   T   T   T
  2.5857664523681874 20.4391729348309497  8.3494526034777845   T   T   T
  7.9226301644003003 17.8671281182280808  5.0597550143385837   T   T   T
  5.6511361029436653 13.8560407018557115  8.5011983350826110   T   T   T
  0.1760512360773031 18.4365857755063161  7.7856504047923414   T   T   T
  5.1848875136481007 13.0572565921189749  2.5654940824528434   T   T   T
  6.8693800532371920 10.8615887212648534  7.1423885386493184   T   T   T
  7.5831045676672124 20.4647930685749060  2.7676307517471468   T   T   T
 10.1381815251782008 12.0583473220694692  8.2127413054505105   T   T   T
  9.2612204779125342 18.3783958461103509  1.2752859415822573   T   T   T
  0.2370270511227399 12.9773154235450559  2.5257783063328025   T   T   T
  1.5666167574114418 18.2271149331683660 10.2632433935672367   T   T   T
  6.7939610074473258 17.2507879959077925  0.2391296236708124   T   T   T
  8.1743962409054980 15.1240031954013183  7.7194653236024573   T   T   T
  2.7120612983567933 10.6253035183514406  2.3488433631955221   T   T   T
  2.3068280459123724 15.9948528931305454  6.9373022367055750   T   T   T
  8.1481778098933049 12.2431721098644477 10.1009205267352566   T   T   T
  7.9168304855840637 15.8512002407235020  2.8784064405476735   T   T   T
  4.6194102821198983 17.2680320083231535  8.8025917484591503   T   T   T
  2.1891119619254296 15.0802869947182430  3.6672301286549209   T   T   T
  2.8500801106671427 13.3909655193860289  0.5588001387991837   T   T   T
  3.2491327339208573 18.8010164297802689  5.8234373035814579   T   T   T
  8.7133425556613471 13.0801952991968466  5.5412311228880684   T   T   T
  5.0417029346278825 18.3181250647947849  2.7588790013828426   T   T   T
  0.6826325468992409 11.7905711914319546 12.2906150095848901   T   T   T
  3.8902228570074220 19.7740420774921475 17.9957806625040000   T   T   T
  5.6052225592361413 18.4434527755399031 13.2294254650062690   T   T   T
  7.6817119793688624 12.7728055226311241 20.4779807406449557   T   T   T
  2.2465018265881809 18.2884048031302910 20.5384914564307905   T   T   T
  2.8032201021740026 10.4638172206128406 13.1063393017166074   T   T   T
 10.0209646490478761 13.5565966355055298 17.6125428447920847   T   T   T
  7.2469687443083641 15.6829483118614732 12.5749026208284622   T   T   T
  7.0578264120192786 15.4202932633125211 18.4711315713019744   T   T   T
  9.9953313169662081 17.7589136884759853 13.2516594477765306   T   T   T
  2.2358103260891355 15.1567269820085038 12.9953438629670686   T   T   T
  4.0171841822147005 16.1035320423707020 18.1403188661306345   T   T   T
  8.0455004833717698 19.2661841325281529 11.3367636899149122   T   T   T
  8.5167196664067024 10.6466243559376714 18.6994662565754872   T   T   T
  3.2410454071073098 13.4574827410946209 10.4829283054447480   T   T   T
  0.8449520813829272 16.3067066872441018 18.1858272974881316   T   T   T
  5.5392906743332349 13.0850844632801202 18.5924964662632668   T   T   T
  2.3610193349186899 17.4140488837564433 16.0018777597283730   T   T   T
  2.8338530177508794 12.7516966003891543 15.2137425952796921   T   T   T
  5.2945431124338249 13.2304489402648802 12.4265334667380980   T   T   T
  0.8513578090954035 19.6642352048927691 18.2727330502494674   T   T   T
  6.7870036959793181 11.8267404553077426 16.1695835214152090   T   T   T
  8.2020094732577640 17.3790225153395212 15.4599007353321358   T   T   T
 11.6469218110337724  3.1780071473838181  4.6650528206832602   T   T   T
 12.8440029958326090  9.8247530549823274  7.6679904546854161   T   T   T
 18.0015305826252963  6.6406595031840743  4.3387280346077119   T   T   T
 18.4529442845935776  0.4160588897397729  8.1807099533161125   T   T   T
 12.2103089870694319  5.0130865396848732  7.1843268982715438   T   T   T
 14.9690597726904819  2.3187142694540763  2.4605282018814063   T   T   T
 18.1085649939669295  4.8869590826596481  7.3119018819708295   T   T   T
 17.4731762842424025  5.4640320016844388  1.8269377740861616   T   T   T
 20.1063888075785613  2.9949300402994941  6.8277975703338072   T   T   T
 18.1534114655972658  7.8197867664825820 -0.1417371536506107   T   T   T
 12.8876909241764128  2.9765808660618607  0.1446503764717106   T   T   T
 10.3875216931000605  8.0969396407301559  7.8899217418043666   T   T   T
 17.1946534184114128  9.8213624696540514  3.2916733806312406   T   T   T
 17.8066224378612574  3.1504368675326364 10.0135565007753886   T   T   T
 13.0014542357197929  5.1067773267357621  2.3441765040521116   T   T   T
 12.6822620204696026  7.4074911133692103  5.3528036682208420   T   T   T
 15.5042833387668448  3.5531088431834315  8.1538643647678981   T   T   T
 15.3758318081564145  8.0266220182864192  2.2996718520206891   T   T   T
 12.6050865056548513  7.9925829400492114  9.8438485453845654   T   T   T
 12.0511436741122058  0.2102414420127518  2.0089654660369054   T   T   T
 10.2326398126590181  2.0889618274145607  1.7908014678350324   T   T   T
 15.0559783392787860  7.1938336839046118  8.4736906412325190   T   T   T
 16.7570633966598628  1.5645952501225426  5.6251111845324164   T   T   T
 20.2466011512175434  8.3427790661195864  2.2414811003117388   T   T   T
 14.2471379640671234  0.9876688623002513 12.7794050411690208   T   T   T
 13.3814093488185719  7.4429448566948420 19.9029232441791208   T   T   T
 17.7368129535995784  7.4280828564572925 10.4047818474285183   T   T   T
 15.5277769978786715  4.3805903467059872 18.4440607381561783   T   T   T
 12.3177487982291218 10.0137207035338651 18.6960555990738655   T   T   T
 10.7023543627448205  0.7996021706905462 12.3152013329552101   T   T   T
 16.9176516223237670  2.2512310514247567 15.5378839434667579   T   T   T
 18.7380324283714792 10.3692673381518397 12.4248762655851799   T   T   T
 20.2572651914476047  2.3171405969433376 18.0847105935678201   T   T   T
 15.6849329496409879  8.1755860995469192 13.0304971121496891   T   T   T
 13.1660276908198348  2.0641563628100790 14.6941697395322226   T   T   T
 12.4091928156008962  5.6183835503928119 16.6986476975332678   T   T   T
 18.3954302324656638  7.7722921238947906 14.9671384016229680   T   T   T
 17.3237438562910704  3.0412780708359088 20.1003290515481758   T   T   T
 10.6140337317577842  3.4078944760542580 13.6471764305876668   T   T   T
 10.7251489178073918  7.5730830089655576 17.8592397611021347   T   T   T
 17.4173565844385969  0.5222028244106997 18.2270141065856031   T   T   T
 18.1873618246416520  5.6027131853764525 12.5706885642410402   T   T   T
 15.2759953364757006  9.2330167203333549 17.2876130948032447   T   T   T
 13.3151933550320987  4.5926870790438157 12.4134228970722784   T   T   T
 12.9811320233944389  2.0215331883311936 10.1837834105152467   T   T   T
 13.1473621969166725  8.4929107540663100 15.6166184364359761   T   T   T
 18.3473109882044056  4.8032461769914603 16.5702339297707439   T   T   T
 20.6485308916700028  8.3041121885115157 11.8064906233989078   T   T   T
 10.5849400713090187 13.1167302538656951  2.7707383314325966   T   T   T
 13.2200371067800404 20.3290372027067860  6.7787460491335478   T   T   T
 20.3607424317006185 18.6604330685874444  2.3868470684748120   T   T   T
 15.7656099088080115 12.1718875239707334  7.2310673823791252   T   T   T
 12.8507172606140827 15.4956268635827641  7.3707233376337493   T   T   T
 12.6818575597824825 12.0365628142346335  0.2385124707810516   T   T   T
 18.4031307678348206 13.1221136320780687  5.3410633024732359   T   T   T
 18.4434177360137674 20.1008084757121637  1.5099533597613592   T   T   T
 18.4034398470099241 10.4908087828043364  7.6902108788394363   T   T   T
 17.4114540048540256 17.5754554385714314  0.0751177024959043   T   T   T
 12.3946109358617793 13.5786161248732302  4.8533694956245697   T   T   T
 13.2833107700905213 17.0958512235237308  9.7140931589998623   T   T   T
 15.6356387190801627 17.7718955608367395  1.9593487757231411   T   T   T
 16.8936908872959179 13.5458150109940583 10.1282573506794460   T   T   T
 13.2977019214495389 15.2117133697223323  1.8476192766413524   T   T   T
 13.7606617070786967 18.4517020464836463  4.9397248320914944   T   T   T
 17.2980806836639758 14.9113487663050517  7.6914307001945454   T   T   T
 18.6211195044425217 15.7706983868268047  2.8934156241485236   T   T   T
 10.6982957268849201 18.1040610154959865  7.7886266415093575   T   T   T
 12.6640985046212897 10.7815247310701690  3.3246744236047583   T   T   T
 15.3128339926691268 12.5638161633360408  3.2382980641557677   T   T   T
 15.6789719553125408 18.2411239675707719  7.5547002881058400   T   T   T
 20.4751142228478251 13.4651056703271745  7.4809199096081125   T   T   T
 17.6504205048907856 18.6447744285495673  4.8515546708286426   T   T   T
 13.3445845719332503 13.5419408295265313 10.5068148689887337   T   T   T
 13.6985841919978970 20.0088248243070979 17.2462333940881472   T   T   T
 18.9233696096435544 17.9317473170879111 10.6384910946964428   T   T   T
 15.7646968056372447 13.3031797808027044 18.2607630814753747   T   T   T
 12.1295167218812665 15.6804208497769988 17.4871999383445846   T   T   T
 10.5839763001226288 13.6133721942824852 13.5214705820968373   T   T   T
 17.8758046862913744 12.7837132447235504 15.5019864257055104   T   T   T
 18.7724165994775838 20.4154502642622759 12.1858045681533618   T   T   T
 18.6089301956612694 10.6541325646604523 18.2379847769385748   T   T   T
 15.7932494000302412 18.0790124295794072 12.2850922089067414   T   T   T
 11.6477951294621356 10.9570107631416711 11.6083470963783260   T   T   T
 12.3546283578415732 17.2945102313183057 15.7135229890520289   T   T   T
 16.8009566424751746 19.1800341056170183 15.0896721983691187   T   T   T
 20.3100839599085603 13.4987926858752072 17.2495624645152006   T   T   T
 13.2325891970583367 12.1741153554679649 15.1637284565397046   T   T   T
 10.6968954771196358 19.1459825188209720 18.6964049040029892   T   T   T
 18.8818850939102489 12.5940573370678379 20.1314829301757143   T   T   T
 17.8261147236050270 15.7711303003787258 12.4121517297475030   T   T   T
 13.0500465795506813 17.8527405223982711 20.2408110127989360   T   T   T
 14.8584903285190464 10.9554141370749392 12.9579959992463998   T   T   T
 13.0822979543298796 15.1738657153112513 12.7494942183477455   T   T   T
 14.9776391831446123 16.8534133126555119 18.3291040267506631   T   T   T
 18.3333014607774167 15.5082118938707243 17.5609731151167949   T   T   T
 20.0141584424878296 17.4269111503479905 14.2445406702594024   T   T   T
 -0.2049217388400832 -0.0289275201995665  5.3053283365465838   T   T   T
  4.9300074378707448 -0.1600512735498800  0.2083274832883581   T   T   T
 -0.0678273751348909  5.1439106053028096 -0.2954733050340918   T   T   T
  5.0459281307756632  5.1087516439377110  4.9718325484258719   T   T   T
  0.0474877971862708 -0.2431041634834344 15.4714648885176533   T   T   T
  5.0232803226957738  0.1111977797712164 10.3194014879161955   T   T   T
  0.1379353859851216  5.1502341213577312 10.2806801330033579   T   T   T
  5.1138816530003721  4.9393990555384883 15.2701246110388205   T   T   T
 -0.2237308588699378 10.1793834880885417  5.1834914172072377   T   T   T
  5.1439719247422531 10.3447815328835588 -0.0126407479248633   T   T   T
 -0.1798435168399597 15.3991931205039787  0.1775827273195872   T   T   T
  5.3059351271908808 15.3369836413079934  5.4251260646022699   T   T   T
  0.1086191403881591 10.4811476448721681 15.4205745050833762   T   T   T
  5.2592684683455069 10.3366929639317018 10.3750408489402055   T   T   T
 -0.2428591910260011 15.2049206758619970 10.4803287364705149   T   T   T
  5.2107501631762316 15.2200835053291410 15.6287155701812281   T   T   T
 10.3979558676852069  0.0497384774095606  5.1310934457933346   T   T   T
 15.0874216326326742 -0.0863666149706754 -0.0022303772499682   T   T   T
 10.2643104940988721  5.3192614322235157 -0.3277671328996757   T   T   T
 15.1639335651451166  5.2146249952279664  5.0551359254832500   T   T   T
 10.3589462891346944 -0.0396515874523950 15.5257642686285973   T   T   T
 15.4962216377435453  0.0615016052233165 10.0476179347365022   T   T   T
 10.4333866828401156  4.9886672351959094 10.2036272671143919   T   T   T
 15.4876255113789938  5.2557392053061260 15.2783711754723033   T   T   T
 10.0656469528353654 10.1859173225903650  4.8051498051679973   T   T   T
 15.5399811755208788 10.3422157110178254 -0.3435816615454225   T   T   T
 10.2308109366801876 15.5736118395721128  0.0104854225198278   T   T   T
 15.7061489791622382 15.3498027330454310  4.9782691752240904   T   T   T
 10.2167132883309772 10.1435006809491419 15.4883846083026544   T   T   T
 15.6388281203347823 10.1925106056124122 10.2440121097211065   T   T   T
 10.2190861460953641 15.4103100452395623 10.4154416897656041   T   T   T
 15.5832630341027443 15.7781256790356235 15.3726813720959559   T   T   T
  0.9392677209027919  1.1487013963476276  6.4372996770886832   T   T   T
  1.0736045440334643  9.0795452630292210  3.9294196874699030   T   T   T
  8.8750866934168240  9.0673371668341396  6.0142284914171302   T   T   T
  9.0020080843251886  1.3263166079607407  4.1750093398625836   T   T   T
  6.1122291045273656  1.2747730370297159  1.2495017188565780   T   T   T
  3.9230665595984733  1.4897855810428891  9.4151441913938196   T   T   T
  6.2504763451124132  9.2346560268190725  8.9051087539513123   T   T   T
  4.1925054847701340  8.9571159471117507  1.2591459660104642   T   T   T
  1.1955269419780057  6.1172278387367101  1.0052004948554263   T   T   T
  8.9797099576378141  3.8603782127234814  0.5008978410493095   T   T   T
  9.1986127437646399  6.2366000989801949  8.9205609957402423   T   T   T
  1.3261188143119866  4.0315592039290200  8.9873870604377402   T   T   T
  6.0740178653007755  6.0614936495401812  6.4576782305185354   T   T   T
  6.3498805437771804  4.0710920738634728  3.7063253082860306   T   T   T
  3.8214124278505262  3.8514559581910439  6.0495556351149267   T   T   T
  3.9813887434433366  6.3841585137924266  3.8170848901071603   T   T   T
  2.2511960080400177  2.7033682032506281  2.5274963959535603   T   T   T
  2.7217421550776213  7.7996741812723478  7.8292664618679098   T   T   T
  7.7481890645898641  7.6630033194834093  2.3045510729401517   T   T   T
  7.3470543647485274  2.5943883313451153  7.7980188810189706   T   T   T
  1.4093361110782061  0.7976738383121932 16.6634286985891151   T   T   T
  1.3529083286336883  9.2923094410775278 14.2778218404881336   T   T   T
  8.9764030028038881  9.2135890333872581 16.7943687291456989   T   T   T
  9.1456759190805457  1.3039343453650531 14.3026212818216418   T   T   T
  6.4504488933272413  1.1303838352594897 11.5183944848612434   T   T   T
  3.8625016429601438  0.9647696167039419 19.3942489206764144   T   T   T
  6.2904874055896185  9.2667759557681251 19.1880805309134708   T   T   T
  4.1322442545144282  9.1218763353189498 11.4393032452102101   T   T   T
  1.3236404491298783  6.2043242483671959 11.5871730909373305   T   T   T
  9.2378462359794042  4.2192776710277702 11.7173920555517785   T   T   T
  9.0034045634395845  6.6465886364074231 19.2347308310312926   T   T   T
  1.1644526249126208  3.7694551241435952 19.2518462690899135   T   T   T
  6.3878478753869494  6.2159778803211712 16.2903260727021610   T   T   T
  6.1960331523153398  3.5356994323801474 14.3013986692892576   T   T   T
  3.8568831549213920  4.1470265450072556 16.7825118126822872   T   T   T
  3.9670389648439972  6.2058126477013600 14.1611700599773709   T   T   T
  2.6499680586144532  2.4339970461736162 13.0129992176257083   T   T   T
  2.6620582607464565  7.8627559368758000 17.8055278751555690   T   T   T
  7.8061138367170591  7.7084112550613302 12.7094144752179332   T   T   T
  7.3995081542370471  2.4003720137180959 17.7279788301237282   T   T   T
  0.7117471707363490 11.3366285955676229  6.5872831870012831   T   T   T
  0.9534519867452758 19.4263807531244339  4.1353283399397123   T   T   T
  9.2756287388089724 19.5036863200555146  6.5382587669567034   T   T   T
  8.9849233125243213 11.4669685358749618  3.5766967163082062   T   T   T
  6.5271826128657304 11.3531846585225722  1.1778865176313917   T   T   T
  4.1382234604271257 11.7178704555948983  9.2255531274628773   T   T   T
  5.9935475840436299 19.3744537352400243  9.0570159866493949   T   T   T
  3.5653218204873331 19.5305200357901398  1.4524397179931756   T   T   T
  1.1887173691299409 16.5638706455829805  1.3228959571981731   T   T   T
  8.9187828587048212 14.4181370005493577  1.2019277745973689   T   T   T
  9.1276251459201916 16.7543976054693502  9.3818690668746232   T   T   T
  1.1527107934621368 14.1047163850237922  9.4486832587340626   T   T   T
  6.5432436211637039 16.4913250797097461  6.6804061310763636   T   T   T
  6.5655712729037647 14.1975796924040907  4.4251174372025668   T   T   T
  4.0013898690702803 14.2775181932885111  6.5237656153847814   T   T   T
  4.0420976305818757 16.7042354654467218  4.4351945334423570   T   T   T
  2.8208227845610772 12.8864597865164079  2.9399593411427998   T   T   T
  2.4375627672114173 18.1175524593095929  7.9337717895186062   T   T   T
  7.4224967925914935 18.0347761760179495  2.6731389011560633   T   T   T
  7.9008160681550317 12.9999348878929162  7.8163215887394255   T   T   T
  1.3489378909427909 11.5761675133706259 16.8611181852866956   T   T   T
  1.1385363105921040 19.0693491569859930 14.3964559351161867   T   T   T
  9.0635608657116062 19.5777772744107352 16.7823252318532852   T   T   T
  9.2155523348051513 11.5518510620425197 14.3636343891540275   T   T   T
  6.5689763036039208 11.3477013732623355 11.5417180513959057   T   T   T
  3.8125851535866890 11.4694554354966129 19.5783296924052337   T   T   T
  5.9419914822122912 19.0672002642332643 19.6317868112716916   T   T   T
  3.9088926606720702 19.5600334306611714 11.5486941255953646   T   T   T
  0.6162003200856945 16.4071495393011588 11.9123434810488593   T   T   T
  9.0650623302924274 14.0401608986625508 11.4352614228792167   T   T   T
  9.0139527333244107 16.9223821616307433 19.5985798408451863   T   T   T
  1.0262218648943269 14.2478448112410909 19.4959865371261287   T   T   T
  6.1051659044927185 16.5437816587503264 16.8333750531517197   T   T   T
  6.6702071030948220 14.1545226340221042 14.7994470012095842   T   T   T
  3.9282308065568010 14.0230868338391907 16.8287876641393694   T   T   T
  4.2281586098430255 16.2622684800326169 14.2005639204676015   T   T   T
  2.7374029269336417 12.9054456374112565 12.6505721175701105   T   T   T
  2.4233265368770676 17.9125070430598470 18.2306999554434483   T   T   T
  7.8153909511621409 17.8003878560014641 13.2697241477589092   T   T   T
  7.6797288439581468 12.8199112903611656 18.1667078595772935   T   T   T
 11.4691713784780198  1.1891339067881368  6.6886081697356774   T   T   T
 11.0471070948700003  8.8996111428778679  3.5205403869082970   T   T   T
 19.0536936836924902  8.8747000570158878  6.2343846428745371   T   T   T
 19.1267616379558376  1.0840263664751502  4.0688700586629523   T   T   T
 16.4477104213606573  1.0322333296773236  1.1348474005405029   T   T   T
 14.5489138012320947  1.2441478068875405  8.5266663913558176   T   T   T
 16.5989957995342898  8.8609636275572505  9.0007730955231331   T   T   T
 14.1372567527309521  9.3399349016944591  0.7763512377536693   T   T   T
 11.4732798244019207  6.3673647101161626  0.8002456846389174   T   T   T
 19.1423789875411856  4.1217499805687989  0.9615425408481710   T   T   T
 19.4750434538754433  6.2878930492881562  9.1087013005740030   T   T   T
 11.1211191465636823  3.4861944022499798  8.9181443094413027   T   T   T
 16.3949141987141225  6.2652093947169636  6.3205961960659138   T   T   T
 16.2878900699621347  3.9406932950939941  3.8482876264127333   T   T   T
 13.9950980287542865  3.7433202746940690  6.0053397471109600   T   T   T
 13.9673637733781728  6.5744979486743604  3.7754574743877671   T   T   T
 12.2966811573637820  2.6979991665727492  2.2757677601393018   T   T   T
 12.7446610543901393  7.4014299809242612  7.7493405551178141   T   T   T
 17.8460513473069575  7.8107070855641823  2.3516283383995420   T   T   T
 17.8754206475360604  2.7562568922641217  7.5565501610049886   T   T   T
 11.5168005262777768  1.1926129990969130 16.6994585164553833   T   T   T
 11.1761599455252618  8.8389759617116397 14.1038916118501696   T   T   T
 19.4570392635571388  9.2102908148701594 16.4529272163172848   T   T   T
 19.5494706020298388  1.0592815743148729 14.2113241752713328   T   T   T
 16.5608920948781027  1.3174938422011306 11.3402055798438397   T   T   T
 13.9328671195584217  1.1843204148205826 19.4850529381998925   T   T   T
 16.6927162042129318  9.1199277932726996 19.0773219806887546   T   T   T
 14.1763243838891224  9.2844784017324695 11.4647227969497933   T   T   T
 11.6730348957423651  6.0378756277716752 11.2942518652264123   T   T   T
 19.5874612397193815  3.8817343382874423 11.4103289437115887   T   T   T
 19.6127889231548842  6.4300683466013870 18.8945518030511650   T   T   T
 11.4476267365108786  4.0875543434536992 18.9021138460608213   T   T   T
 16.4517098061779059  6.5202542284815044 16.6296044244514150   T   T   T
 16.8842795668135359  4.3183180240951948 14.1553892420426433   T   T   T
 14.1969294782313753  3.8238757778093415 16.1548507762603037   T   T   T
 14.2520647510628287  6.5709641648920121 14.1288002074862415   T   T   T
 12.6105475736778168  2.4755679228159431 12.7300073292121017   T   T   T
 13.0627648377960757  7.7002098166515092 17.8277015674111041   T   T   T
 18.0965607422873944  8.0185379737537037 12.5988365604756929   T   T   T
 17.7566774603262765  2.6698111389396835 17.6655030871910199   T   T   T
 11.4343612006148057 11.3532260152003861  6.1010693042414879   T   T   T
 11.8113351968295248 19.7998027863913038  4.0024800352673502   T   T   T
 19.2196898218149634 19.3454758748237197  6.5075065912780907   T   T   T
 19.3155702633521464 11.3743970362621241  3.8589200754409543   T   T   T
 16.7162798177582737 11.5271758925613153  0.8978818322171813   T   T   T
 14.4229892784196796 11.3839124361439357  9.0951945274101789   T   T   T
 16.8892491727255845 19.2270749191166530  9.2977127711060419   T   T   T
 13.9081344016067820 19.2136565955618650  1.3293147555731222   T   T   T
 11.6057907070407911 16.5198650797817166  1.0900158126090098   T   T   T
 19.2133500715416581 14.1701867866472035  1.2615870000302041   T   T   T
 19.1527338942672856 16.4012411835802752  9.0805249558718337   T   T   T
 11.4145658273470989 14.3336844126323673  9.1295734002264322   T   T   T
 16.8029928496848946 16.6053617103235638  6.2694346509256373   T   T   T
 17.0108125238187036 14.2262462058073140  3.8648658655547434   T   T   T
 14.5707641533144958 13.9710083060908659  6.1449046512571259   T   T   T
 14.4880679456834081 16.3481028524556677  3.5576452360017852   T   T   T
 13.0113382328226947 13.0678999353135570  2.5931253115702866   T   T   T
 13.1142998193170683 17.8293288737595930  7.2788347773976163   T   T   T
 17.8581116451048629 17.9366535861750336  2.3247412331445196   T   T   T
 17.9283604264242733 12.7486689548103804  7.6015148260224992   T   T   T
 11.4626136340236595 11.4059311828220018 16.7245198828680621   T   T   T
 11.5254115348237036 19.4577220898576044 14.2100030266672128   T   T   T
 19.4447214216270261 19.4115890228632750 16.8466032163110349   T   T   T
 19.5501843177840371 11.7309966216367467 14.3726299739782437   T   T   T
 16.7533619307567889 11.3987609522112017 11.3912466793109903   T   T   T
 14.2594202332037270 11.3910385951776902 18.9467329037329471   T   T   T
 16.2331518207358236 19.2490249928065182 19.2440515619300605   T   T   T
 14.0519371522203453 19.7183883644099751 11.2000637070602771   T   T   T
 11.3758067729686445 16.4541663470040476 11.7780840363748567   T   T   T
 19.0948937444492302 13.9972505397798539 11.5331671874175239   T   T   T
 19.2315674508158416 16.7664456475530272 19.7114974977102335   T   T   T
 11.3954591015132536 14.3946033512098701 19.3779301748773172   T   T   T
 16.6503739958762793 17.0369274781576650 16.5716720941015154   T   T   T
 16.8184434729797410 14.6548227629649972 14.3420070607249261   T   T   T
 14.2318213296535969 14.7899507732786670 16.6492162854931038   T   T   T
 14.3391421410388720 16.9144381067746039 14.0198218885137429   T   T   T
 12.8692926006452293 12.6056723311967520 12.8582203429172619   T   T   T
 12.6628768339829083 18.1099115049524428 18.0159856880332896   T   T   T
 17.9483396764349088 18.3316152105565067 13.0339318434746936   T   T   T
 18.1563691576633346 13.0012606085508722 18.0161652105989702   T   T   T
  0.2242307440914501 -0.3011627636137977  0.6304529673079430   T   T   T
  5.5748402041566534  5.5753815540741893 -0.6251103061114416   T   T   T
  4.7761419611623408  0.0973233679139546  5.3162203196193465   T   T   T
 -0.0861671202066885  5.5941825538894836  5.3729088973304124   T   T   T
 -0.0151501970800710 -0.5050906528497298 10.1453235285492003   T   T   T
  5.4332666391866953  5.5840284881553623 10.1243014779029323   T   T   T
  5.1169978179950011  0.3531475347368604 15.4367913079102212   T   T   T
  0.3288390018165094  4.8186972052526977 15.6945099780781305   T   T   T
 -0.2572200175400109  9.6925272532677269  0.0434285485121584   T   T   T
  5.0576901843946827 15.2283492478469888 -0.2341950631629931   T   T   T
  5.2186712159775510  9.6431167454844005  5.0793402476678295   T   T   T
  0.3726601826589725 14.4936753267017995  5.1616534753451475   T   T   T
 -0.1139132926531602 10.4456374374045549 10.7799655714738378   T   T   T
  5.2061108392579563 14.8056539096233131 10.4154843238637351   T   T   T
  4.9642325507542422 10.1723226169950038 15.4971293518203908   T   T   T
 -0.0665655009362849 15.6992200386912852 15.9704760679161151   T   T   T
  9.8751764279331606 -0.1573342484851972  0.2430083805255080   T   T   T
 15.5427079955484277  4.9462572293426010  0.1776544777710097   T   T   T
 15.8142576486631743 -0.3460057782133838  5.3894967557157321   T   T   T
 10.7529689004971125  5.2892987006511190  5.1526620716774003   T   T   T
  9.9047495517783357 -0.0632716446098171 10.1591067909862236   T   T   T
 16.1804515079692450  5.1318104791530441  9.7919566589162681   T   T   T
 15.2106207688334436  0.4960753870482697 15.3159972020487984   T   T   T