Li P  S  Cl
 1.0000000000000000
    25.1819793006824639    0.0000000000000000    0.0000000000000015
    -0.0000000000000009   14.5388225279766061    0.0000000000000009
     0.0000000000000000    0.0000000000000000   37.2126966544236950
 Li  P   S   Cl 
 288  48 240  48
Selective dynamics
Cartesian
  3.7425564275724836  4.6733157816270632  7.3058201737142650   T   T   T
 13.9609489863124967 13.1020080282007747  5.5184427027933900   T   T   T
 17.6871619005301568 10.1291102181832553 17.9985822154450688   T   T   T
 12.7123649572925910  6.0627215186454313 18.1697644422221884   T   T   T
  7.4090793485442950  8.2185365961106580  0.2543514204844691   T   T   T
 22.9183090404909038  8.2284165302644379 -1.5193258235041567   T   T   T
  0.6953291582912462  2.1569796077720884  5.4993291961630364   T   T   T
 13.1902866284864029 13.2106666744986327  8.9206260023136554   T   T   T
 17.2823553840567286  2.6562400841063334 12.6489005095132061   T   T   T
  4.6468556466874311 11.4050031483293228 18.3447817797141859   T   T   T
  7.4187421366514634  2.8168987342452256  0.9934634691582720   T   T   T
 24.1078044012538797 12.3660657375580563  2.7715692379426979   T   T   T
 -1.0197647520713791  2.5207435240864018 12.8032430394091570   T   T   T
 14.9491499765204825  9.4554796767478351  8.6446155414187764   T   T   T
 29.8890164423435820  3.8777772531086070 23.9012435655427495   T   T   T
  8.0491782850443965 12.9766213318108896 13.0096951315027969   T   T   T
  9.0656509871847124  5.1985096417056571  2.8795404464009260   T   T   T
 22.0089312935800550 16.2007379221256542  9.0376328946478246   T   T   T
  1.8306608928935522  5.5412031644663839  9.0889748233856569   T   T   T
 13.8384627828741813 10.3027040964875294  5.4971612706926036   T   T   T
 21.0824847317090800  3.7799780050228380 12.4471788728671271   T   T   T
  6.1863819457147624 13.4324804440202339 10.9077709961832454   T   T   T
 10.7571697585684625  2.2755534715053787  2.7671245832835805   T   T   T
 21.3260276102343269  9.1301292677971553  1.2440431791677566   T   T   T
 -0.6812088869482059  1.2842993999342496 17.9226392568403448   T   T   T
 12.4866177458610856 10.6418499858396398  8.4054167164458189   T   T   T
 17.9659170915547364  6.4782855701375608 12.9374971899876474   T   T   T
  4.5458645127850659 10.1266819923250821 13.1827062637861747   T   T   T
  7.4340194011715788 -1.1829174859434990  4.4411110261372162   T   T   T
 20.8812185483348856 12.0915942325835779  3.3534094999077122   T   T   T
  2.0221154296174215  1.7626723700929747  8.1251954728391897   T   T   T
 16.4927790764983513 12.0099071839031275  6.9492645736363237   T   T   T
 20.8061914431129011  5.0431536004802702 14.7474040250308587   T   T   T
  7.5103809178614114 11.7797871584494658 17.8668970197460553   T   T   T
  9.5079975985502081  6.3330869026009475  0.3608735215875562   T   T   T
 21.6981620639361878 11.2931318940749481 -0.7195609289866913   T   T   T
 27.1947820269555507 16.2505470221061401 14.4731693722486821   T   T   T
 17.0659096714454037  9.6823036037655577 13.4861030767487335   T   T   T
 14.6140106609416360 15.5688284895656910 -0.2133567177519622   T   T   T
 -2.3160229008572930  5.4510189245820717 -2.4127866779545886   T   T   T
  6.5818497133743454 10.4599800856963476 10.7133288210607667   T   T   T
 21.6441448411782318  9.7144836104984638  8.9736990962513321   T   T   T
 26.7433058117363771  0.3967268490836567 11.1439099146005098   T   T   T
 11.1686791915287724  3.9487355084934479 18.6402077269762678   T   T   T
 14.6839892381302501 -5.8357217965126198 -0.5891427580148731   T   T   T
  5.1569302147301919  6.1898008958627582  2.4033021429488843   T   T   T
  5.3556085338097743  2.2591162653106194 12.8921572137737481   T   T   T
 19.5930380612018595  9.4751724101148476 15.1729558331624617   T   T   T
 -1.7740897672871436 -0.0686508213070790 15.0533151883781038   T   T   T
 11.3008428018744063  6.3216973023508629 11.9066951338653091   T   T   T
 15.6107250196006682  2.4606930265919011  3.2782680868852978   T   T   T
  2.3813013453705585  6.9217430915299580  2.6403106011691029   T   T   T
  7.8128929548362533 -1.6996220316537882  7.9709373033485589   T   T   T
 20.5454318218768179  5.6404189620004450  8.0852013366287423   T   T   T
  7.3480756035078558  2.8064067889979816 18.4357766311920166   T   T   T
 10.4442600212003587  9.9663511434796970 12.9517885687095173   T   T   T
 18.0538948691349432  0.5633165806392528  2.7220658601427652   T   T   T
  8.1090351796509932  9.8181832309644399  6.7692361021036502   T   T   T
  6.8304685873929083  1.7202564888029919  5.3237735756408888   T   T   T
 19.7219364527702439  9.0910618903525897  6.2070468463831538   T   T   T
 -1.9108882071094995 14.2654503531261145 19.4328497550777399   T   T   T
 10.7341902394044126  6.6550770728206201 14.7093008138483583   T   T   T
 15.2010814180038345 14.1896444189397020  2.8419717375208369   T   T   T
  6.9862677028700357  6.9096663391047439  4.7688342424458430   T   T   T
  6.4953018977224204 15.3892543210491368  8.2181951053604934   T   T   T
 18.8943124914936078  5.3155229082374147 11.0633317472923505   T   T   T
 26.3267809539663631 -1.1591514971279984 14.4726464847919036   T   T   T
  6.9390091715885722  9.7609079462044566 14.1036727688630759   T   T   T
 17.2967244132243039  5.1802294815603380 -0.6887497822298680   T   T   T
  2.5517729321083702 12.6192863911047954  0.8424051866185142   T   T   T
  9.3990378826524452  1.9466285916597801  8.9072052942622353   T   T   T
 18.4110329190073472 13.6066624948989876 13.5523488515655757   T   T   T
  3.9990623183113239 10.2833015737140645  7.1039572351380347   T   T   T
 14.9545444912470629  2.4354701463168862  8.8745699313541753   T   T   T
 13.9885338585385579  9.3087779464873908 14.7123276313320979   T   T   T
  4.0960995163308427  5.3342044886923414 13.2206290533729653   T   T   T
  8.5078287473488690  8.9930317550751280 -2.8029236054090316   T   T   T
 21.7368055905385091  4.9184878253947142  3.1610811040856350   T   T   T
 -0.1164345224623904 12.3537981596900348  8.2201589699376534   T   T   T
 16.6718823818433037  4.8979151995514663  8.4049700690887548   T   T   T
 14.3342985391445357  6.8600949244809213 13.2918391600448249   T   T   T
  6.3542510939977168  6.9046330667298639 12.4837558395739077   T   T   T
 10.2042372941257877 10.4498757719896407  2.2380211228755762   T   T   T
 27.8691983730835702  3.7896970953934135  4.7451254247120627   T   T   T
  1.5340451922637401  9.5880549531960533  9.2066249571179988   T   T   T
 12.4927252784801297  3.7208018382105039  8.7417929089353414   T   T   T
 22.1541685509446893 11.7325556627434899 17.1352446856508145   T   T   T
  6.6649262323692531  7.5168905216798976 23.6951823011124567   T   T   T
  4.3860050970739515 13.7203208446050802  2.7136770623140407   T   T   T
 22.7830144168517066  7.1328750198547626  8.7423311470292759   T   T   T
  0.1262313161393705  9.5136306905210244  7.1034436581130027   T   T   T
 13.6299324925521539  2.4248139835108229  6.4272760089595522   T   T   T
 17.6908710831880498 11.7611334869587587 11.2176853521695747   T   T   T
  8.2413229476383236  3.8717387657527440 13.1198643134145225   T   T   T
 16.7481911330903657 10.7984272069235967 -2.2913717604814936   T   T   T
 25.8298118254799363  5.8096966123552818  6.1331762452825709   T   T   T
  2.8172531937988174 13.3100046864437509  7.9147645348009767   T   T   T
 13.8575828444197207  5.5961235870197301  5.7454710113830503   T   T   T
 20.7135684874825472 10.9635292462031462 12.0933875315408290   T   T   T
  4.2948705331591590 -1.4289395347035159 13.6465166934506410   T   T   T
 11.8639635603836950 12.8814425648328132  2.6408570138978726   T   T   T
 19.2016518945701264  2.2812887875951113  7.3511439481561549   T   T   T
  1.3744330093649995 10.8782902821018297  5.0040766102729570   T   T   T
 14.7654507024267527  6.8393837136656428  8.8858746060901765   T   T   T
 20.3144453527317026 12.3527438760472315 14.7682023291075204   T   T   T
  7.4523844388957192  4.8047944684589270 10.3990321989132166   T   T   T
 10.2074328414614772 16.9128957364493786 -0.5991704528335901   T   T   T
 24.4724628594707809  5.1458070244157330  2.8241414846798953   T   T   T
 22.7972037553927791 15.1093905870180052  6.6317863603875340   T   T   T
  8.2175747311744551  5.1711252083348267  7.1537873649012109   T   T   T
 10.0533912413596234 16.0594241293977689 14.9287679152787032   T   T   T
 23.9983017884347447  6.0927437010893488 12.0565463246370026   T   T   T
 -2.0876992379239798  8.7665378606061459  3.5113004429465460   T   T   T
 18.8974187927360546  8.3194635344731331  8.6432905408609759   T   T   T
 17.2587415453168234  5.0387155595714441 14.9958995657226382   T   T   T
  6.2887688892675868  7.0362700231366286  8.1893609846277862   T   T   T
 11.7563981068256282  3.2583203532264466 13.1811319610692177   T   T   T
 24.9683361722746682  3.4834142553547718  8.6092588646726469   T   T   T
  1.5909102090050795 -0.2468964961808020  2.5962319005708445   T   T   T
 16.4537923902149217 10.5264060556731085  3.3086688255704706   T   T   T
 21.2601747367394225 -1.5466879369202162  9.0879178703931398   T   T   T
 12.7640789221230868  8.8170830819609378 11.2363754888899656   T   T   T
 12.1667101929812951 -1.5305465930569844 14.7829350818365128   T   T   T
  0.8843063362316557  9.2021156896268295 14.4922984100276491   T   T   T
  1.7104029771122826  8.2040885989601229 -0.2781622878837136   T   T   T
 15.9809275256211070  6.3125016129037812  3.1338384100991949   T   T   T
 23.5965276395334200 -0.6456330813850940 12.3273588014014823   T   T   T
  9.8767458417912248  7.6297669634645482  5.1962214965065128   T   T   T
 14.4607182781993941  1.6276381148236905 13.3377761633067173   T   T   T
  1.9082739342949173  7.0910061802533839 11.9036350366954053   T   T   T
 10.2657470778390874 -0.0283030034029631  6.6186133043277451   T   T   T
 18.6339823713997177  7.6077339988105601  3.1946667270080957   T   T   T
 18.7633666852349066 14.5899201620036987  9.0038274921109220   T   T   T
 13.1560067022667084  1.8334092769406802 16.0240184412695186   T   T   T
 11.5400119697119443 14.0808307785619515 12.2968204210001257   T   T   T
 -0.2453709065241059  5.5260561881660077 14.4330255203925049   T   T   T
  4.1649200639040433  8.9532050041884705  2.5912846122324127   T   T   T
 21.4570546593757996  6.5839854877029129  5.3845100543918267   T   T   T
 20.0690955636901336 -0.8270950531129835  5.9567265374545260   T   T   T
 10.0342642665441701  7.6593901140374809  8.5338691196801264   T   T   T
 15.8730356623812927 -1.6671852298857337 14.8405711817331287   T   T   T
 24.4980051589510808  8.8943196335422190 11.3140692445730018   T   T   T
  0.4178372584976964  1.9908791828749552 -2.7838565367769976   T   T   T
 16.7770519116298047 13.3200453222718984  0.1470471371487350   T   T   T
  8.4900285156611339 11.3335971169793517 28.5278077261843954   T   T   T
 22.3773531649147444  1.1314316974003273 30.6314039637752877   T   T   T
  1.2390092779829867 12.0366948133709641 23.9921178980119549   T   T   T
 12.5039602071825975  6.4234375744545327 21.1839056705346316   T   T   T
 17.3021782819919423 16.6371606124275289 36.5406377683167136   T   T   T
  8.6628764364797455  4.4384560242418605 35.8755973142058266   T   T   T
 11.1906597173034950  6.8102439860761521 24.5687011143945391   T   T   T
 25.3593063416904059  2.0151347908602224 29.0262548150490893   T   T   T
  6.0135132457958074  5.7317282109044099 15.2833474613246700   T   T   T
 13.8639818568955508 -0.5731050777758051 19.0940577428307776   T   T   T
 15.8020019512000705 11.9915493796050630 30.7180650433398768   T   T   T
  4.1681928735252844  3.3953324761823813 34.9239376811124345   T   T   T
  9.4265614938068722  9.6808285409958827 31.9025153417482876   T   T   T
 24.5878146545654417  3.2304180695492373 31.8068232228159395   T   T   T
  2.5253490411670918  8.1506048957935224 22.5112354732719702   T   T   T
 13.8563785005378008  1.5928898571128143 23.9561135978047943   T   T   T
 19.4047437294707095  8.5377731044464280 35.1491520523366248   T   T   T
  3.7939211125188206 -1.7422090742122240 31.9748561730448415   T   T   T
 10.8939370566189879  8.3182939703714780 29.8220153914198924   T   T   T
 23.8127689905673350  4.9956885915632245 28.2654929580728016   T   T   T
  4.8484251461830601 10.0920868370111556 24.5198585573449357   T   T   T
 14.4835254064927312  3.4186822663007566 22.0471544888322413   T   T   T
 23.2004108543856304 12.9862444812681055 34.9255281476171149   T   T   T
  7.7200597828456514  1.3038870837751968 34.3321687802348308   T   T   T
 10.3503227733104382 13.1139766104107842 30.4302709165434244   T   T   T
 21.4127942629807535  4.8096339113577802 23.4642919949872528   T   T   T
  3.3112071225262150 16.4421231020384937 18.5692470506971965   T   T   T
 14.3041050228135713  4.9807517827809908 24.7319827959159468   T   T   T
 19.4057071368971918 12.5515118793782463 34.8158670286747309   T   T   T
  3.6528080418756801  4.7287516124113393 37.6918642384837383   T   T   T
 11.6223815820526220 11.0822674077028331 32.0130857755611729   T   T   T
 22.1024685882862642  4.5146468495269803 31.6347015107765444   T   T   T
  5.6258539994176902  8.3515781960808901 19.9476046014193997   T   T   T
 15.7575186472714783  2.0777102043795437 26.4334964599844788   T   T   T
 22.2634740631037218  6.2062583381935230 37.8375219904372813   T   T   T
  4.8640339041967451  1.8203205178341293 39.4480238592838859   T   T   T
  7.6865534458619500 -2.6834713416571088 24.5509182869002487   T   T   T
 23.5574960065268471  6.6200275883308635 24.9292282970485033   T   T   T
 22.7803958846668380  1.9914124782946676 40.1070540480776003   T   T   T
 12.3936402787347362 10.9722411353192673 28.5361220393148542   T   T   T
 18.4059596441310376 -0.3103215640121056 31.8339291922109346   T   T   T
  3.4063487892188360  8.3789199044362164 32.4848293023150489   T   T   T
  7.0242595055779251 -0.0103112773665531 22.5815629998739169   T   T   T
 22.6513670244320267  8.0209726913619743 22.7763966083477989   T   T   T
 24.8201720421309986 -4.0751021693762901 31.1343398102744082   T   T   T
 10.6945950268794494  7.0186735955416495 34.4748719293445873   T   T   T
 23.2770071400459031 -2.6715647584002284 28.0156516359933576   T   T   T
  6.3783473220797227  6.5474361633768581 31.2647241397603963   T   T   T
 10.4481568720641125 14.3569816493487554 25.7673069857317749   T   T   T
 21.5062010191888078  8.4771618517740013 17.5520927111908662   T   T   T
  0.5027243562573780  9.4535977767461983 34.6600256193622869   T   T   T
 17.2378357257737846  3.2958689602667861 34.2671755429503477   T   T   T
 16.2188561390853963 16.2598313667576946 29.9504429295196211   T   T   T
  4.6814211109424866  8.9944241977458077 28.8164387107584581   T   T   T
 10.8848924213864358 -1.6197357649081854 23.1898715805014852   T   T   T
 22.0292448833815300  5.8683961510984020 19.3371112105092813   T   T   T
  1.3370563706507386 -1.6705106888846755 34.9962043252912238   T   T   T
 13.5061829310977526  6.7034681780224235 38.8031421550993372   T   T   T
 20.2294219968031044 -5.5104683667121890 24.6753397217409400   T   T   T
  2.3477823438713248  7.7755678922471470 29.0179425065086072   T   T   T
 12.2903779543419862 -4.8734400561691729 18.1989155603293753   T   T   T
 21.5526807160968445 11.5918635550513720 23.8415902508585376   T   T   T
 -3.1623220631127338 -0.3096904403139192 37.8820329720955087   T   T   T
 12.4759294123536701 12.2165269213097663 35.9519342132014614   T   T   T
 19.0601510104923690 -1.7324612787366240 28.7479454533300789   T   T   T
  5.4309291867528353  5.5307195786728913 28.6948928312853937   T   T   T
  8.9549902441682097 16.1756060671588173 23.8828567056989769   T   T   T
 17.3774494013278158  4.4504214447109636 24.1930444330126626   T   T   T
 28.7504766050761162 11.4353991862625683 34.6966188505829152   T   T   T
 14.8574218349897436  5.4439168522995178 34.1378346755411570   T   T   T
 15.7560734461302268 13.2106965032889452 27.9623719648052180   T   T   T
  3.3156030284010378  5.2709732487749852 31.6934954276946499   T   T   T
  8.8282110294469121  3.3914268930395228 28.1959830404830960   T   T   T
 21.3535156885744968  8.9968955644355866 28.5332181746359304   T   T   T
  5.2507568562196107 -2.9302634144660749 21.5077193878283808   T   T   T
 14.7281031525270265 12.6039984899562700 22.1036667713732804   T   T   T
 13.5726361626761296 10.6719300459875139 37.7899923007827070   T   T   T
  3.0782082061684544 15.5497332264669890 35.9653338184101159   T   T   T
  9.3775267186113531  5.0535554962366556 30.5707372485213256   T   T   T
 20.4383984306003725 13.5311731653443807 26.1274570752574427   T   T   T
  2.0813690539262453 -3.3604134477284777 26.2838940171671496   T   T   T
 13.4662681661550856 12.4176551814877385 25.1504052897262760   T   T   T
 20.8412507001953529  2.7460708581028670 37.4909749847275435   T   T   T
 -0.1252253481838787 10.6428585957613713 37.7899965339622241   T   T   T
  9.4306711990825942  1.5335086349125480 30.1248939649418226   T   T   T
 20.7538590377611811  5.5252501600201391 26.0245641351673207   T   T   T
  3.8382828284317845  5.7248602421354162 19.3350981885607389   T   T   T
 17.4374927736546965 10.8405235225273273 23.2271549837319000   T   T   T
 19.8713637159117269  1.5138276281648988 34.7928886572592546   T   T   T
  6.3134049605085290  5.7971608925806883 34.6158252622082543   T   T   T
 12.4091459697816511  1.9874787918935373 28.4163911106999798   T   T   T
 26.1212758875454440  8.7282607074741794 25.2204037323891797   T   T   T
  0.8297970660321564  1.5297919524116714 24.4051628710537152   T   T   T
 16.1721249823123685 10.4429500992380824 26.2530818400991350   T   T   T
 19.2974149106699286  5.8954979439085085 30.0192019209990200   T   T   T
  6.9567451384313497 14.4325774339262960 37.3397282035687823   T   T   T
 10.9629950936618741  5.4136534314896325 28.6326545491276860   T   T   T
 24.6839805339895833  8.8622615280946260 29.1045176260740632   T   T   T
  0.2210200752204934  8.6334196197193265 18.6219429949712243   T   T   T
 12.9014320416026447 10.5278750940754495 22.3852221069277988   T   T   T
 18.4471263583050131  8.1930375831413773 28.5888347854201790   T   T   T
  8.5922815899098701 12.4947417479482770 34.3074248189802802   T   T   T
 11.1339046217308351  2.9152814516458379 32.0822640219000448   T   T   T
 21.2908265522096016  2.4705804133085136 28.5670157820430077   T   T   T
  1.5106089961530988  5.4467953326429166 24.4191683652031770   T   T   T
 14.8715942988848937  8.3602223871655976 23.2504986154428046   T   T   T
 19.6578659225967201  5.3283900761959933 34.9759120299446096   T   T   T
  1.6289249114581990  6.0230274253184097 34.4943882739796521   T   T   T
  3.7472100957284917 -2.9904821799438519 29.2438443566462034   T   T   T
 15.5038527568952009  4.6437697850354960 30.7569629237682172   T   T   T
 21.2149895174650283  1.7577013161300068 24.0154507634472729   T   T   T
  8.6400726068584817  9.1406913407897736 23.2029424106789008   T   T   T
 14.0977138377840365  1.5418890767337605 34.2881075979557437   T   T   T
 24.8845839716562693  4.0210020768250896 36.9001203820726218   T   T   T
  6.7511742925751026 -1.1288679572085987 30.4138636347897240   T   T   T
 16.9334827987117436  5.6305214870380116 28.0263225800879674   T   T   T
 23.2641454888063066 -0.2134311462826668 25.0166292248150306   T   T   T
  3.1305561058608347  3.0866708867827986 26.3316639741541287   T   T   T
 10.5268577641617327  1.1349153367422069 34.4751999504816808   T   T   T
 22.1714451971097688 12.4026728673633428 31.1539546847177924   T   T   T
  2.7216654811241461 14.2642644168615860 28.4767011295935930   T   T   T
 17.6456726223125244  1.4864962088899583 23.7215580063386469   T   T   T
 23.6741577259499678 15.4720292293764867 22.4279850770797147   T   T   T
  0.5273726541869818  3.9535574857364546 21.8789411627998405   T   T   T
 15.1847684481738536 12.4716801458533766 34.0937827197701750   T   T   T
 -2.6090966862183125  0.9274818827706206 34.5310193824059297   T   T   T
  7.5692253041198478 -0.2701986471489896 26.3159336825992227   T   T   T
 18.6569811237462062 15.3637024933780530 28.3223541646920580   T   T   T
 28.1052531963995875  1.2639445574996315 22.8090827466720611   T   T   T
  7.8155957567340488  4.8334533442262106 24.8732901406782680   T   T   T
 13.3123365229751300  3.9595769058208448 36.3245875647286383   T   T   T
  4.3829263493479580  9.2370693464165292 37.0383949352094106   T   T   T
  3.3604104352966657  1.2140013351325456 30.9527935866638906   T   T   T
 17.1934161791299260  7.7238705036649975 32.2918270724145131   T   T   T
 21.0540171152115292 -3.8588943957349526 20.3788647774406861   T   T   T
  8.5869058793400512  5.0889159225895471 21.8963487641019761   T   T   T
 13.0563532121934056  9.6089520657689995 34.3291063807296553   T   T   T
 -3.1488149869871447  8.8338809920353647 31.5909347110364891   T   T   T
  5.7884307143274230 15.2318037628383323 28.4619011148890841   T   T   T
 15.2055552374611995  7.9053346210090778 28.7461307574521179   T   T   T
 19.4512478316761204 13.1610214352860595 22.7346969404871295   T   T   T
  8.8021666890390087  7.9706137101722980 26.5353184475829522   T   T   T
 10.5277426169838417 13.8201199155016266 37.2185681883937889   T   T   T
 27.0279022684772769  2.5173037462355285 38.2169473909433535   T   T   T
 -0.1823145938449013 -1.0414609260349532  0.2389819562907150   T   T   T
 12.2570379093403794  7.7388981294640375 -0.6634824275529811   T   T   T
 16.7887186403706465  0.8307891870722147  5.7868055282472453   T   T   T
  3.6203496767168684  7.5905944051365823  5.8492135672566130   T   T   T
  8.3816651165107601  1.1161236374454599 11.7633370813251599   T   T   T
 20.9818859148248293  7.6848033395127429 11.7536591202154028   T   T   T
 22.7597603595431934 11.6325980066784407  5.8237980371987925   T   T   T
 10.1625979232507486  4.0180695436782843  5.7086386986805877   T   T   T
 14.4913780784800466 11.4023622336279296 11.6534372709746581   T   T   T
  2.0899261211270765  3.9579878318693846 11.5307724947217274   T   T   T
  6.5711449642813200 11.7091182261368854  0.7047897254970139   T   T   T
 17.0219421033903444  8.7100326213916031  0.4032225434616749   T   T   T
  3.7184340701049292  0.3540322872160084  5.6212597257410080   T   T   T
 16.5015110791097399  7.9250427011981159  6.0264058994312828   T   T   T
 20.7103783000274362  0.3256139762030758 12.1831408994698247   T   T   T
  8.5291741400886103  8.0276137471504843 10.9298318718670320   T   T   T
 12.2665905943033735  1.7836054957780030  0.2055049967759696   T   T   T
 -0.9468034226293133  8.2466006185013470  0.6621432337236820   T   T   T
 22.6545823944842510  3.9290255365058524  6.0691378498591320   T   T   T
 10.4411569690015824 11.3237041525290572  5.3264653426684490   T   T   T
 14.7569465639102368  4.2720483413180643 11.7151109780041836   T   T   T
  2.0310635647554425 11.2884078510553110 11.8729397503029563   T   T   T
  5.4067293457645178  2.5695197669837668 -0.4086707218940553   T   T   T
 18.6972513570514707 10.1304840971509709  1.0351424970353635   T   T   T
  6.1659799858292796 -0.5384529930073203 18.9320308220511748   T   T   T
 18.8644471909536833  6.5472543437053368 16.7795902696733599   T   T   T
 25.2726205968681654 -0.5397343162021843 31.5448192550359821   T   T   T
 12.5532571371242891  6.7181892594070254 31.6640530637795266   T   T   T
 16.9487690587649311 -0.5136630800639053 25.2252544525782731   T   T   T
  4.5004651805568425  6.6513979065497706 25.8698075214485641   T   T   T
  6.4929599902919737  3.0405534492393169 31.4086352367369521   T   T   T
 19.1468878160005573 10.4463954080348298 31.8310636998460801   T   T   T
 23.2639479976012780  2.9964812372362819 25.3886841094342408   T   T   T
 10.6653549999973709 10.6168264691096379 25.5290161048157991   T   T   T
 14.3105168504001057  3.5703466916745858 18.7502042430008657   T   T   T
  3.3450078527330294  8.5195885914347969 18.0376166595537306   T   T   T
 12.8132279606429922 -0.2107171263142742 31.3819566806073311   T   T   T
 25.1311380743671435  6.8258320896432432 31.5893476355253391   T   T   T
  4.5452057866841677 -0.7069747128657582 25.2644872697875513   T   T   T
 17.2349160447905021  7.0464956972463542 25.4556618924248248   T   T   T
 20.2715597196737036 -1.3295880737635803 18.7741800362988158   T   T   T
  9.8588404272735719  6.8687748168793705 18.1609783999622856   T   T   T
  6.0249874708671927 10.3528034279677925 31.6511148848763852   T   T   T
 19.2512693714568357  2.7498323534404419 31.4159480822082813   T   T   T
 23.5119447832994410 10.5067978495225258 25.3347477344294454   T   T   T
 11.0921267092115965  3.2198962527179189 25.2615067052921560   T   T   T
 14.5950724185745511 11.8613516687486786 17.6971193851408373   T   T   T
 -0.1037334887634948  5.0245842925472042 17.9635111553796669   T   T   T
  3.9143339497454894  0.8348337903050901  7.7150427904615828   T   T   T
 16.6570393321948629  7.9523182446309395  8.0810536062969813   T   T   T
 21.0559104633393872  0.2703766394111581 14.2089461681249745   T   T   T
  8.6217296360224367  7.9161388129328270 13.0887369794246684   T   T   T
 12.3996417156728000  0.7292679334806641  2.0689813238488526   T   T   T
 -0.1337293001383913  7.3701906177726055  2.5060638725758602   T   T   T
 22.0029007475410481  1.8046263211610429 11.3269342622086722   T   T   T
  9.3873781041243554  9.7385465465184851 10.2300091182877093   T   T   T
 12.9821349455573536  3.9476246580483716 17.1063046186320484   T   T   T
  1.6331539744698857  8.9126766145760108 16.7712081605953642   T   T   T
  4.2650943157009555  1.9851898048343537  4.6646119481552173   T   T   T
 17.3683592041684847  9.7267262105721031  5.3045787332185039   T   T   T
 21.8199434135865928  5.8619073855915449 10.8074044811252392   T   T   T
  9.3502186862778078 14.0847872998816452 10.7570765451180446   T   T   T
 14.3797773363717187  5.3203294558709695 19.8566570155301712   T   T   T
  1.5338646074318600 15.6591713375728805 17.0933067900428171   T   T   T
  4.3363669511440515  5.8977813128408449  4.6629516212055524   T   T   T
 17.7906386905627727 13.7658261682694327  4.9190104127353624   T   T   T
  6.4892582425140102  1.3502707498442963 10.7701343550020603   T   T   T
 19.1205784230321285  7.9294039213193592 11.0342921107556702   T   T   T
 23.9149995857250417 -0.9453686156499926 17.2966290573505965   T   T   T
 10.7261883252495451  9.1929619485500105 20.8134091233921588   T   T   T
 14.8897966267842552  0.8908796033628402  4.9408060138982846   T   T   T
  1.6729539972190570  7.7801721041414833  5.2227374449579687   T   T   T
  1.5493865246400116  3.8697728522842314  6.9020615453043588   T   T   T
 14.3636383526102556 11.5342897449838091  7.3680488763945471   T   T   T
 18.7446636014554784  4.3909537383243551 13.2209056388571540   T   T   T
  6.1841232505153654 11.5956618382338519 12.7907615818114540   T   T   T
  9.4301908481302981  3.8130834263058953  0.8543623903952772   T   T   T
 22.3796189784075708 11.2198278560732252  1.7187695919924921   T   T   T
 22.7799518916481887  4.0551917424857669  8.0867764480564865   T   T   T
  9.8120357873781199 11.2704707457538280  7.4500940509185440   T   T   T
 14.7869507068770858  4.2809404686095567 13.7421744122745455   T   T   T
  2.3579933304150456 11.2068851125912250 13.9404015588947896   T   T   T
  5.5975844085238027  4.0463749308613766  1.3692968837553496   T   T   T
 17.9160651246212197 11.8536678967264208  1.6899486975594640   T   T   T
  3.1300704519001532 12.8795657678413100 11.1080171592557342   T   T   T
 16.1327895662663678  5.7563400862413436 10.8943565844216259   T   T   T
 19.9045062909319128 11.2643507894791490 18.3004001022844207   T   T   T
  6.8954575379034928  5.1762976484639802 18.3569915718179892   T   T   T
 11.4307655623317501 13.0323273323197562  4.8870368581262982   T   T   T
 23.6616895321404996  5.5490330692095320  5.0988035525038233   T   T   T
  3.1523918274749758  2.1706278142834226 11.1827330229175566   T   T   T
 15.3384298735186686  9.6489037743219015 11.1611562581884805   T   T   T
 21.0603132907703241 -0.1991032789496216 17.2689062893510616   T   T   T
 11.3656208524768463  7.2865454094491104 16.7697655136866430   T   T   T
 11.0918389897613654  2.2439803417911470  5.5093009981002341   T   T   T
 24.0069666631452847  9.9960198331903118  5.3137972236413127   T   T   T
  0.0859707820188004  4.1698791558252797 10.8742919562490439   T   T   T
 12.4267895422473966 11.5342174119121292 10.7063176610825987   T   T   T
 16.2381274958746218  3.3170037088510234 17.7670326262935880   T   T   T
  5.9064209985232310 10.5386180873252915 16.5319213909458966   T   T   T
  8.2368921498811165  3.8885714422645519  5.0021673514306437   T   T   T
 20.6020241333835585 11.3364935901490345  5.4968324261145485   T   T   T
 -0.1107743237036588  0.5352710060715097 13.3774051112672119   T   T   T
 12.2874593739134230  7.8854792892303545 13.3234073450158697   T   T   T
 16.4595418767579318  0.9596123629982953  1.2824591187407448   T   T   T
  3.6372285894696552  7.3742954260552418  1.0118065696749172   T   T   T
  8.0993780539470777  0.4063685904682953  6.7526376215226769   T   T   T
 20.9780240578041060  7.9542368199301396  7.4491020692347369   T   T   T
 24.2600599521273708  0.2020258365883302  1.6577286221418088   T   T   T
 11.1712051291205814  7.5634301040623440  1.1288245428960872   T   T   T
 16.7930123005891261  0.5497447158231169  7.8080600908067979   T   T   T
  3.5492453492530820  7.1036435191959786  7.8163284664821671   T   T   T
  8.1756780852146527  0.9001085554540693 13.7607037792629203   T   T   T
 20.7643336560656806  7.6286103913076460 13.8315838910873783   T   T   T
 22.3074021597054681  9.2513044652056227 11.1169435116038482   T   T   T
  9.2700086847249725  2.8430109020153425 11.1464961858065834   T   T   T
 14.2992591968303770  9.9372164754099099 17.0902086663346999   T   T   T
  2.2628724872466979  3.7334266056266898 20.1346733817401322   T   T   T