Li P  S  Cl
 1.0000000000000000
    25.1819793006824639    0.0000000000000000    0.0000000000000015
    -0.0000000000000009   14.5388225279766061    0.0000000000000009
     0.0000000000000000    0.0000000000000000   37.2126966544236950
 Li  P   S   Cl 
 286  48 240  48
Selective dynamics
Cartesian
  1.5079052276063289  9.2192155588342217 15.5307742553412744   T   T   T
 14.1236272634654032  9.7998304762956145  8.5579263346629677   T   T   T
 18.7585685846198800  2.6656971344115679 11.8585497784961671   T   T   T
 12.2211414007737336  5.6378987239370160 12.1037652011446166   T   T   T
 -0.5601758985730028 -3.4101972106262868  2.6323322764361476   T   T   T
 22.3335585823017198  9.1155476364567356 -0.9996336050702623   T   T   T
 -0.6919985326044027  6.1939572423386444 12.2452727207218537   T   T   T
 15.4721921506720772 13.8388958973134066  7.8195317082981131   T   T   T
 15.2799897612139386  1.6848665638338671 14.7834606851522068   T   T   T
  2.8447443350498380 15.7860723296193477 13.2824604605109968   T   T   T
  7.4039077432516534 12.6838938779334924 10.9697459325027378   T   T   T
 20.3133830890861020 13.0588284958435032  6.3537988783992940   T   T   T
  3.7191986398782979  4.3344251236617808  6.2842684163865128   T   T   T
 14.0322603361411922 13.3182315260467767  4.9279815528055098   T   T   T
 22.0581719763308399  4.5941279662797267 17.6958577575325862   T   T   T
  9.9085978727474462 16.0616515604827121 22.6132244431827765   T   T   T
 10.7066737027858334  6.9483440469756692  2.2929424813888786   T   T   T
 28.9755500707435942 11.1472253191036152  9.3079575787499458   T   T   T
  1.8004263893519090  2.1393236500473902  6.6164615788024550   T   T   T
 14.4949633076295576 10.3613122774985627  5.3950981548935886   T   T   T
 17.2146327856947892  5.0861071179942838 14.8008208740101779   T   T   T
  9.6759310624748096 16.8831019451265014  8.9951992895342041   T   T   T
 12.3679074364808734  3.6834061358110897  3.2687847810861821   T   T   T
 22.5356434546064008  5.5120919160209914  3.0482448803392388   T   T   T
  0.0059906540814962  4.1927631870460091  9.1612070490597777   T   T   T
 17.0774471344520009 11.6299385589201592  7.0361533024281195   T   T   T
 27.3526629746840797 -0.6906854083041215 14.9470399393174276   T   T   T
 10.5442428039882348  8.5577295559751327 13.5575151785374253   T   T   T
  9.4794857981247365  2.6866264303617751  2.5636137439201954   T   T   T
 19.7379011270569436 16.2108049642901157  8.5177078515853619   T   T   T
  2.8824937383499565  6.3957534612769020  9.2430581955759479   T   T   T
 13.0555880957920269 12.6062966100599709  8.7163677038267551   T   T   T
 25.0281636119169377  4.7600003109567046 18.6939070474781133   T   T   T
  6.3120269340347983  9.2490894859549897 14.0247172785015906   T   T   T
  7.2422528856747803 13.7732972385249717  0.0822755152051348   T   T   T
 21.8114251257404632 15.5286708486766614 -1.1045094058295617   T   T   T
 22.9290008001991126 13.8561739680182079 14.2185063331826846   T   T   T
 14.4897851663592068 -0.9499010621424898 15.2838730261760904   T   T   T
 16.5508662527411161  9.7037217531522018  2.7032336756361763   T   T   T
  1.2275053678745764  6.0703786462035181  6.5657496949437695   T   T   T
  9.7493805799055817  9.3701467758463011  8.7929929800031488   T   T   T
 21.5126010706561530  6.2937967810062174  5.6871844017868387   T   T   T
 22.3433446586810049  1.1992711429880814 22.7786534505102907   T   T   T
 11.3099943206880678  6.9633673517407750  7.0920351575975609   T   T   T
 15.6937803621177565  1.1783716469647567  3.4640482636753611   T   T   T
  6.6859152437511895  6.0744435813347151  2.5701959413235489   T   T   T
 10.4733272763412018 -0.6510396110815223  8.5669725587906829   T   T   T
 23.3144925501872322  6.4204841944473836  8.2269831349004434   T   T   T
 -0.3405320970717127 -1.9376441707156686 13.3080575622816060   T   T   T
 12.7961109435181619  8.5227183243510929 10.9743263778309821   T   T   T
 22.3172165048062325  1.1484684509815606  5.4406785434412743   T   T   T
  4.0948761888574197 13.4790127573704197 -0.8641638247067607   T   T   T
  6.7168793768961041  1.3628404167792534  8.6252379293524921   T   T   T
 21.9197457314206403  4.9165034414801880 13.0116328601237772   T   T   T
  2.6449346983968054  8.1099810971691149 12.8831210810637504   T   T   T
 12.8144999844366101  2.6376051439641715 13.5561876549542148   T   T   T
 28.0514277681989981 -4.3350821232651349  5.2589281166505186   T   T   T
  9.0099307097626369 11.1505963083917727  0.5105935774035727   T   T   T
  7.6438321719981257  1.7677495221911372  5.4845364472722888   T   T   T
 19.5257490847874706  6.5215866219982797  7.8493108556471016   T   T   T
  0.3463885606914002 14.7406925036807621 11.3974897062759144   T   T   T
 12.3548007122155052  8.9079230952910464 19.0386660713361380   T   T   T
 17.2722341978771681 13.2268152250987079  2.7586231592149391   T   T   T
  6.3852231385071647 11.4296757838100405 -0.4603443272416873   T   T   T
  8.2599304955606065 13.2172533820078719  6.7828328087777772   T   T   T
 20.7790519609384674  9.2172594700150263  5.5372392953200027   T   T   T
 25.3891089573710786  1.2497050431627745 16.0503583770351987   T   T   T
 15.3423980638612978  7.5916819387324601 13.1334359100026390   T   T   T
 22.2601869657118741 -0.8439496987563915  1.4996060997257343   T   T   T
  9.3028763451455294 11.2940521184027425  3.0065045995811546   T   T   T
 10.2108246825169928  1.0291461461158371  5.5674479544410351   T   T   T
 21.6964002134609046  9.7514327975302351  8.3983518644417234   T   T   T
  1.1439690373657152 13.6267896411516460  0.3068467281082460   T   T   T
 13.8088120988880831  5.2672543071945750  9.3424254125033865   T   T   T
 18.4925617066078729  9.1748191378793429 12.8419776939888077   T   T   T
  8.5555138435098677  5.2476301724600374 14.7037522912062428   T   T   T
  6.3030623326924831  9.7686228769414569 -2.5004511781460343   T   T   T
 27.5836999662039304  5.0859745815465898 -2.2016262088427396   T   T   T
  2.0169986363485570 12.9326291090435461  5.4095581588809729   T   T   T
 13.4199376744433536  2.7472575877885816  7.3762355849812593   T   T   T
 21.3050760886186765 11.5226939859516335 12.9679313726891632   T   T   T
  5.2527484365091190  3.0543051657492479 11.8082473227473574   T   T   T
  8.7166289863260111  9.0487635803155584  5.5229102308383622   T   T   T
 24.1596167782962965  8.0020445785009819  6.2468667082700202   T   T   T
  4.1726119761514830  7.2444629693243749 17.4849281630870124   T   T   T
 16.6506344294884912  4.2683933103630478  9.2726031236572446   T   T   T
 17.8946227771963535 12.7772114083693005 12.8344082412266758   T   T   T
 12.6985791592644990  7.6288182079378002 15.6344140223548074   T   T   T
  7.0994934626510160  8.9078345691192737  0.6044976027721691   T   T   T
 28.0642462687515675  2.9100514270743036  1.6277459288942731   T   T   T
  1.1357080425344694 10.6553274337148061  8.7126784518921649   T   T   T
 15.0548462862919177  6.8385943042611785  7.5707596424871708   T   T   T
 18.5877950153044367  9.8786842086934641  9.8403443632724841   T   T   T
  8.3047729795302931  2.5044549958752875 14.8324074935311092   T   T   T
 11.0093392952232296 13.6389655864012731  2.8569441462309610   T   T   T
 21.8942756495610027  2.9761801476187113  1.8921809939119505   T   T   T
  4.8494829711344130 11.9912682236295680  6.6953528694464781   T   T   T
 17.0777773050278583 -3.9255540838087288 15.0443090062751317   T   T   T
 19.9305434778619173  9.3401504185328434 18.6892802605633896   T   T   T
  5.5381132578847083  4.3078969764738906 15.4313612698235065   T   T   T
 11.9360796134957852  9.9617938559287822  2.5236749979754278   T   T   T
 23.7151936708673290 -0.8185490005028044  7.5799931683185564   T   T   T
  2.5773496791109634 13.9494185726596491  8.4514142758727804   T   T   T
 14.6785036532978062  4.9460502823505159  5.4013482533704940   T   T   T
 19.4237189381804072 21.3655257527374687 13.6367745936294789   T   T   T
  5.6397926476093216  5.6885025424927971 12.5284168166692602   T   T   T
 10.6927740639053912  7.9805716171611740 -0.2562554300462836   T   T   T
 23.9212163561269691 12.4549834828746704 -3.5525980981910310   T   T   T
 19.7690726106912678 13.2766989785357588 15.4430903117806348   T   T   T
  8.3252622032430974  6.0133017263993196  5.4212719611378919   T   T   T
 12.8048790632381930 10.3116103438450359 14.2701435373219301   T   T   T
 26.8284768382140655  5.7124480446552042 15.1445718784282519   T   T   T
 -2.9147577840351064  9.7416238506804227  3.2855640085287803   T   T   T
 16.9493133464789167  5.8723158602435728  3.0643512872689858   T   T   T
  7.9428019137535690  6.2308332498407202  9.0148444615703749   T   T   T
  8.9908384570265110 -2.7078418634524151 13.8506904837995499   T   T   T
 29.5033953329258480 11.6493108870026063 22.1639769375059998   T   T   T
  6.4258359059230203  1.5943721132167343  2.6245387932447346   T   T   T
 16.5290039627624878  3.0166965166603212  1.2039208947477473   T   T   T
 18.3203130193800590  5.2524400753562199 11.1638520714010081   T   T   T
  8.6866237618707718  3.9409624731340172 12.0181324566658603   T   T   T
 11.4330108445103171 -0.7245133264246716 14.3145875501766877   T   T   T
  5.3471524710223530  9.6106986589722112 11.0674462607634645   T   T   T
 -0.6262678267597395  1.5112876741565204  2.5328936763511796   T   T   T
 19.3057114474495464  7.6934849477433760  3.1599490161501746   T   T   T
 20.7885729410464037 -1.2162893151591896  9.4329856719613954   T   T   T
  6.8480893761940633  8.7993444587486742  7.6122919322753306   T   T   T
 15.2289346496551747 -0.9866835156253179 12.7421758580968518   T   T   T
 -1.6703962459628194  7.6541101431501231 15.1191465603141442   T   T   T
  6.7590203454946627 -1.1075809463737545  3.2030229096846998   T   T   T
 19.3406282335165898  6.9353354167728840 -0.1014586778938060   T   T   T
 20.8767042898862627 17.7861681095891804 14.9540074885016452   T   T   T
  5.1975049503959339 12.9954736241105877 12.9196798847560430   T   T   T
 10.4209288047625321 12.3143715903056190 17.2232441598347030   T   T   T
 -0.8454332530936509  9.2144778812631785 12.2593575863929587   T   T   T
  5.7045762822684365  9.6623387852718849  2.6759904374533443   T   T   T
 17.5214287170538512  4.2088027418234661  6.8081266274626540   T   T   T
 22.9509774366962063  1.5372345954264621  9.2440852576028032   T   T   T
  3.8063976287390462  2.9227430161816317  9.1258752705754027   T   T   T
 12.1843465518769136  0.0601680817593675 11.6460869516747998   T   T   T
 20.6671194385992578 16.2102485371622436 19.0294883090370774   T   T   T
 -0.1946040638645964  2.0557891635363417  0.1419371752356148   T   T   T
 10.9999980923703902 12.4287483010420736 -1.0557308160937604   T   T   T
  3.8858743099749553  0.0812865086469812 28.4681069448165083   T   T   T
 16.3324492988613770  7.4542758780130045 30.5223035780725880   T   T   T
 21.3255946175331559  1.0954474861771963 25.2920908278015055   T   T   T
  7.3705414564087937  8.0317572398237829 23.6724753789718569   T   T   T
 13.0353057167006607  8.3559500476197783 36.1025174270888272   T   T   T
  3.7379747674356198  8.3755488298197456 34.5371602191909233   T   T   T
 -2.1899295406905339  9.7684244281061545 28.8625569896405842   T   T   T
 19.8884582181079352  7.0660435162183095 31.5099215535611066   T   T   T
 24.8354424293228959 15.1895526885320500 28.2611446895480185   T   T   T
 12.0163595846701519  5.5696730287212306 23.8266636609319207   T   T   T
 14.7262241478509228 15.2680967252121675 37.6142477506046760   T   T   T
  3.8517937061146954  9.2681255491787695 37.4707694827717148   T   T   T
  7.5288483466286555 12.4811854526028370 28.7317182645291851   T   T   T
 16.2520797050774419  5.5269054515358809 28.6583767585870923   T   T   T
 23.8334667974778966 16.7799928277692878 13.0657705264960349   T   T   T
  4.5950812480187722  0.4912689809655203 17.2147429595319004   T   T   T
 13.6170367230441531 11.9889870318309377 34.3695361288715731   T   T   T
  0.6657874495917133  7.0847663307524593 34.7272885276942986   T   T   T
  5.3270759510241357  0.5939007190687838 31.7548995693109752   T   T   T
 18.1783968885617497  5.2324732909340952 31.6257549150651336   T   T   T
 25.0731726562598496 13.5072797104162596 24.3879939506440877   T   T   T
 10.8445345666639472  7.2179165480673459 26.0466660705176345   T   T   T
 13.1755818592393439 12.8244981027772660 38.2684885664648107   T   T   T
  1.8995314405019406 11.6639200069493150 35.4531397142713303   T   T   T
  8.5478145858227794  1.4433498749794473 24.7099254268461976   T   T   T
 19.9060618196053198  4.8711087970361264 28.9428534231580095   T   T   T
 21.8313283000090550 -1.7562910605747888 26.2553300777506102   T   T   T
 12.8288971604974211  5.6079357422417981 19.3610472424645472   T   T   T
 16.4653633946486480 -0.1463677252624223 29.0415041420544284   T   T   T
  4.6554468684724943  4.4811813905510425 31.2852347458560125   T   T   T
  7.8030383264179237 14.0433460228555766 31.2775142802250414   T   T   T
 18.6518992760027871  8.9823061295942281 28.3397621542638340   T   T   T
 26.8863626127331798 10.6964895746731337 22.2882653778601387   T   T   T
  9.5928649131521819  6.5118285755097682 21.4845939482422139   T   T   T
 15.1318703319004833 14.9257618758589246 34.6255775231174283   T   T   T
  0.4988159613225263  8.8717963026705249 36.8650329043144751   T   T   T
  3.5817307817567343 -0.1197415896000411 23.2914307032411827   T   T   T
 16.0494503977478260  7.3453471654977260 24.0642034281144461   T   T   T
 14.8017282580529432  3.9237047685015449 34.0510164214467608   T   T   T
  5.2765349093273928 11.9538304264676079 30.4034394672869013   T   T   T
 10.4294702813553819  2.7720946390922676 27.9976573064503000   T   T   T
 26.4396416248250787 11.4140298036828653 28.5160585422314270   T   T   T
  5.3593777931246107  2.1083148532469869 21.9414406558996262   T   T   T
 11.6262083522163948 18.0685265827051111 16.9462806643449007   T   T   T
 13.8759274037365916  3.3816483771092125 36.3836115601732075   T   T   T
  3.5730986304218759  6.6712908566683664 40.2584925760037464   T   T   T
 15.0796204635436304  4.5671326133747563 25.1638063272150809   T   T   T
 24.3163014266558903  9.4494629006059476 31.9448289748064518   T   T   T
  1.3960940521666316  1.5078462422470993 22.4451821701449390   T   T   T
 17.9799178404204838 10.0865214085114623 22.4829281785538626   T   T   T
 18.1554736759054052  3.2525110846729843 34.5895476892712281   T   T   T
  4.6633862706639189  6.3928941178221725 36.7837059731621565   T   T   T
 11.0270130215366482  1.8102750236627094 30.7320990540741796   T   T   T
  0.9307608633266237 11.3235045389296474 31.6685516458056462   T   T   T
  5.8774440576169233  3.0750199692594422 24.5389075429601604   T   T   T
 13.7634941083563724  8.7197697635089710 24.2307365126585665   T   T   T
 25.3850965335856671  4.3215610069920878 40.5179463590338429   T   T   T
 13.7796831496286440 10.3339281656973121 31.3192332929977830   T   T   T
 13.5207362616892208  3.3221643901532469 27.7423726006429625   T   T   T
 -1.6338279380356027 12.3958357967786554 30.2436517408114796   T   T   T
  2.7710071887363990  3.8256946419675386 25.2278266783754361   T   T   T
 15.3245997466520372  9.6166633305072864 21.7418602859854388   T   T   T
 25.5589753117621541  6.1560902858037618 38.0393495411173888   T   T   T
  9.8348229347579839  9.0822769169837620 34.4145664010762715   T   T   T
 10.9929756139470101  5.0186818975496665 30.1816054678297512   T   T   T
 -2.4650068890748402 11.4172441802915223 23.6269862779478039   T   T   T
  3.7458639923317949  0.9022067630590055 25.7689456733702649   T   T   T
 20.2251915998565295 12.3063628848408477 24.1796364760303355   T   T   T
 18.8199929245785498  1.2008367581644996 40.4680678818686630   T   T   T
  8.5103608355561615 12.2157639690147093 34.3756376553919267   T   T   T
 13.9331566482093230  3.5006775411278781 31.0393636688474359   T   T   T
 26.1624001966738504  8.4625877491684278 28.7889900828755465   T   T   T
  3.6233685961386723  6.3837831668679073 28.7497341775596098   T   T   T
 17.8123906677784731  2.9521241154405695 27.5679670071606644   T   T   T
 22.7789160630259957  4.2611534764092829 22.0721111507463554   T   T   T
  9.5074441971729655 -1.7720358851311546 26.3027742118531513   T   T   T
 10.8829974094794828 11.8649231932190133 31.0881517009284103   T   T   T
 -1.7296417777448594  5.1706391964726519 30.6558547131977122   T   T   T
  5.4803644379619714  8.5364619462175853 28.7797798878677824   T   T   T
 17.6660618754461325 15.2349499436456810 31.5660665040418991   T   T   T
 18.0912007821801950  1.4483542256484170 24.2867099725987039   T   T   T
  4.9975734600218855 11.4086644928093932 15.7711292852916980   T   T   T
 15.9014941287589302  7.0784394104482935 34.3771726851369266   T   T   T
  1.2047296076258800 17.9212692194100995 31.3197478490793095   T   T   T
 17.9315755514803570 11.7338897787473613 28.7328673890377289   T   T   T
 20.6114495626587271  7.4283204130494402 24.0368944573270156   T   T   T
 11.1641504068627775 12.7021274132073678 22.1608186476176208   T   T   T
 19.1837972200935027  8.5195494012811075 33.9870481607156165   T   T   T
  2.5966238660411438 16.2569003684854287 36.5125064521249953   T   T   T
  5.2506923642931822  7.6155642994122488 31.9647313597916281   T   T   T
 20.0507703245920155 13.4553412914550741 28.4404430600894820   T   T   T
 21.4202510659272605  4.4908366003315150 24.6626513144965749   T   T   T
 15.2039022072673440 11.9914805208611170 24.0793091829823993   T   T   T
 17.9690997237437529  9.3130892177869029 37.3674028738801240   T   T   T
  2.9120816411705643 13.8952727866667409 39.5273300171599971   T   T   T
 12.2341720269732495 12.0043018728371322 28.3455722703961399   T   T   T
 15.9848108898787657  0.7830200538494438 22.5656680453547303   T   T   T
 24.3346712339646700  5.8038681803706345 24.2471474559557727   T   T   T
 12.0877844909735739 -0.4816722647838076 24.2297854978527667   T   T   T
 15.3720866571321189  7.2368462185088722 37.5084882838802969   T   T   T
  3.8513737033423290 -1.5027716074474211 34.0594726438678634   T   T   T
  8.1320088752119890  6.1088031400460752 30.4634074044570546   T   T   T
 19.8816035818801637 13.9845356454003173 32.0755887797116230   T   T   T
 22.1157103632562979  7.2540391769394903 26.5600652881348438   T   T   T
  7.9499243502403623 12.2704675861526198 23.5556158572218592   T   T   T
 12.5368744940412888  6.1558858206603277 37.4378491358661591   T   T   T
  1.3010290849381505 15.5126384196219931 33.9792374504536667   T   T   T
 22.8185875002463661  5.6357232511396358 37.3017908054603424   T   T   T
 13.7466241404794136  9.3093730683320857 28.5328463053957755   T   T   T
 15.9904016892729306  5.9633617106349037 20.8768201210419093   T   T   T
  3.0497761958135117 10.7057717194814437 26.3236265041219930   T   T   T
 10.0122695975234812  1.5106655433632434 36.7004977440063840   T   T   T
 11.6928018924720050 14.5887931028380358 34.5546841597406598   T   T   T
 23.0498783350279197  8.5480215571198137 22.8920510581003569   T   T   T
  9.9745603852584797  8.9710627999176715 23.2027142400850188   T   T   T
 15.5431282754168425 -4.0824027357230896 18.4317105339424110   T   T   T
  2.4814481895553002 17.2430669681601252 18.9241395860513144   T   T   T
 12.1516158154354379  5.7298237432917629 34.3776307960526282   T   T   T
 17.2750152238580057 12.2080517049081081 31.6012979759986798   T   T   T
 -2.7792992311556182  1.8306976049140000 28.9017129802501387   T   T   T
 16.8171935443547653  9.0484171900646508 26.1212034679134604   T   T   T
 17.1816917087920800 -0.0799582700855410 17.9661440436820037   T   T   T
  1.9442508254472011  8.5623896606258896 24.5292281791490900   T   T   T
  6.6666736582589419  1.3031486135012842 28.5840176799260988   T   T   T
 24.7545245457540872  4.9205157169396045 28.1889491937204788   T   T   T
 -1.5548739692250990  1.8954360935336203 31.2099382715240772   T   T   T
 10.7932525829975070  8.3590809186154260 31.5030738889442254   T   T   T
 14.4927612367865581  3.4986480285515897 22.5214173228470393   T   T   T
  2.0731413950900790  6.8514247656385159 20.1735396106997023   T   T   T
  9.8698515326483474  4.6702507714913111 36.3724984936303315   T   T   T
 19.6941409088074622 11.3859906949597693 34.3742872467812361   T   T   T
  7.1426865895223752  6.1931394972353786 28.0577774692331054   T   T   T
  8.2484087375265354  4.9341429741796468 24.4194613816434227   T   T   T
 17.7414995725500333  3.9222880082535854 22.6871867358061685   T   T   T
  6.0442806854391211 10.5878419505887358 24.6452003944005824   T   T   T
  7.4774715405697378  1.3663646084603414 33.9483341243670793   T   T   T
 17.7086271791007164 15.4004137639832557 36.6115726687220615   T   T   T
 26.9579295167643522  1.9901012903905169 29.1690659994492059   T   T   T
  9.9822801869557498  9.1488749631243671 28.4107525659853444   T   T   T
 15.0159024650324771  1.3384949852964159 25.8993132513695627   T   T   T
  4.1278661766534448  7.9870012171749067 22.8657699186526671   T   T   T
  8.5598067171154035  5.8405180405997710 33.9232075883881237   T   T   T
 20.1432756720834760 10.8834786554129863 37.9410596206444808   T   T   T
 -2.0859591307947056 -1.4453416318055647 -1.4082025262953395   T   T   T
 15.7871532462287298 11.3614948708859842 -1.3962926886059015   T   T   T
 17.3530576641558980  0.2855588812567275  5.8756697500572992   T   T   T
  4.6921773147112926  7.6175646319461858  5.9519461921308636   T   T   T
  8.9978562802627948  0.3715499278817529 12.0074134568501734   T   T   T
 21.5280830699194468  8.0533077751492357 11.5452365333215550   T   T   T
 23.7320179151490720 11.3278263569928797  5.6257777063969208   T   T   T
 11.2968843718471952  4.4039894233268821  5.7111646271339263   T   T   T
 15.4687244184146451 10.7459569668648349 11.6571541240823233   T   T   T
  2.4675181331152678  3.9857316555087841 12.0496115308142624   T   T   T
  5.4113903792945175 14.3965717561911859  1.2635675196868272   T   T   T
 19.4164856911165344  3.3635183513567575  0.8766017066022286   T   T   T
  4.5535399561060350  0.8919942295455344  5.8018908823295670   T   T   T
 17.2918659383638769  7.8798448650462465  5.6639672667154111   T   T   T
 21.2323922631036623  0.6987237316803829 11.9094024071694680   T   T   T
  8.6644947378794175  7.5558363960619817 11.7301628779333829   T   T   T
 12.0354161572909550  2.2380578548701977  0.4392701877931390   T   T   T
 -1.5047926322241736 11.3573361298277575 -0.2173166473068635   T   T   T
 23.6765402879573728  3.9641201296433368  5.9629000084050752   T   T   T
 10.4513681522576967 11.6316865368542111  5.8637817552346370   T   T   T
 15.3207546930000191  4.1736651512500078 11.8580868907510109   T   T   T
  2.1327887788362507 11.4997560940163339 11.5745928835033034   T   T   T
  6.2754859901973461  3.5717830220020819  0.3220820809930862   T   T   T
 17.4093485384938873 12.3454376523576137 -0.4344931366712796   T   T   T
  5.1603802032587209  3.2323344740349662 18.4614196951998544   T   T   T
 17.8606294399840380 11.3526198441616621 19.0204967513936616   T   T   T
 20.5820309807486481  2.7212368627584316 31.4884910202910433   T   T   T
  7.7847016609774116 10.0387951664357651 31.4768316942849644   T   T   T
 11.9341932271973175  3.0714016739783112 24.9274557507766090   T   T   T
 24.8132688889845454  9.9362964677682939 25.6762497055804531   T   T   T
  1.7534828717895221  6.7173126394769556 31.7568017984348039   T   T   T
 13.9450553982698544 13.9862946578504683 31.2633913180532232   T   T   T
 18.3135513326606301  6.4132993890789631 25.5274003490257044   T   T   T
  5.7089738766028724 13.5020460230867059 25.3768263121889923   T   T   T
 10.3835943971088280  6.1241927265626392 18.4759174248586113   T   T   T
 24.2379000633586159 16.4634574348514882 19.2109372260517617   T   T   T
  8.0577042664774723  2.8804458091598590 31.0024687420630833   T   T   T
 20.5996156800337431 10.3733741060432720 31.6194682116409211   T   T   T
 24.5939162314179498  2.5390101030080778 25.4375093287666196   T   T   T
 12.0204923992409523 10.3090876779391145 25.4983081135286227   T   T   T
 16.7788812417828765  3.1180040117836874 19.6721850264571003   T   T   T
  4.1510703615341837 10.1475054018302266 19.1812262851363329   T   T   T
  1.9590037445744728 -0.3734694871400177 31.0148234564533567   T   T   T
 14.1355312238138300  6.7474036758859128 31.1880967451806619   T   T   T
 18.1686876962201822 13.7789323283326723 25.8346261327285127   T   T   T
  5.3027359865899699  6.2538139051104178 25.6944649495795616   T   T   T
 12.4367867595076849 15.0060445900052279 17.3296706559489095   T   T   T
 22.6412847841899350  7.4373736287392980 18.8984264308032799   T   T   T
  4.3117269606953075  0.8464277940789048  7.9762823524066642   T   T   T
 17.6701982471522783  7.8862175710552238  7.6870265325892673   T   T   T
 21.1349861380067523  0.7574348618286236 14.0662763068463317   T   T   T
  8.3697808338822366  7.5706116707275948 13.8574990746258244   T   T   T
 12.4411195448553880  1.0396684738086379  2.0186895059867638   T   T   T
  0.5900001696272800 11.3189641030291739  0.3303435244476710   T   T   T
 22.2278796749219296  2.3693714170907416 11.2479308307215273   T   T   T
  9.8018241634020775  9.2430445947482305 11.1441644620643974   T   T   T
 11.2403203728970364 -1.3359870297065362 19.9262313102324491   T   T   T
  0.0052841058826280  8.0540138289850454 17.1234790012598985   T   T   T
  5.4640649188126016  2.5391126102576060  5.1882736231768982   T   T   T
 18.0807887395272573  9.5905452101180586  4.8102721010585983   T   T   T
 22.7166806180636058  6.4688563302747379 10.6872364814839766   T   T   T
 10.0786157959621736 13.1236720506352107 11.3695068186521020   T   T   T
 13.7433937415962557  9.4670086005560279 17.2005761749961614   T   T   T
  1.9623798150151279 15.3136639050544758 17.2885650050904012   T   T   T
  5.7223718601001252  5.9161645395744227  5.4591440804504598   T   T   T
 18.3034843345614036 13.4197363858495002  4.6364141702139969   T   T   T
  6.9611531371332962  0.5529402006578661 11.5455233077733919   T   T   T
 19.4829196001787111  7.7985754432441015 11.1312846071459308   T   T   T
 23.9399584096254046  2.8722665960490219 17.3585478634673684   T   T   T
 10.6196566858814148  4.5435729605805628 19.7489558434840795   T   T   T
 15.2315172084326242  0.6634532074002533  5.7279543231207990   T   T   T
  2.8292840155122896  7.7118335348703155  4.9810495135812936   T   T   T
  2.1720943384631868  4.2713344398147246  8.0857268847614616   T   T   T
 14.7857694426186228 11.7489482099822489  7.4626442855242194   T   T   T
 19.4511430308821716  4.3172733491632780 13.4380445116287088   T   T   T
  7.2351512400982223 10.9207176037999147 12.3734939399964858   T   T   T
 11.0675788966300281  4.1130790261243249  1.2996325457994584   T   T   T
 22.3731528168970115 11.2074293916519743  1.5723318398242927   T   T   T
 23.1606010355324798  3.7385796875276487  8.0706303646709543   T   T   T
 10.5276741406549998 11.6519781679122509  7.9793438743611915   T   T   T
 15.0727158330846773  4.1805211775644313 13.9729052127781959   T   T   T
  2.2465722810497604 11.5735934226458816 13.6851869468331824   T   T   T
  7.0067748479046097  3.7889369994815731  2.3151744241841312   T   T   T
 17.7812469790512822 11.2265635535104096  1.3883841642785935   T   T   T
  3.2561933792379936 13.1875208221607849 11.0587088421533259   T   T   T
 15.9811074518336653  6.0192182963497922 11.1074087864174746   T   T   T
 20.4697952918751511 12.8970482778776514 18.1754526131847349   T   T   T
  7.1642331995647206  5.9173993516315422 18.4541481040186994   T   T   T
 11.3937113452187049 13.5383523772028163  5.3985374139700646   T   T   T
 24.5988499078218013  5.7511140794113906  5.0779658997953234   T   T   T
  3.0259157507411865  2.1247354904893565 11.2686962106111519   T   T   T
 16.6936660567835276  9.1358540652442422 11.3559453845402647   T   T   T
 20.0702392210834333  3.2668487429441408 17.1272055695100285   T   T   T
  6.9085151831374549 11.6968330681503474 14.4332503549370372   T   T   T
 12.2768263560893232  2.4470819267783828  5.2346947032301463   T   T   T
 24.6464048457071740  9.6670790451494071  4.6447994093180247   T   T   T
  0.4713392917476994  4.0917641984108997 11.6683388985570780   T   T   T
 13.4594091369739441 10.7969606804597511 10.6886686543265199   T   T   T
 17.4052885709279934  1.1978358785537164 20.1710080273014754   T   T   T
  3.6886312829943178  9.7891836042769924 17.1836733280951073   T   T   T
  9.3561412265014479  3.9707395837921537  4.8473738751007200   T   T   T
 21.8810428632568872 11.4367652270131401  4.6622911601116819   T   T   T
  0.0548063957389985  0.3260427653133094 13.7240157290036766   T   T   T
 12.8895924961490884  7.5181303643083739 13.3685166083514257   T   T   T
 16.9660057857685871  0.6806486044228475  1.7434416302118989   T   T   T
  5.3408593158350115  7.6807771231014952  1.4691241383222189   T   T   T
  8.9594332297565220  0.8053570925393910  7.5165315059266664   T   T   T
 21.6098283530635271  7.6179677419334508  7.3332256983109341   T   T   T
 23.9045878202600335  0.1583373548652412 -0.2543840187751346   T   T   T
 12.2898202472525107  8.0829437247249594  1.1593763507043131   T   T   T
 17.7461970596661729 -0.5574000703334182  7.6535295752624428   T   T   T
  4.4758321877812923  7.8456559398288679  7.9611062173260025   T   T   T
  9.3340851845907125  0.5711855663651161 14.0539050805879846   T   T   T
 21.6231353158379420  8.1537836311493983 13.5856587548342009   T   T   T
 22.1796780685649608  9.8280470767289074 10.9635260644265085   T   T   T
 10.0390262223611870  1.9393661334385444 11.2114492000992207   T   T   T
 14.8037339512568575  7.7489463738151230 17.8476315072266907   T   T   T
  1.3761277731604138 -0.3439625114538014 18.9250078498998420   T   T   T
  5.7287591206904755  9.3314266065933502  5.1864970420789653   T   T   T
 18.3228155764782699  2.1380658812671580  5.6442797271267064   T   T   T