Li P  S  Cl
 1.0000000000000000
    25.1819793006824639    0.0000000000000000    0.0000000000000015
    -0.0000000000000009   14.5388225279766061    0.0000000000000009
     0.0000000000000000    0.0000000000000000   37.2126966544236950
 Li  P   S   Cl 
 288  48 240  48
Selective dynamics
Cartesian
 -3.8458404758536364  0.6926759039814140  8.7105343721128676   T   T   T
 16.0136576929723589  9.3535823729636611  6.8107933464708532   T   T   T
 19.1694993351439820  4.4342809815035746 15.1197975224321439   T   T   T
  6.9918339090857078 12.1478907672358929  6.8376034956923792   T   T   T
 14.0315720740667338  8.0882832258499171 -0.1215060910592255   T   T   T
 19.6320778208411113  6.3922409642572759 -2.7353518490117974   T   T   T
  0.7342145025215419  2.0512042545384594  5.2317120115840963   T   T   T
 16.5357476574154099  8.9583511012456825 17.2816066759235802   T   T   T
 10.4079593455473738  1.6612327684415302 18.7201236439432108   T   T   T
  9.3156117863478478 12.0874115988682291 23.0213171843488347   T   T   T
  9.2907640445057655 -1.8464898352128567  2.8239909217422663   T   T   T
 20.3308847705877653  8.8793957444328235  8.0277595410603642   T   T   T
  0.0859981858268350  4.8584470076759789  3.0216644616395354   T   T   T
 13.8015121554750735 19.1754225057768792 -2.9654068374158125   T   T   T
 17.5451260236647144  2.2188005877682619 21.6052198314973865   T   T   T
  5.2666322877724117 10.2206265026993677 17.4849736775665292   T   T   T
  8.4854334096596560  6.4585553161525064  0.3285037729007392   T   T   T
 23.3338997589991202  9.0718421035246450 -2.2327413007098986   T   T   T
  2.6299602637189348  2.1723772264608732  8.3944209376510504   T   T   T
 10.8695923471868063  9.4084676340905879 12.6818367880623892   T   T   T
 16.7921302634607237  2.9882839914953605 14.5834941634587150   T   T   T
  1.7923979635438072 13.9003256556818293 12.6403011318424419   T   T   T
  7.3755815491749059  2.3402869998098690  2.9043966244717008   T   T   T
 25.0907658906242865 12.9010849142182238 -3.3002029590919033   T   T   T
 -0.2158009872719209  1.6348998379009483 13.2583318970429449   T   T   T
 18.6231119004278369  6.3407230423830141  8.8175210177843990   T   T   T
 17.7596255945343948  0.8718511316945481 12.5360722084623166   T   T   T
  3.1282882663765568 11.5087894092176342 13.2410902961726400   T   T   T
 16.9151698640121708 10.3633589494419702 -2.4711819327402060   T   T   T
 25.6134867992296300  9.0416518598332551  5.8172618225965662   T   T   T
  3.4402421059551411  4.7565519562995657  8.5183957266457604   T   T   T
 19.2972127882159761  7.9601492038476298  5.4671297486192492   T   T   T
 23.0735373298837310  8.7661806818176373 13.5096947359755237   T   T   T
  3.6181418071980147 15.8914091322695086 18.1699255169676128   T   T   T
  8.6084011005743974  4.6215147260859188  3.2875578093540825   T   T   T
 24.0048590967457365 15.7735100654805080 -2.8691682266188083   T   T   T
 22.4985488721485289 18.4761547190187549 18.4233159460905185   T   T   T
  8.1238640660467141 11.4196926603433653 14.3854423187650280   T   T   T
 14.9061529035807467  5.0702705115041136  0.0225155773895539   T   T   T
  2.6771097558352346  8.4546451824235085  2.7970373229284111   T   T   T
 14.7615596286786079 19.9304545042646666  8.5700126692848766   T   T   T
 20.8530851744265817  4.5767473504626919  7.9757362926822974   T   T   T
 26.3945673301926931  6.0015542122527545 20.6978136610079240   T   T   T
 16.0749730366985162  6.2792849241408639 20.9545632967275068   T   T   T
 19.6972705309071827 -1.6864069490123661 -2.2092394464331617   T   T   T
 -3.4971670318116055  8.7224441295781965  3.2351352988037081   T   T   T
 11.7172843999407537 -9.8561228691077929 14.1630968952785814   T   T   T
 17.1023260500829188  5.3981609079663500 18.1483905291465177   T   T   T
 10.5377474326691534  5.5090749791036275 17.2548933783113654   T   T   T
 11.8333041588827221  8.3092296077962224 15.6754621019685025   T   T   T
 12.1902182411019293  2.5451825682149911  3.0850164389375982   T   T   T
 -0.9756432782892874 11.3100722111818470 13.5359066672914139   T   T   T
  9.3713848745116284  6.8947310288654151 12.6027102180539039   T   T   T
 13.1660361320147814  9.4074336159700565  5.2655321679964944   T   T   T
  0.9029450327654018 -1.3887270858912462 16.0531818553321983   T   T   T
 14.0116879752707177 -6.5486599376551675 13.1793375045558534   T   T   T
 16.7259247372282118  1.8456467654597499  2.8292026660814491   T   T   T
  5.5692420855410525 -1.4093301901027999  3.0526740686519958   T   T   T
  9.9443418336349776 -5.5048499054102020  2.7407244758763882   T   T   T
 28.9501763793120013  4.2697223458837481 14.2849374604452652   T   T   T
 -8.3390894184167905  8.6572706898167908 12.1531853804087007   T   T   T
 14.9516871468563437  5.9145255018262741 15.2587556073496593   T   T   T
 15.4906818416106873 17.6248641378897268  5.7545497155140231   T   T   T
  4.1951614239618129  6.3602320551324070 -5.0149827544906111   T   T   T
 10.0435481906530555 13.8894030662807282  6.3385103734101111   T   T   T
 19.4112681898647779  5.3268372245595668  5.4786560877685293   T   T   T
 22.6081981770476332  0.2200811227889667 14.1921585955779843   T   T   T
 12.6493491169113508  6.0568274894880840 11.2997475795196127   T   T   T
 14.1624553055649347  0.1222870365419837  2.4338005962194162   T   T   T
 -3.3681035260464012 10.2608060150952589 -8.7755971326495992   T   T   T
 14.6413847124370324  1.7055973919752794  8.7853487184399928   T   T   T
 22.4089226520442928  6.8901809666552518  5.9421458025897138   T   T   T
  0.1074987970633844 12.3428998919251498  5.9364390703589196   T   T   T
 21.2047406801471219  2.5056234820378833 12.8516967659623020   T   T   T
 19.0826912250371485  9.1613386386654767 19.8151016455578777   T   T   T
  7.8183568606007592  3.6483784540675890 15.4908838313205379   T   T   T
  7.1965284458287879  8.7199071281437917 -2.0993680380419595   T   T   T
 20.1053153456710803  4.0925324476317027  2.8302884757800708   T   T   T
  9.4981717516020350 10.4824386606146263 16.8550286876575584   T   T   T
  5.6996467911429676  0.5467615646477811  8.8507343399694243   T   T   T
 17.8581789330201595  3.2387598008333924 10.9029467593420026   T   T   T
  3.9359254698072066  5.8511054172712225 17.9227140795483422   T   T   T
  2.8895701727854313 10.2615862432770868  5.5533894262288719   T   T   T
 24.8405931950094185  3.2170424579439039  8.4371309564360999   T   T   T
 -0.5409392883556018 11.3831621822720237  8.7688327707283591   T   T   T
 13.1319511712603685  4.6755026588859989  5.2093966243338112   T   T   T
 16.4276045988469619 14.1065368451235713 16.6897298531758373   T   T   T
  6.0759612810509607  0.9691594571063824 14.1849601898231867   T   T   T
 14.7888831365612834 12.4568710960806683  8.6598463077411498   T   T   T
 25.5720511838967930  5.6424223589354270  6.2710265789831130   T   T   T
  7.4577473119105653 16.8980947009542142  7.8231365456329556   T   T   T
 12.2490794598203312  3.9549547320490888  8.2406871478913946   T   T   T
 18.5999111571719311  8.5351442835630493 14.5652876991458768   T   T   T
 11.2841273439811935 -1.9694513958914930 12.1820123008405439   T   T   T
 17.1455540999441567 -1.5488539801242924  2.6677132778124331   T   T   T
 29.1004691983466230  5.3345483677307390  2.0566672516430189   T   T   T
  1.0102503939589360  8.8358000326427728  8.7045269695802361   T   T   T
  6.8085190069793891 10.9841824586005963 10.6205519813036631   T   T   T
 17.5879047233825467 12.0574161562967497 11.7055229983762015   T   T   T
  7.6086495832985719  3.0221023525161779 12.0211056120179460   T   T   T
 12.1420139367877304 11.8653430324465177  7.2314480208483767   T   T   T
 23.2487594141147227 -6.6277642114779454  0.2096432994098543   T   T   T
  2.6559056405474060 11.9829983754340965  8.1798975304630961   T   T   T
 17.2845958160739777  5.3024959384337151 12.7972422318862886   T   T   T
 20.1198312179521892 12.0698941426120037 14.3817331906443169   T   T   T
  6.8671175596766441 13.5245386833339474 16.9785955182789436   T   T   T
  4.8237187500574237 17.2381878790926599 -2.8377504035464423   T   T   T
 17.6349728963085326  5.3209717090246791 -0.0392486854261535   T   T   T
 21.3103251763569723 12.3027839826361287  8.6671788122629838   T   T   T
  6.4634101230475149  5.0854924600174964  6.9184014741572399   T   T   T
 14.4420147115747746 13.6637171948775062 13.2008271320271859   T   T   T
 26.2751317914953901  5.7633122765524032 16.6714799750520939   T   T   T
 -1.2533713416931458 13.9918168056931194 11.1136659950003729   T   T   T
 13.7328461877246681  9.1350040555305974  9.0918214187441784   T   T   T
 19.5985915552223489 -1.6073195803618621  5.0282535980130527   T   T   T
  6.8577823437838612  0.5390096147593649  5.3052043716614783   T   T   T
 12.8943569124375887  1.9148738771876461 16.3311946858614938   T   T   T
 29.3437346494223235  9.1755198676909977 11.1454428177200207   T   T   T
 -0.1405208337694408 -4.9400979494700135  0.9816882442980663   T   T   T
 15.5384699206397094  8.9878205252566019  2.8687968041208385   T   T   T
 18.7923131703626787  1.3809847221424976  6.8767446238817413   T   T   T
  6.0503741833223081  7.6152580123363771  9.0234444011129629   T   T   T
 10.1093956037493893  1.0716731774815795 14.0257209695639879   T   T   T
 -4.8607514988126956  7.2715668918958771 17.5272756812496802   T   T   T
  3.2150669424046874  3.5185931821315304  5.4264951683546201   T   T   T
 14.0494484632767875 15.3747599316238777 -3.1006634599297551   T   T   T
 22.7309090080306717  6.3889325486790947 15.2346582319692647   T   T   T
  9.3503307932741784  8.5615094287442801  8.7830685069643764   T   T   T
 19.8255082959697653 -4.1039308506941827 11.2400368774959851   T   T   T
  1.7768612192939739  9.2036947083598051 18.5392652364555843   T   T   T
  3.3498013971994935 -6.2941538729010444 -1.1774332840300483   T   T   T
 14.6540775533137495 11.8341241051470298  5.0907983407394477   T   T   T
 25.9866000848559509  5.9872139896930685 10.8321325848558097   T   T   T
  9.1539483899104681  6.0019552336943747  9.3805700575098090   T   T   T
 12.2588055130289657 12.5819857754817690 14.9084374159915569   T   T   T
 -1.8560335230560649 10.6961074262648808 20.0493199074773720   T   T   T
 11.5094785394644390 13.4765829566113737 -2.6486829030017001   T   T   T
 26.6935267782556984  7.3174414548568585 13.9094993697581373   T   T   T
 22.4723595989651592 -0.5129241562403500  6.6985221696939066   T   T   T
  9.6242753250704887  6.8412439501296278  6.2117522370584108   T   T   T
 11.5169465744461039  1.2957886539530723 11.7534205784936034   T   T   T
 23.7749070543337560  7.4206612696901724 11.1672378595079316   T   T   T
 -7.1033179430276592 -1.5977592354224397  8.7165954742053700   T   T   T
 19.9082721366847650 15.8709145147830100 -2.5756953584872067   T   T   T
  9.6422307101221758  1.3384226727706812 30.8439102432398542   T   T   T
 23.5788385792204949 15.9019267368968400 23.9122959230831427   T   T   T
  6.1139869900207531  3.1745545210747657 20.1064277725863363   T   T   T
 12.7876158490426253 14.7477637826555004 20.7612620408629667   T   T   T
 12.3604884541072000 15.8836558546288877 43.8082386397150430   T   T   T
  6.8935358349327682  8.8694262522696690 40.5086829878835104   T   T   T
 12.1064258409627694 -3.2684584630510827 31.2255466551639422   T   T   T
 22.8148292124519330  9.0412233372336495 31.0212153740821179   T   T   T
  4.3575187932159887  4.7897572909453281 22.9022736364316550   T   T   T
  7.0776172159110740 10.8443542639984472 19.1222939862945260   T   T   T
 14.0554466557658344  8.3000451472801764 34.3298565747214894   T   T   T
  5.9458356729872950  6.2862958007628924 27.9264826001450146   T   T   T
 10.7753878560654019  1.5889320545419310 28.1732620732238281   T   T   T
 24.7778998988310768  9.7515666928530571 28.2102305814421683   T   T   T
  3.4999932229205273  1.6717096924411219 22.8506756046254296   T   T   T
 14.4716527443918554 10.6687468285659968 18.5185341861449508   T   T   T
 21.4454553712026694  2.9282015120290392 28.1767451535351192   T   T   T
 11.3578992627083633  8.6097633163032832 28.5869814886966473   T   T   T
 12.3242511636975323  4.0919218190575872 28.6919721717212681   T   T   T
 22.6386431734087488 12.2502946572540807 32.0914120128436053   T   T   T
  6.5125706896700031  5.4550040620330291 12.7224599483274829   T   T   T
 15.4442345752615395 13.6925653185671905 24.4057201174766227   T   T   T
 10.1827305400167241  8.4856825019006052 36.1430817618126810   T   T   T
 16.7809359369137781  8.6833016876520261 36.8279831994594531   T   T   T
 16.3099419911431092  3.8979506010247218 26.0934098813364557   T   T   T
 25.8382516139877190 10.9855234496655356 30.1465007564167813   T   T   T
 -1.6193741483272444  4.5361773040919484 12.8977366277710850   T   T   T
  6.8552367590757894  9.0897111109044957  6.8057088891974518   T   T   T
 17.8054975600142740 -1.5083911206448788 31.5292666796196350   T   T   T
  3.8645762069131280  5.3488147615268105 36.0985060194884539   T   T   T
  9.6036574833901547  5.5750802659180421 30.6593138938008565   T   T   T
 29.0639328128544996 11.2120127292877996 21.9432725425519237   T   T   T
  1.3222507662400196  4.8201854451223429 25.6138475402055086   T   T   T
 17.8767566689877562 11.6387839283542327 24.7713398508520655   T   T   T
 20.9385883163489268  9.1967098927407029 36.7829998125738697   T   T   T
  9.7684638449409729 12.9186226106116919 30.0579632666620142   T   T   T
  6.9831189358527119  7.6078670568513784 22.1134453445196080   T   T   T
 19.8045028836600245 -1.1405641709844152 22.7805679804891383   T   T   T
 29.4560737185058308 12.2771887973366205 34.7892017199237316   T   T   T
  8.6440205473333478  1.5014238643564644 37.3333609562041744   T   T   T
 17.7431033146719379  6.0236297541109129 39.6902985592823470   T   T   T
  6.0084762532334155  1.0506567683245378 29.2970573465722701   T   T   T
  7.6531342166076897  5.3908596388652485 24.4897825208624695   T   T   T
 23.6287593693845004 13.5425366318125775 23.2896148751186871   T   T   T
 28.5983173580612124 -2.9044034243975787 37.8676885829355498   T   T   T
  7.1729840281266695 -6.7712379948134203 30.5689003278126172   T   T   T
 18.7373226144344898  6.1178994643329307 28.7799972712609531   T   T   T
  3.7430650598588846 17.7771159220080364 26.3325626061552569   T   T   T
 12.6753171215342402  7.4525545975252223 19.3577946090462341   T   T   T
 16.8092541219013007 11.6732308229394732 14.6330031414302972   T   T   T
  9.0361152952190285 -0.4051383367379809 46.6296770444683517   T   T   T
 15.8843368311912734 13.2283937148837367 28.1304764918091195   T   T   T
 19.3032703549015565  7.3158504686966754 31.3991780328938361   T   T   T
  9.3651274189131719 13.2147184387369805 26.0140265625148679   T   T   T
 10.7736836735021182  8.0718336007463343 22.4665407127380696   T   T   T
 21.6947263217065007 13.2927491567873588 26.3419075601579671   T   T   T
 -2.3321402527269823 12.3276381407490909 36.1928716133018966   T   T   T
 26.9925502113514462 -0.2946339058386859 40.2218000213054054   T   T   T
 16.6200492902564356  9.8479586884223060 22.1864993185986776   T   T   T
  3.8713091272533133 15.4535859899934032 31.8958111591358708   T   T   T
  1.5405867215032263  1.2687345725476584 25.3397097935817257   T   T   T
 23.4962395554845678 -4.3332710108250900 16.5938603083891287   T   T   T
  1.7314349251079553  9.4129812952671728 34.3366126254133164   T   T   T
 10.6076701657634693  5.9432207394050822 33.9956419487010706   T   T   T
 15.5973120372009628  5.2403891734228356 29.9875995179317947   T   T   T
  8.6582834413721361  1.0873049015523266 22.6100173995562734   T   T   T
  7.3989703138112448  9.2623713132203385 24.5195316744037264   T   T   T
 26.1073200488894877 17.8546686086509361 23.1080448947666781   T   T   T
 27.6532248113380206  1.0585449212868021 33.9538864375254761   T   T   T
  9.3009376740086083 16.3709786706801630 34.3919624037315899   T   T   T
 15.3453898483276152  8.1358385117607384 28.3381062836194033   T   T   T
  2.9179154365713673 14.8719176270567921 28.6871729440346535   T   T   T
 13.6218676802562975  6.2324676892991855 39.2614878663513167   T   T   T
 22.5341699737825039  5.4561856274502087 31.5749862617627350   T   T   T
  1.4326970176166776 10.5011699755367474 25.9096687879706060   T   T   T
 17.4500008837632024  4.8388701037510584 24.0056103482735210   T   T   T
 25.4078834221937342 18.2577529524031306 31.8812993777697109   T   T   T
 -1.6304394083075804 -8.3058718925034576 34.4443824480165404   T   T   T
  9.7370268908899966  9.2939782344810347 31.1032831886855909   T   T   T
 22.7238516125743359  1.6539780136468993 30.6703406678873201   T   T   T
  3.9669133284210796 16.4585252071676464 12.6906877823379087   T   T   T
 13.9266048844801524  5.6025229485769845 24.4126680896477417   T   T   T
 13.1993393772992516 11.3802568146648078 35.4480349962920513   T   T   T
  5.2945830571478334 -2.4001236125749883 28.5868992190496130   T   T   T
 12.6921813043176304 11.6250038194568788 27.9401468737209662   T   T   T
 21.1188628636351829  1.8060188399349784 21.6177162757827581   T   T   T
  1.7453529932494876 13.1145058258803182 24.1207714028294511   T   T   T
 17.0656035630730294  2.6370705767782936 17.4936971660606915   T   T   T
 21.5559237178002263  4.7706076587507695 36.8420611180349482   T   T   T
  9.2825677800729238  4.6488132484191125 28.0899281042291271   T   T   T
 17.5947327475862139 16.6871800335921066 28.8759453338668024   T   T   T
 28.7772077614648722 -1.8756411154590491 31.3736837865805960   T   T   T
  2.4281357633440370  8.2542012806157885 24.0291779724203884   T   T   T
 16.3168081418252520  8.6739966055737376 31.9364149007004663   T   T   T
 21.8629281033666594 11.4060173968153222 39.8283148512627392   T   T   T
 11.9971111784841682  3.3286677894414884 31.6865384457649952   T   T   T
 13.0655380519962350 12.1509459985960468 23.7252500855252819   T   T   T
 17.5933684450205199  9.7723924358939165 29.6187760431207501   T   T   T
  4.5398277638274624 10.2981829418326036 24.7538661132308739   T   T   T
 14.3862689256683005  3.3752433012639518 22.0647701576893382   T   T   T
 23.3073258310474358 13.0181658136984062 28.8466009553119811   T   T   T
 10.2953215405794865  6.9787672596558314 25.3295300238119125   T   T   T
  8.7471898820863299 10.6237611891089969 28.0949021671239727   T   T   T
 31.6431828758522613 -0.6407777081983195 31.9963569163529300   T   T   T
  0.3015173580448017 10.0393948355139031 23.2380666154654882   T   T   T
 14.0523786324161577  1.6862684848360561 25.0647026803135873   T   T   T
 25.1517602105319078  2.6263620899370816 29.0654810673380375   T   T   T
  1.1471408558443541 -2.0934122384539533 36.7611088506471546   T   T   T
 -4.7009005553257941 16.6975534889251520 24.9168285081891234   T   T   T
 18.3407471711870542  0.9986825007544637 31.7284902397127162   T   T   T
 21.0970872743483220  9.9360184049832689 23.0716153539593201   T   T   T
  9.3219613050999293  5.3027951584193467 22.3038059357726191   T   T   T
 17.3724885014751820 17.2157246157980062 34.5307535214687817   T   T   T
 20.9718249988611802  1.1799401666983877 41.6359738431254556   T   T   T
  3.7077396391634876  8.7931042949624292 27.6058327134834478   T   T   T
 14.8637256855034980 18.6189439636777401 17.4057382005959838   T   T   T
 20.4872711741409823  5.4499528600608267 24.2748846785733825   T   T   T
  7.9950420434105558 15.5072440394976674 25.5893061904341188   T   T   T
 15.3182572049311005 15.3755208168094093 36.7713358955728538   T   T   T
 26.3108766811044390  4.4789593381721957 34.6860031601231213   T   T   T
 -0.2069013141509443  1.1794021561277381 19.5203280331394957   T   T   T
 15.7358914791220350 10.2982268892374975 26.0620957827886919   T   T   T
 19.4983406409854183  7.9059687212018765 22.1028737736232195   T   T   T
  6.2633617547037606 12.8403066046411212 23.9385803334551639   T   T   T
 12.8737001800243931  2.8826710847245320 36.3267011854802959   T   T   T
  7.8240939149104705  5.2177633944700750 34.5763162322724185   T   T   T
  4.5159687616669144  4.4663319007810642 29.7998878523079185   T   T   T
 19.0169845060734062 -0.6654330204324045 28.8422990228986116   T   T   T
 22.7512839933979549  7.1573340592659926 25.8097807761079849   T   T   T
 10.7257876500216796 12.1173547336268079 20.1635567223915899   T   T   T
 15.8252493098951259 -2.0601982778284640 37.5148104611298123   T   T   T
 -2.8007246680574300  0.4838237060024718 37.9472756072557615   T   T   T
  2.4115685264942188  6.4678654546304859 28.8359934814284351   T   T   T
 14.1081669561163316  9.1689453507130949 24.0788945551226341   T   T   T
 20.2496160350320267  8.9282240511112683 25.6878510007879228   T   T   T
  7.3794214293359337  8.4343791874559777 16.5594759018190700   T   T   T
 10.0976500260880417 12.2115129873136361 36.7432462311131189   T   T   T
 -1.3719079246766257  6.1050381819047610 28.8187184699777177   T   T   T
  3.9884007416978999  8.8655746398819844 30.9717219721345600   T   T   T
 14.8031493623225359 15.5793573567375496 29.8730845074843572   T   T   T
 23.0344230108019019  7.8799303616967507 22.4740952450611289   T   T   T
 11.4557564767972959 15.8085483997255452 23.2538702154922490   T   T   T
  3.6576930333956938  2.2503985319008657 37.6791926355749354   T   T   T
 18.5925140828651614 14.5968691764722287 38.2293582355476502   T   T   T
  0.8392260640997602  0.3323886460645670  0.1412457033549460   T   T   T
 11.7907330065174172  6.0769320546743382 -0.1400741296782506   T   T   T
 15.9913816579622914 -0.3486375835437693  6.0358326216584892   T   T   T
  3.9497409816583877  7.1472699859226045  5.8273053513627788   T   T   T
  8.0015425025129154 -0.4975227986391341 11.9497722034645761   T   T   T
 20.4998362076642415  6.6957720734970261 12.1592547652121201   T   T   T
 22.3323443914871653 10.6213414102186121  5.6146402806252560   T   T   T
  9.9181518169706955  3.2356137975464390  5.7746772352847726   T   T   T
 14.1191824612093875 10.7556200864369735 11.5910174161919652   T   T   T
  1.7176579061217825  3.1341944342477022 11.4257424247601094   T   T   T
  6.8170834974231926 11.0643454564260360  0.5089151291709275   T   T   T
 19.3446721013245195  2.4877157144736954  0.3948622248698616   T   T   T
  3.4766590008956832 -0.4843613782821722  5.8378852761180120   T   T   T
 16.1227206940051957  6.7258960580337863  5.4412832845123944   T   T   T
 20.6282758027541782 -0.4337079172387180 11.6204217024449488   T   T   T
  7.0226396697885143  8.4827229714440335 12.3355133896267848   T   T   T
 11.9532467420634330  0.5775937167239481 -0.1225513766842398   T   T   T
  0.7070771228990216  6.4853323181515012 -0.0655989085691477   T   T   T
 22.4582948437260264  3.2003074523695147  5.7266851279575199   T   T   T
  9.9475185118828069 10.5679768187443806  5.8952106362818526   T   T   T
 14.3462060568282990  3.3806416090488156 11.7887668242943597   T   T   T
  1.1822768817486817  9.9195373885157814 11.5560055291453416   T   T   T
  6.8676750291936735  3.9236385751699823  0.2444114511692912   T   T   T
 19.0633922766196022 11.2296403792503519  0.8308980837682721   T   T   T
  9.7441357190972973  8.1309400511209411 19.3315528691367895   T   T   T
 19.5575141292461261  1.4453813217759850 18.4512627582831570   T   T   T
 25.7480896270352702  7.4272354093411828 31.5151372212917771   T   T   T
 12.8266568014370055 14.2322428721915344 31.1965768367774672   T   T   T
 16.9876556679127084  7.4905682781791958 25.1669609237555179   T   T   T
  4.5451030580909775 14.1954908629806518 25.7468058968403426   T   T   T
  6.9634249339244079 10.7073241652301441 31.7229722343316958   T   T   T
 19.5039363372510017  3.6632538929065213 31.2455546852837607   T   T   T
 23.2524781804849496 11.1627302987939920 25.3422934121680434   T   T   T
 10.6446674310397214  3.4113024562926300 25.4543217372620667   T   T   T
 12.6218300884515582 13.4680594415499719 18.2038654025310294   T   T   T
  2.4679991627420153  3.4443716718809920 19.7628918080732419   T   T   T
 13.2292004917918575  7.1516793843798698 31.2090612043286306   T   T   T
 25.7339505019082431 14.7028220149396596 31.2518465215950663   T   T   T
  4.5467594557892648  6.8882178573708392 25.4249474915468738   T   T   T
 17.3168753401597222  0.4883876236479847 25.5928348304591857   T   T   T
 23.4816610833897208  6.5141290501749207 18.5101848034611827   T   T   T
  8.6004322457718949 -0.0803443678101076 20.3254614747229851   T   T   T
  6.7432554789313910  3.4395573007842617 31.4627748362575019   T   T   T
 19.4441816348596070 11.0459014711735968 31.4333645792215890   T   T   T
 23.6404445234731355  3.6436034542302118 25.6888847412633723   T   T   T
 10.8102413536455728 10.5761764965765579 25.2626713762225137   T   T   T
 14.6569483480860736  1.9155041552192886 19.7815062677582709   T   T   T
  0.0738052798924267 11.7889026959356897 18.7099268781575887   T   T   T
  3.5502308896454196 -0.5417397839047685  7.9270564290727075   T   T   T
 16.3397129050257064  7.0516048233696669  7.4311647214679155   T   T   T
 20.3709326798602426 -0.2835217144575061 13.7295944973425694   T   T   T
  7.3651858471114524  7.4871463162463501 14.1095027774865578   T   T   T
 13.2946321396138778 -0.8185727402975285 -1.2827744451780898   T   T   T
 -0.2569330746279571  7.1909028773961170  1.7240291502742877   T   T   T
 21.9768537227278991  1.1314342840335678 11.1775995200157894   T   T   T
  8.6505715384315316  8.7166661118173927 11.3436071166489914   T   T   T
 16.7832274994419919  4.7225289789996845 16.1605152353266952   T   T   T
  4.6580558795067128  8.8249823412538753 19.9640904057835371   T   T   T
  4.5967381633820095  1.0933333081062402  5.1761691404134478   T   T   T
 17.0882952256803264  8.5280343067995084  4.8053038676853479   T   T   T
 21.4325418174115541  4.9671029377858682 11.5608533320449105   T   T   T
  9.0873261179768718 15.7860249936131787 11.3014758500080710   T   T   T
 12.6910656613228490  2.6657311355756654 20.0190503849299297   T   T   T
  1.6015475372028096 14.7393510308575699 17.6142919528307509   T   T   T
  4.9117641125400517  5.5384761819822517  4.9844103188972824   T   T   T
 17.0573241091775571 12.5356079005307564  5.3335001940250697   T   T   T
  8.8726783730576333 -2.3124070664789000 11.2610186092395583   T   T   T
 18.5517536367049125  6.8874899727168195 11.4000096965136954   T   T   T
 22.6275117874936882  1.6430312119791339 19.3062856930776086   T   T   T
 13.1716753440207697 12.4920276496364515 19.9576997135463721   T   T   T
 14.2722424761624307 -0.1174607900066038  4.9557784336810666   T   T   T
  1.9643433136623765  7.2940618036859552  4.9128525889067198   T   T   T
  1.5999603246480023  3.5708861242280778  7.0229535445174660   T   T   T
 14.2091587915543993 10.6523606552613330  7.1253942374050538   T   T   T
 18.5508012449339290  3.1780878198397557 13.2453240088797024   T   T   T
  7.4003532778888550 11.0028769602544365 16.7788107982049155   T   T   T
  8.7338219567616591  3.4346549977974692  1.2358461657375597   T   T   T
 22.8305627291846669 10.2790420914108260  0.4986525626246295   T   T   T
 22.3977842724028342  3.0622782857062258  7.7727221968518778   T   T   T
  9.8773126182518194 10.9635805466669325  7.9145420131430750   T   T   T
 14.2439051217229657  3.5993564373369886 13.9498199699755752   T   T   T
  1.1103098754198439  9.9358091424243646 13.5783323814851826   T   T   T
  5.4533389797848795  3.2438736242230046  1.6857229878179105   T   T   T
 17.1308987628596689 10.7791993891330335  1.7152255684320556   T   T   T
  2.6416055808883527 11.3009573869287507 10.9578188250954423   T   T   T
 15.2100621309617825  5.1240529880637444 11.1070873962666870   T   T   T
 18.6954764557912512 15.6024626125788224 16.6410216244225140   T   T   T
 10.6309728160545145  6.4634435368653271 20.2592017644217215   T   T   T
 10.7834692685938744 12.2443241491356822  4.9371316386108610   T   T   T
 23.4144616171797146  4.8110126368207675  4.7608732692971989   T   T   T
  2.3138379397987436  1.2957433813922554 10.8286593453556517   T   T   T
 14.6155259907150601  8.7756638093780168 11.1778962844284848   T   T   T
 20.5129819233304218  4.6572022132345170 17.1622284449027056   T   T   T
  9.1557605990805779 14.2874981669912593 18.1311994038206095   T   T   T
 10.6610284630774057  1.5091323801602574  5.0181814529399764   T   T   T
 23.4327295464453051  9.0619562051769051  4.7642187974411394   T   T   T
 -0.1205040800296127  3.3810101653851063 10.8613093430096477   T   T   T
 12.3459198045676644 10.9530581206322495 10.7492628452573449   T   T   T
 15.9844637536688357  3.7268875628723315 20.3819729286779250   T   T   T
 -1.8441605817787834 12.0550453825707891 18.3398347593529785   T   T   T
  7.9017795223934320  3.3962955678489668  5.2444630844582960   T   T   T
 20.4767162305066215 10.4659427813710089  4.6445127707998974   T   T   T
 -0.5601449208598174 -0.9786510887098804 13.4095964798671528   T   T   T
 11.6491363384586126  6.9888629812965934 13.2548407181140231   T   T   T
 16.3742222099093375 -0.0473314821298618  1.2918262628841577   T   T   T
  2.8320229672622244  6.7834318960686319  0.4751303054222903   T   T   T
  7.9362519789995298  0.0794896021027055  7.3957454797909987   T   T   T
 20.2890186767970526  6.8337503928843768  7.2122689304690928   T   T   T
 24.7405201144869125 -0.9976525412586225  1.0719472435477921   T   T   T
 12.7244285484668698  4.4348880770689156  0.7971930093848629   T   T   T
 16.2018772401308127 -0.3738092451946694  8.1100349714593172   T   T   T
  3.8410639830676296  7.1962469442647796  7.8595470116798420   T   T   T
  8.0007219048506801 -0.5220395837299792 14.0914246297820256   T   T   T
 20.5197055455834949  6.8483741303698622 14.2834265582596238   T   T   T
 21.4133899864367727  8.3887609867888848 11.3308332752485121   T   T   T
  6.2014919791555041 -0.2647838473312518 11.0906658112160468   T   T   T
 14.6281344778150366  7.9176715221084040 18.0999822618016708   T   T   T
  2.4933373149169116  3.6096755272020351 17.7652799090612277   T   T   T