Li P  S  Cl
 1.0000000000000000
    20.5609999999999999    0.0000000000000000    0.0000000000000013
     0.0000000000000033   20.5609999999999999    0.0000000000000013
     0.0000000000000000    0.0000000000000000   20.5609999999999999
 Li  P   S   Cl 
 190  32 160  32
Selective dynamics
Cartesian
  0.3244990802397069  2.3755384062290479  2.8567302033729098   T   T   T
  2.6101597794356870  6.7811397853048589  5.4619726163008115   T   T   T
  6.3905937504530312  8.2879081643647687  4.3838070524832284   T   T   T
  9.9314266179453821  1.5595479389418365  8.5898132201166675   T   T   T
  3.6690107209031360  9.3891144520817473  6.8697080304569695   T   T   T
  2.3278388175517177  2.1353920884468551  0.6553479318418045   T   T   T
  8.9571220052148206  4.7647773280881838  7.4727085518979797   T   T   T
  9.9142559506211416  6.9417932811298853  2.6655119847021820   T   T   T
  7.4448842432215177  2.9759009209315184  9.9387850722621938   T   T   T
  8.3144994856161265  8.1703232970847868  0.1474292568817256   T   T   T
  3.1450466089500213  4.8674649314980174  2.0134027116445359   T   T   T
  1.1621099332828129  9.0574648220966854  8.4178440448396241   T   T   T
  8.3735006299689765 10.0192968735335945  2.4395378086888040   T   T   T
  5.5404797966254078  2.2684766578728990  7.0426891431231358   T   T   T
  2.1065939328477659  3.4429038773532419  4.9721140174908118   T   T   T
  0.9998444909295072  5.9751796366075771  7.3158995792968344   T   T   T
  7.3971839947325959  0.3544022669415779  6.9250803615009442   T   T   T
  7.5269936941699456  5.7888816054371874  2.5403653711853238   T   T   T
  3.1256810619582653  7.0549639725965374  9.7347061775031865   T   T   T
  4.6880425835765287  2.5311837413893619  2.8873194948048861   T   T   T
  2.6625511454238953  0.6160249990681338  3.7157441519398771   T   T   T
  5.0599229933257686  6.5002283137937642  7.6028285250078378   T   T   T
  9.2747680339042695  2.6560617546333098  5.7618621623418775   T   T   T
  5.6322811326591573  7.3914662071669976  1.3408417090114215   T   T   T
  4.1231408453516645  4.7872395932962881 12.5042251988615956   T   T   T
  2.5119387404914488  9.9847746008186835 18.8418264005831517   T   T   T
  8.2965323574334899  5.1976409613353578 13.7237848821670827   T   T   T
  5.4665446640398798  3.1922577562529999 18.4145544890024411   T   T   T
  2.2658697066892914  5.2510324078156732 18.0126978010209342   T   T   T
  3.9853463310184170  0.7875818665724820 13.1493368785756548   T   T   T
  7.1171295168182924  1.3722532259411602 16.4705206829471464   T   T   T
  7.7257370082908796  7.5572916566848116 15.0992958511551443   T   T   T
  9.6622472447163101  1.4065676611258986 19.0590906749442297   T   T   T
  5.2500416738649482  7.5756713771019992 12.6155162957687939   T   T   T
  0.4853995176799831  3.9979309700481624 13.1114166444659848   T   T   T
  4.9372748855099085  7.6147325287013903 18.3761095746108012   T   T   T
  7.2152494338885882  6.8772133495163237 10.5958168308958154   T   T   T
  8.4992565521039012  4.6869479192199748 17.5281850678048059   T   T   T
  3.0339117878759518  2.8309237611199149 15.1330013616224530   T   T   T
  2.7438892289864056  7.1610399914949614 20.4670480840486135   T   T   T
  7.5909359390331046  3.2111007880621631 20.8556730751381707   T   T   T
  9.2876838162955728  8.4226448744710058 11.4311857800545287   T   T   T
  2.9501344718017735  7.9700006614027314 15.6098682831880158   T   T   T
  0.8172482384272427  1.0922734212270422 12.4323388904865766   T   T   T
  3.0903077691446423  3.4304532386130751 10.5785809147054408   T   T   T
  0.3894275060333611  7.8908697536073493 17.9747235629552691   T   T   T
 12.8943530272255931  1.9079342941894541 15.2026913950290261   T   T   T
  6.7519972099196606  9.9328402886981486 13.1787327245836252   T   T   T
  1.4429644938755128 10.8489998792921067  2.0873542855124190   T   T   T
  2.2933284107285821 20.6261224680220039  8.4472462483399688   T   T   T
  5.3993774046761409 18.1907780884914771  2.1361748968827410   T   T   T
  8.4780225232107824 10.7156040511239148  8.1541618653126040   T   T   T
  1.7964916617712903 17.5309132096322315  5.0743319394905537   T   T   T
  2.4046186034958432 12.6339268205518653  0.0685743749861404   T   T   T
  9.9339963159792131 13.5916795945865267  6.9518023219242000   T   T   T
  7.8562234834631486 19.7459916035117189  1.4156659887307372   T   T   T
  7.0394738181644847 13.3602425760504708 10.0492179974830425   T   T   T
  7.9429792565143043 16.4343680057678583  4.6128950057830522   T   T   T
 -2.5116272528355439  8.0089071608809217  0.5809881217554392   T   T   T
  0.1557724836964885 17.4365267153833869  7.3340337427360192   T   T   T
  7.2046779174181026 19.7934479579335623  4.2393149501105682   T   T   T
  7.1247089667850085 15.4259449684112901  7.8843475868303434   T   T   T
  2.1207883090380251 14.6164233507257304  3.1919317926511885   T   T   T
  3.3282868871033782 15.6049253538467241  7.8180837388267008   T   T   T
  5.9872664880433106 10.9409033718041648  7.4102710883230998   T   T   T
 10.1032969427649970 17.7490031294242421  2.7679280455350481   T   T   T
  2.7298755983452874 18.1907933079988346  9.7921508338486714   T   T   T
  3.5434091220313695 11.9717332232381946  4.8202470499364143   T   T   T
  5.0392921204304937 13.8404683297224498  1.9098611423992524   T   T   T
  4.5783453768322664 18.7641623980833110  6.6800008262818045   T   T   T
  6.8388303791707523 12.6059531937275224  5.1754248237782408   T   T   T
  7.3258089169334433 16.0144034007146878  0.9938231905726624   T   T   T
  4.0508536024282744 13.2182083899414042 11.3567370501490430   T   T   T
  4.8379863456145911 17.3126121912405750 18.5536254270545626   T   T   T
  8.0767521013484362 15.7468947505396226 13.4273651101277931   T   T   T
  9.1650127499461167 14.5479347819497686 17.8104609930778253   T   T   T
  2.8078905702594410 18.4248130344605130 15.9269502811018011   T   T   T
  0.3334480663836866 12.6521655616762665 10.7916551667044676   T   T   T
  5.4919554402731601 13.4893791609459708 18.6939103987450537   T   T   T
  7.1993548763698687 18.0584574256800323 10.3664924872074895   T   T   T
  8.1252800849635989 11.9892925937273098 20.2633648915233664   T   T   T
  8.0222102808979354 20.6360742196564182 12.7138804217754480   T   T   T
  1.9540601786132998 10.6630550528777501 11.8308914709009940   T   T   T
  1.9441896119367776 18.4355404643446299 20.3782718073538049   T   T   T
  7.6208609597376773 18.4564587892191980 15.1324367569827931   T   T   T
  6.7760242327649696 10.6717613169550525 17.6544910893144902   T   T   T
  2.2516469455041936 15.0434934722057712 12.8932562540068734   T   T   T
  2.7857460778737440 20.5580933637043799 18.1698666100909705   T   T   T
  9.8240887249448221 11.1958500101031895 18.1005934984355363   T   T   T
  0.3461318640268174 18.2032414691688125 17.8433560404839895   T   T   T
  1.2945468570389684 13.2252281287976388 15.0836820380885133   T   T   T
  3.7653178308314121 10.6461675156462672 13.3587280696087767   T   T   T
  2.2269086661715298 15.9554586833036822 17.6160476370778341   T   T   T
  7.6201981608608351 12.7934276461169478 15.4316025191731647   T   T   T
  5.2505869970203545 18.3895225067177535 13.2948443411818147   T   T   T
 13.6973798263716198  1.6778365225878131  4.4520778416003308   T   T   T
 10.8820134972238272  8.3218538583195834  7.8795373847765040   T   T   T
 15.3699065396522574  8.1928656287070893  3.4378889327837272   T   T   T
 17.7573286632136558  0.3171028473320900  7.7978322873939767   T   T   T
 13.1532373771081321  5.8375682877801989 10.1923548442964087   T   T   T
 15.1387225816298088  3.0786261330629228  1.8205963015689992   T   T   T
 18.6082266819922069  1.9704309210900854 10.1942105745567346   T   T   T
 20.3125737148213616  7.5888145901393891  3.1369913276426993   T   T   T
 17.6575998813039163  4.8604267002450614  8.6335473280730977   T   T   T
 18.3624701595220543  7.5391136116176831  4.9844533582186248   T   T   T
 12.1701293732557669 -0.0221769506997947  1.7866815592656127   T   T   T
 12.8319347138295807  9.7831846709704688  8.8416598108691478   T   T   T
 17.6427960251977183  5.3334557796489594  2.5060067725055108   T   T   T
 18.1499327125757262  3.1636641704642678  5.8804499605207559   T   T   T
 13.2514531369473350  3.2150891145953846  0.0634203927907301   T   T   T
 15.0503276351208974  7.2375032092667970  8.3871715907273483   T   T   T
 20.5188343494246013  2.2551941102956139  8.2901133964104350   T   T   T
 13.3503192416968055  7.8579183966691257  5.7576166212335664   T   T   T
 10.6199015031466910  2.8217638459132957  2.5810502935343904   T   T   T
 12.5174286673511972  4.6964753500944862  3.1499622804053669   T   T   T
 12.0114945975184657  5.1432603239992583  6.9350409892114655   T   T   T
 15.6095487216256341  2.6833433364989832  7.9882362934450759   T   T   T
 17.7916358203090255 10.1588072593050427  3.3461706772687112   T   T   T
 10.3324177653013809  3.1626317217827808 13.5780437486299270   T   T   T
 13.3352014340563620  7.3587141855998786 20.1442161534354369   T   T   T
 18.1553074894759163  8.3555830935819539 10.6426493145902761   T   T   T
 19.5809075726852981  0.7028189837569679 17.6100540670779182   T   T   T
 11.0614572496036168  8.4010398259033039 18.6419898697761042   T   T   T
 12.3597409309926309  2.1531668975055651 10.5146579753767657   T   T   T
 19.5481367267078951  4.0794676711345996 17.9066143093271961   T   T   T
 20.1587500127777162  7.7742730698610094 12.6394361748149944   T   T   T
 18.4861909594789324  2.0289896883730307 20.1732696086207781   T   T   T
 18.0813192950973303  9.8457067826684241 14.5675110654657143   T   T   T
 12.5082110088214513  4.7441145629715953 13.3682021446270749   T   T   T
 15.5401373486596590  8.1821340304608636 17.2440261727277928   T   T   T
 18.6988035037899678  7.1032580489616635 15.2246964269433516   T   T   T
 16.0581534232576573  3.7519009290046892 18.6050845920736947   T   T   T
 12.2927757941444131  0.0654014693247112 12.3826178791871584   T   T   T
 13.5505016268824665  5.3193424523557411 18.2078245051118230   T   T   T
 15.9383989083466915  1.3558687555086879 17.1935155484219280   T   T   T
 15.4028958499653399  8.6076810797030010 13.2598286380603820   T   T   T
 13.2444474996188202  9.4669383591931666 16.0182456821258157   T   T   T
 15.0323666026952463  1.4791026880122322 13.1628214709527942   T   T   T
  9.9096441997696108 -2.1201271490174873 12.4980371793759559   T   T   T
 12.2776264064072933  6.8838450780095792 15.9016478262723684   T   T   T
 18.7239487036071921  3.5273706887058953 15.6170580664982364   T   T   T
 16.7521393087131827  5.7749192142004135 12.1784462914139269   T   T   T
 15.3814278485618861 12.7431754614999093  2.9752312625601820   T   T   T
 12.3924049715318372 17.1608784596506787  5.1238725082159213   T   T   T
 16.5130781472066985 16.1879638200031515  2.3326273421650536   T   T   T
 15.7488961358120712 12.7741805499131456  7.4475945180809902   T   T   T
 12.2362288999550461 18.5394968271724316  9.9697553274577544   T   T   T
 12.6768800049338175 10.1378750327677203  2.5206609283641916   T   T   T
 20.7167317477215747 12.8545273815329910  7.6142604672956189   T   T   T
 17.9078890501851475 18.2797900381906793  0.3537195429606537   T   T   T
 17.1391553236321030 13.6305727662413183 10.0253790360466279   T   T   T
 16.0773886524307770 19.8103380327794767  3.0300985970156469   T   T   T
 13.1732152046138840 11.9564787961361176  4.7900599429328441   T   T   T
 12.9634195039812976 20.2649588824135591  7.7004809979702928   T   T   T
 19.7860988838716096 20.0271136346864367  2.5510035682328640   T   T   T
 18.3989258970050784 13.2095182679042260  5.4211398865782838   T   T   T
 10.4385406804811964 13.1674092606523097  3.0599273137233203   T   T   T
 13.4195143400830172 15.5626297850978172  8.6424011759512425   T   T   T
 18.4902669066875589 15.2801078189497748  7.4395022120841672   T   T   T
 18.2753576345107334 17.7363956271339873  4.8894291428766543   T   T   T
 10.4529037158541236 17.7358930099630712  7.4474101062876636   T   T   T
 13.1612078909173054 14.8551499306614065  2.2281990891804870   T   T   T
 12.8916435039007418 12.4805869566870200  0.1212945352919044   T   T   T
 15.0037347252543078 18.1428418834475700  6.3215789440458465   T   T   T
 18.5308770422144065 10.6993676673418694  7.9522939565480755   T   T   T
 19.5622996732060201 16.6668951323964016  2.7688063716115692   T   T   T
 12.0996113868586779 13.5246210091758563 14.6376115707225054   T   T   T
 13.6426991802686803 17.3972734167916947 20.0384725748931771   T   T   T
 18.2096457718198437 18.4005479842780950 10.4419269078738335   T   T   T
 18.6150732671355996 14.5328430525856991 16.1983616060200148   T   T   T
 10.5283199840516328 18.1161055143974004 18.9371685960764324   T   T   T
 15.0135455677106204 12.4164086574784029 13.9655251583721451   T   T   T
 20.5066978321740834 13.1633088957142164 17.8714164946344169   T   T   T
 17.4656494597033500 20.1342035802326542 13.5301468316952338   T   T   T
 17.6304861763841814 10.8974106809980995 17.7126550481947618   T   T   T
 17.4894977267292120 15.3814143242975270 12.3063547954455856   T   T   T
 12.2236408949074171 10.7732070543783340 12.8820494638179852   T   T   T
 12.6063234874602035 15.6154236590434916 17.1700037188526196   T   T   T
 15.6532470646860098 17.4757033689628507 12.0160469993819508   T   T   T
 18.7083986337267376 12.3445468376679148 20.3575432194388668   T   T   T
 14.2932764914315751 13.2072888217101791 10.9818868807280143   T   T   T
 12.5551276141131769 20.3221713604495307 18.4915072139826933   T   T   T
 15.9383069915325439 13.2167953507065636 17.9962483411722047   T   T   T
 17.8861038640067918 17.5102729227019296 15.2019145256467034   T   T   T
 11.3770596675303803 17.6746436179551125 16.1849671683307434   T   T   T
 11.0353482744601816 12.3787995928467343 10.2936420887416400   T   T   T
 13.2348829090284870 15.3989198529854026 12.1289896268363009   T   T   T
 14.7656804611160144 18.4904220479641168 16.6341060730023145   T   T   T
 17.6223232696902272 15.3606926290967518 19.1546104362681007   T   T   T
 19.9265711166148236 16.7570387937122334 12.8800625879666040   T   T   T
 -0.0346559789932004  0.1693213382781148  5.4966417595027517   T   T   T
  4.8776599206308173  0.0431539165417233  0.2912073531734524   T   T   T
 -0.1000891441735109  5.0418109838549734  0.1007867354649113   T   T   T
  5.5509831127102984  5.2246170661944742  5.0630111419108594   T   T   T
  0.3349042806467198  0.1019194333491011 15.1766130500375436   T   T   T
  5.0681943450689957  0.1040883754780834  9.9966995481706444   T   T   T
 -0.2296518355112520  5.1885619576452857 10.2588160489070432   T   T   T
  5.1986423706905898  5.3170116455723502 15.3777111014553363   T   T   T
  0.3767944194493817 10.2855329079209508  5.2508779477531249   T   T   T
  5.2904941415093987 10.1866929452523820 -0.0466040725447967   T   T   T
 -0.1650137209492569 15.7111718268010936 -0.0749966896770594   T   T   T
  4.7916482297960865 15.5514372306771893  4.9345354636068723   T   T   T
  0.0430079963775900 10.4781579132729306 15.5632179905239880   T   T   T
  4.8221867966823799 10.2347415464848179 10.0785764377145526   T   T   T
 -0.0109153288932386 15.4596920909309006 10.3135371209333844   T   T   T
  5.0189666633522263 15.7050384768295963 15.6224155648819742   T   T   T
 10.2766618402000329 -0.1514901648526546  5.1682222183820778   T   T   T
 15.5906748084841791  0.0784192075051627 -0.1147595313124662   T   T   T
 10.3595929163805796  5.0753023006255784  0.0381566859313076   T   T   T
 15.4097304657042713  5.1197394545358828  5.1070235916910267   T   T   T
 10.0409623249822033 -0.0267089367085673 15.6641069630838849   T   T   T
 15.5829826832519309 -0.0119590928787679 10.3288246943687980   T   T   T
 10.1414308492238288  5.1284355097908030 10.5536434750003458   T   T   T
 15.4025497826133506  5.0337247759502954 15.1886647679580200   T   T   T
 10.1114831427965566 10.3431381603316908  5.3602373489405464   T   T   T
 15.7061452886103972 10.2073816372238912  0.0170253915194061   T   T   T
 10.2922826699304064 15.1197088569909539 -0.0640219296116304   T   T   T
 15.3696226433444725 15.2951076787951354  5.0611927337337352   T   T   T
 10.3496156873714753 10.0794443744021720 15.2615666776870249   T   T   T
 15.4449344358895733 10.5582018501302084 10.1948079082777472   T   T   T
 10.0958661518296449 15.4729503124379058 10.3209421372517181   T   T   T
 15.4754807356718977 15.2228893001623948 15.2745185157401142   T   T   T
  1.2673313656390066  1.2017986371418290  6.6493198084740417   T   T   T
  1.5303728147578068  8.8687137289168767  4.1955859075181117   T   T   T
  8.8427160873642681  9.1187472038636077  6.4437517080190112   T   T   T
  9.1624522282592444  1.1377200820461775  4.0140497490453493   T   T   T
  5.9540800421891094  1.0846236027798042  1.7058556849833308   T   T   T
  3.8545862950562770  1.4835598582570462  8.9547939982718230   T   T   T
  6.2988668123138067  8.9492934370921464  9.1382567822709984   T   T   T
  3.9643592661983313  9.0533180647409566  0.9384196291288213   T   T   T
  1.0834404531571891  6.1596606368603313  1.3525849474454836   T   T   T
  9.1814646232554669  4.3151416136322407  1.6236051691499287   T   T   T
  9.1403523275972098  6.3029526347834439  9.2640386397826902   T   T   T
  1.1360259767345386  4.0878204916898646  8.9741927478467911   T   T   T
  7.1085156783212717  6.3108259559667568  5.9519989861385785   T   T   T
  6.5001041639460420  3.8479954980097544  3.7788075813323507   T   T   T
  4.1209101142285016  4.2514834402879593  6.2005536593772224   T   T   T
  4.3828080898811885  6.5028873750272593  3.8040175087493995   T   T   T
  2.5515050201809912  2.7464018847051594  2.9162313781856239   T   T   T
  2.6791823494845985  7.4297436166693123  7.6215151390183253   T   T   T
  7.9604247633922247  7.8790855785205851  2.3956171167852398   T   T   T
  7.9981595209660172  2.4159609273198788  7.6089478637162991   T   T   T
  1.2852818793962784  1.2621726026996125 16.5725428181560588   T   T   T
  0.9473942423054952  9.2711635667422261 14.1756906345051323   T   T   T
  9.0598117688716897  9.1514703243994990 16.5250262334379627   T   T   T
  8.7117279550904900  1.1019470664373954 14.4591082467833765   T   T   T
  6.2555366766811291  1.2194472812098114 11.2797618221860780   T   T   T
  4.1154621005549883  1.4440522554362660 19.5794259327120344   T   T   T
  6.4383784741378465  8.8684443338376475 19.2367696393504346   T   T   T
  3.7718895601293880  8.9986690073989859 11.3592199777071059   T   T   T
  1.0309283155601674  6.1910768292312577 11.6797407167953402   T   T   T
  8.8912416528644833  3.9477269330902121 11.7380607095780647   T   T   T
  9.2283203587086469  6.2837680968829099 19.4462809404994772   T   T   T
  1.0657644593373188  3.7580103784245384 19.5860682693760779   T   T   T
  6.4146421347325759  6.4337911290976360 16.6145251159392089   T   T   T
  6.4298333072490461  3.9190251584556344 14.2137447124141847   T   T   T
  4.1726955214815913  4.2063163017876590 16.7115169404279982   T   T   T
  3.8413785917143661  6.3436769689439902 14.2704276273176607   T   T   T
  2.6741148320201305  2.8350861634184437 12.9336717870824423   T   T   T
  2.7512939855733984  7.6190067721300947 17.9403184365180550   T   T   T
  7.4858515770105889  7.5160054786853214 12.6895779968985511   T   T   T
  7.7434831399854920  2.7788328340207351 18.7077823137081296   T   T   T
  1.6490684719110598 11.3960675867529666  6.5134287637126844   T   T   T
  0.9215655168275975 19.5499662749610792  4.0443112352555168   T   T   T
  8.9992000818675617 19.1355351203263169  6.1203180515554285   T   T   T
  9.0773544938433464 11.5522932972699355  4.0978394594301664   T   T   T
  6.5156667865030684 11.1447637767910273  1.1733917206112847   T   T   T
  3.7459167602404411 11.3145034428665383  8.8177904488635424   T   T   T
  6.1189488373795768 19.4753645647629057  8.6733329520152278   T   T   T
  3.3114546839240631 19.8391783272941744  1.4799463783048930   T   T   T
  0.9834591523952476 16.6820750970728966  1.4046035230358420   T   T   T
  9.3057361479176013 13.8988747920018536  1.2407120007605046   T   T   T
  8.9991576190198046 16.8228957861516299  9.3084039042891185   T   T   T
  1.2169169766069226 14.3324137496129183  9.2102999508041954   T   T   T
  5.8890003269448759 16.5324035009546826  6.2786068535553721   T   T   T
  6.2969095794369583 14.6795317682440789  3.9777100719079028   T   T   T
  3.4094974924180086 14.2493431123595595  5.7247852960994070   T   T   T
  3.7395510658191573 16.7258188557694005  3.6668075134838807   T   T   T
  3.0739216938102283 12.7797551446276927  2.3972662854308893   T   T   T
  2.4845059894062196 17.9313871216145841  7.5069645732214143   T   T   T
  7.7307159050658978 17.8781414048965352  2.6760647938750517   T   T   T
  7.4961440821938083 12.9484772840359881  7.6315926911926599   T   T   T
  1.4690147895010068 11.2864843971542399 16.7356316700699992   T   T   T
  1.7878321764837741 19.8854263607534421 14.1314699458749207   T   T   T
  8.9711067605578041 19.3791210422267000 16.9679755851709473   T   T   T
  9.2553842386308300 10.9877443960158114 13.7571679048654936   T   T   T
  5.7719693891786594 11.4469075828337736 11.3693802750672859   T   T   T
  4.3907296063035686 11.5578859174344615 19.1803821862100534   T   T   T
  6.1324357940733467 19.2115481265106638 19.9314258312932111   T   T   T
  3.9246662391812346 19.5699807624791866 11.3096132813508223   T   T   T
  1.1942792073326425 16.6418086248786103 11.4521861606769662   T   T   T
  9.0727042491297709 14.2073168079713010 11.5505226234060991   T   T   T
  8.9767388103456529 16.2884779119040743 19.4322397517215109   T   T   T
  1.1000990301596962 14.6772292308906174 19.2838250018023913   T   T   T
  6.2267333692960998 16.6826947651916768 16.8367396774110816   T   T   T
  6.1017854786420305 14.5526703317306225 14.2296431415252815   T   T   T
  3.8731467627795477 14.3299348974227492 16.7593230653754048   T   T   T
  3.7487592921047148 16.6508689436167785 14.2325334856745034   T   T   T
  2.3377848593873249 12.7104327311714567 12.8103533908804117   T   T   T
  2.6315535539071746 18.1861480691608293 18.2133478840299645   T   T   T
  7.7338465096979903 18.0933105106430183 12.8025517831857023   T   T   T
  7.9093251208302249 12.6066952161849848 17.8719606709358274   T   T   T
 11.3929755192081679  0.9358177405904772  6.4922736861274961   T   T   T
 11.3470281100166765  9.0486800388397075  4.2778053176542787   T   T   T
 19.5419132635889241  9.2546117660573373  6.5126977548818976   T   T   T
 19.1736887892472367  1.5191738361242331  4.5141975871882858   T   T   T
 16.6941968629581865  1.2619427648278381  1.2164535995520092   T   T   T
 14.1715734821431365  1.0865636466875264  9.0627253676167854   T   T   T
 16.5597436778355203  9.2852485092931261  9.0085994396237634   T   T   T
 14.5692321207889410  8.8362728482422881  1.0440651914151406   T   T   T
 11.7128362485110227  6.3201736402574022  1.0777377767953022   T   T   T
 18.9294416544195272  3.9443092441063552  0.9824646617878723   T   T   T
 19.4226776049525682  6.6000804096521195  9.0434181672331206   T   T   T
 11.3644913334376145  4.0393208668523215  9.3170749881343333   T   T   T
 16.5048806581884122  6.3294588384917230  6.3520882334496074   T   T   T
 16.5145633460211769  3.8364159482290185  3.9120818232584869   T   T   T
 14.3453387928957312  3.7656996967385123  6.2471336183876893   T   T   T
 13.9859759713821887  6.2473819119058325  4.0603125145310965   T   T   T
 12.8040443923210763  2.4940340939836010  2.3598530613436624   T   T   T
 12.8156006550163593  7.2945305088131622  7.8918129098725220   T   T   T
 17.8076282935673049  7.7147985957975793  2.8879219213475067   T   T   T
 17.9752337431248890  2.7113555635590192  8.1934300904575075   T   T   T
 11.2068529841282807  1.2998270147224393 16.6611093794547003   T   T   T
 11.7539834868107977  8.7521237456569949 14.3610928936233346   T   T   T
 19.3461065595561053  9.2621012003250769 16.8048836247623186   T   T   T
 19.5935677075723547  1.1823842343513360 13.9702631364664338   T   T   T
 16.6428509354582204  1.4025585365539526 11.4174829888907752   T   T   T
 14.5581270729896346  1.4798841922754258 19.2159657943131990   T   T   T
 16.9686455308773603  9.1921218493378642 19.2341244459385408   T   T   T
 14.0615317089504295  9.4084770961462976 11.1468004946132666   T   T   T
 11.3266415861816920  6.2248012468922962 11.8117826801132324   T   T   T
 19.0073568021425530  4.2561982711912600 11.3926940944381734   T   T   T
 19.4097677741514900  6.3879592932226963 19.4014695031801949   T   T   T
 11.3011061037584284  3.6669795187855381 19.5211166700614598   T   T   T
 16.5945713869123352  5.9902531911179162 16.4801174188876942   T   T   T
 16.6433797639264185  3.8822122817556073 13.9262937192539908   T   T   T
 14.3266840398343582  3.8010933902228290 16.3965289718108664   T   T   T
 14.4035046945182135  6.4460403612480324 14.0772070941143532   T   T   T
 12.5899288436263284  2.3620187176728962 12.7380200111016357   T   T   T
 13.0892549154703914  7.5642880471705540 17.9241986726679485   T   T   T
 17.7881557925916596  8.2411141844707192 12.9601689532648159   T   T   T
 18.0213916051177137  2.5402417080104298 17.7513406716280073   T   T   T
 11.2393948118465570 11.6217085388937189  6.6105795285616287   T   T   T
 11.6310840285445298 19.4390883250495463  4.1444858363171964   T   T   T
 19.4542441322009978 19.5958770107854221  6.7047823794735333   T   T   T
 19.9537403083661076 11.4634215099814956  3.9060715967773403   T   T   T
 16.9527744068567969 11.4011358735566883  1.2451960816273555   T   T   T
 14.2259394838746918 11.7446385093440373  9.0016810007507821   T   T   T
 16.5835763190466849 19.1992978797398131  9.1338808312842730   T   T   T
 14.3806863098461157 19.4204092328640421  1.0742874548622316   T   T   T
 11.5149385123017165 16.4229703145456796  0.9692956835428513   T   T   T
 19.1040555344127938 14.5247959105245279  0.8727593600950837   T   T   T
 19.2343440456856101 16.6450566491899963  9.1283525276008763   T   T   T
 11.2939690587251764 14.3939466023275084  9.0543769799737461   T   T   T
 16.5424106473732877 16.5475424114087240  6.3352600334308677   T   T   T
 16.8401382122391965 14.2687097138748147  3.9075808124393152   T   T   T
 14.2040319477651291 13.9800250961602774  6.1549335139333934   T   T   T
 14.2087922218053411 16.5221697723364187  3.9132553553410867   T   T   T
 13.1632072060815748 12.4661584816825055  2.3820957961452014   T   T   T
 12.8371958914174957 17.8979350501977947  7.6612028891801653   T   T   T
 17.9649498342795511 18.2135494252221548  2.5021306409617745   T   T   T
 18.1531292714194805 12.9833767097072741  7.8347277863074005   T   T   T
 11.5146345426278867 11.4657104848759701 16.3062692264991611   T   T   T
 11.1692041927085324 19.2596477419818157 14.3882698172396957   T   T   T
 19.6254928272694258 19.3567695208781032 16.2152898071720273   T   T   T
 19.3067778768563869 11.9622403467276985 14.9093080512114433   T   T   T
 16.5626614206327218 11.6226107962609859 11.4957108118699409   T   T   T
 14.6397957430924794 11.4566427920707206 19.3262807873766107   T   T   T
 16.7000516191556301 19.5088567533030961 19.2922063655434499   T   T   T
 14.4731733608973450 19.3770969134358104 11.7261114223080298   T   T   T
 11.3564029311758219 16.7852563254174001 11.3397578236535885   T   T   T
 19.5166837020523900 14.3421996581583890 11.6558811052022655   T   T   T
 19.2827052681172049 17.1043007494409913 19.3757702655558717   T   T   T
 11.4114128507110557 14.0331095110122650 19.3638346526281211   T   T   T
 16.4103377137246369 16.4782890291443636 16.7355108605532052   T   T   T
 16.8249656827378331 14.2437594992031773 14.1092028873035655   T   T   T
 14.4139623379141089 13.7441652694720204 16.2975194679245874   T   T   T
 14.4418567007618694 16.5077784820181854 14.0906351973034898   T   T   T
 12.8323720111746660 13.2075387317256663 12.6033724186509133   T   T   T
 12.7716144984688995 18.0284618441552524 17.9202531438535075   T   T   T
 17.8566111078289396 17.9169702497945416 12.9626294554008226   T   T   T
 18.1952493340194721 13.2681084581666937 18.2319957947107909   T   T   T
 -0.3648016674953363  0.4079279234214815  0.4255860862684949   T   T   T
  4.4591394027254703  5.4358514387623105  0.1181319922965147   T   T   T
  5.2758940140088066  0.1219855925650330  5.3244987107207358   T   T   T
  0.4265456527905577  5.4394303758086764  4.9127499758330693   T   T   T
 -0.2051215545528237  0.5086154078213008 10.2897296684017636   T   T   T
  4.7313262586863383  5.3341218332494957 10.3728006328499749   T   T   T
  5.5973671653753128 -0.2865268373129811 15.1300581191840244   T   T   T
 -0.3251089116973030  5.2026951170575888 15.2765358886209075   T   T   T
  0.5621315691747247 10.7263367520038742 -0.1506384919975362   T   T   T
  5.2630386458327632 15.2821783031749394  0.0443659443426822   T   T   T
  5.1759421579522753 10.4465875523468910  5.2687516516715744   T   T   T
 -0.1624682409879483 16.1560226481258518  5.2131099137243666   T   T   T
  0.0269295913334385 10.4942789904049789 10.0718106836472110   T   T   T
  4.9311087468805015 15.1569638342027595  9.6746923104557432   T   T   T
  5.2195147277753184  9.5667011366993489 14.8312028914810625   T   T   T
 -0.0715967124719079 15.0830288464808753 15.2981267709910966   T   T   T
 10.7610804470537467 -0.1306210889226720 -0.1946307191149698   T   T   T
 15.1959855365474361  4.8259134122266909  0.0074768819335801   T   T   T
 15.2914156416130744 -0.3724613115593893  5.4246908819706370   T   T   T
 10.5557477524393626  4.5100781703631476  5.2442796296901477   T   T   T
 10.8420038222676443  0.0358448156270696 10.5998646799526917   T   T   T
 15.3237501467783037  5.4224100149873626 10.1420667960758895   T   T   T
 15.7065418539942971 -0.0136734753884370 15.1387064677882730   T   T   T
 10.1503526215422770  5.0006509107367050 15.3982095482500760   T   T   T