Li P  S  Cl
 1.0000000000000000
    25.1819793006824639    0.0000000000000000    0.0000000000000015
    -0.0000000000000009   14.5388225279766061    0.0000000000000009
     0.0000000000000000    0.0000000000000000   37.2126966544236950
 Li  P   S   Cl 
 287  48 240  48
Selective dynamics
Cartesian
 -0.6295566792225435  5.1410668632423819  8.3860001001097988   T   T   T
 18.2705282648976493  9.4101709712985731 13.8859756679263242   T   T   T
 17.8016879536473027  4.9317038673816747 15.5039663782846695   T   T   T
  8.1638468922552505 11.5015276559034447 12.5321784785575616   T   T   T
  8.6272377123743862  2.1570150039841303 -2.4673990961941810   T   T   T
 24.4935100781607318 13.8975157315563393 -0.0740937304950145   T   T   T
  1.1939016228367014 -0.8055621777252120 12.9604740455153795   T   T   T
 15.7575370597854967 11.4608780617395087  6.3253483746837613   T   T   T
 16.9391367939501052  5.9087847833636404 12.6323182782280590   T   T   T
  6.2210813523073423 13.2292333632469425 14.4254670238587828   T   T   T
 10.1257386414077182  0.6615854588573167  6.3772281492455329   T   T   T
 21.1616192462383523 12.8212657690747278  2.7930623115458308   T   T   T
  2.6072923104161005  5.5628701844571067  8.6558212047066849   T   T   T
 12.8911350934000861  9.6329461458316459  6.2832831777710902   T   T   T
 20.2544902634425767  5.4387525336608871 13.7672749145983317   T   T   T
  3.6942785641445330 11.0429757525550016 14.5187609931866479   T   T   T
 11.1098265505447902  2.5311140035058179 -0.2512726016367367   T   T   T
 27.7449612709345246 13.2396293798500349  0.3731892596776626   T   T   T
  0.7173501130802928  2.2264336866181043  6.0304167169619562   T   T   T
 13.0875478881582676 13.0023001790966966  5.3998128088731079   T   T   T
 18.3802296550091313  3.5718154006567930 11.0803344458459474   T   T   T
  4.4546715651754258 13.3166621869365009 12.0006277954339513   T   T   T
 11.8695941372537401  5.0428502576364487  8.0018473689321432   T   T   T
 25.6279826630385585 10.5858472395556653  0.4211500336577126   T   T   T
  4.1435770630097455  4.2653852344983001  6.4450806220435384   T   T   T
 11.9019939919256998 11.7021318613657712  8.8637863988826169   T   T   T
 18.0528391919127458  1.4639954695960267 13.1350291202685785   T   T   T
  8.2723382532364642 10.6311884234164147 18.2772941939799587   T   T   T
  8.6281182393423599  2.7153169082054731  2.9939611790145255   T   T   T
 23.0746544152894018  9.8622304895041921  3.0653379711991673   T   T   T
  1.1153954031012061  5.8223675140074196  5.3308039834930065   T   T   T
 14.8181231122393360 13.5574488161770592  8.8261809245740963   T   T   T
 15.6417622630010786  2.9734269276762704 13.7056105364655441   T   T   T
  5.2895485056313323 10.2036466767852225 11.4558687237968577   T   T   T
  8.4118114736025031  5.6757950516237878  2.3377686635635100   T   T   T
 22.4524453355304914 15.0231658703003426  6.5904491065575952   T   T   T
 22.9567801594068186 13.4446854032008734 12.6406979043173369   T   T   T
 10.5101454764633573  6.4025432217122917 14.2639695056587854   T   T   T
 14.7732935917064783  9.8077060135879108  8.7795183614857297   T   T   T
  4.5089834391348722  2.3698661469207640 -0.7157745308910585   T   T   T
  5.7305751936932685  7.4813504138408531  8.2930862270646859   T   T   T
 22.5043093587235816  7.9538310265058962  6.5264715149100221   T   T   T
 28.9188087019516900 -2.7218171759871028 18.7342619309700495   T   T   T
 11.1543985034301709  9.7724097506660801 12.2633612254218818   T   T   T
 15.1413262289463830  2.0555745367736438  2.9691309624656808   T   T   T
  5.2988634269966983  9.2341004955402042  2.6885180370013577   T   T   T
  6.8989223213643571  2.4798167224836298  5.9783071759766662   T   T   T
 21.6001705398234591  7.2554950418033402  9.0482811000124652   T   T   T
 -1.3779603473346538  3.6354527503263374 16.0077289862097238   T   T   T
 11.2795558546334647  8.8150650863374587 15.1160333669599964   T   T   T
 14.6994901776541447  6.6158483607237173  1.9841992791455638   T   T   T
  3.5847436071496528  6.7095291822892893  2.9795061497176700   T   T   T
  2.1601380310574130  2.4443913977043268  8.4061239923871121   T   T   T
 20.3697142098792838 13.2012316343401555 14.4301271945244540   T   T   T
 -2.6694855598948375  1.6695846885325565 14.0315265729955527   T   T   T
 11.7837772732899335  6.8317694489090970 11.1971636044751115   T   T   T
 21.1266097180005374 -2.0651400514745122 -1.8293266309463938   T   T   T
  7.1329471994540867  7.9091472703748575  0.4743922110485974   T   T   T
  4.5031585572245207  2.1989600288924041 12.6940002423513185   T   T   T
 19.5766866304586742  9.7331252378539475  6.3232300504433194   T   T   T
 -0.0570820215529861  9.6417621162658254 14.9877329771448498   T   T   T
  5.4404163069346563  6.8436389106563444 13.1553922257668354   T   T   T
 18.2097767722334183 15.6527984584322652  1.6836679788966695   T   T   T
  3.5826875064872730 11.3174652178402990  3.7675512020156563   T   T   T
  7.9978311177245889 12.8452108667331046  8.2209190617676136   T   T   T
 18.7196024750361047  9.1447433951765635  9.4968305589924906   T   T   T
 22.0744080507492555  3.9050510329984820 19.0879752174380357   T   T   T
 14.3633080952157162  8.4884235400330130 12.5957075383386705   T   T   T
 11.9200418260929499  3.7212521591557413  2.8147513888564344   T   T   T
  6.1015914376980636 13.0586549170984547 -3.8566756888238691   T   T   T
  9.1792879116187258  1.2874655639913386  8.8346121219749314   T   T   T
 17.9926944226199481  6.4487194928315423  7.9625907868085317   T   T   T
  0.9653687055579893  9.6974986909141201  6.0627877692050518   T   T   T
 13.2844559072295922  2.7198714960261645  5.6067193795687773   T   T   T
 20.3634403540234956 11.5250039323511473 11.7128177279255468   T   T   T
  1.2033777543736255  1.9034779974766580 13.3878831625496328   T   T   T
  7.5852900075909497 11.4382185171407933  0.2258104975341046   T   T   T
 23.6468190312012752  2.5752860001975515 -0.4636494641104964   T   T   T
  1.8287774637003422 13.4913454608084891  8.7627600785828932   T   T   T
 13.1090635353723606  2.5907556322431446  8.8182693474507570   T   T   T
 15.7937017415866201  8.5159060435761091 17.8655220228532237   T   T   T
  5.3316467806889207  5.0859328894609535 10.7850298364764043   T   T   T
  5.9142834838224614 16.0681945527641119  8.4753147070439159   T   T   T
 19.9648514837366591  6.7285825534868948  5.5620990104039185   T   T   T
 -1.2588269793620843 16.1992881592993925 10.9792687098607349   T   T   T
 14.4148980644065823  6.0579442693148202  8.7141684818821474   T   T   T
 16.7518743259312615 13.2442904618453845 13.5959752049048852   T   T   T
  3.0625378421482456  1.5927425870437639 17.2002804980055153   T   T   T
 15.7594279260243546 13.0645183712279209  3.1774834244266681   T   T   T
 24.2071604466573689  3.3327728561894379  2.4943992138739253   T   T   T
  4.1357962395851349 11.9283026509002319  7.4238841474926724   T   T   T
 13.7941396873399853  5.6465103254334741  5.4692275993258885   T   T   T
 20.6968776003869124 10.2770144272171216 14.2008943535229584   T   T   T
  8.1946944691005470  4.4060763806193783 12.2908560647209413   T   T   T
 12.0288885732552941 10.3773559897219023  0.1398103531305976   T   T   T
 28.1572958573493608  7.7672257563855096 -1.0590984915498234   T   T   T
  1.8938670402700430 10.1383775026582565  8.9616626380023359   T   T   T
 16.0874870454901640  3.4071415335573199  7.2266415373880335   T   T   T
 17.1824417774457743 12.1175034658986007 10.8157065000253567   T   T   T
  0.6198912320798655  8.9161518576625998 23.6283720516432574   T   T   T
 11.1848872644270756 10.6631440529692014  2.7746704262126287   T   T   T
 24.1693135677593816 -0.7529855684910053  2.6822570709085616   T   T   T
  0.8519199260797767 13.8157917939674650  6.3457704434869111   T   T   T
 13.6931799280548194  6.5258408843127977 14.6106567262574991   T   T   T
 11.8729900608112064 12.4863803490444223 13.5809771987158125   T   T   T
  6.9216672700614312  2.7910317633989021 14.4539531676223909   T   T   T
  8.3847089105716019 13.4277321373776335 -1.7881768742410016   T   T   T
 23.5354010805699900  5.1487045865444099 -0.9045447309439401   T   T   T
 24.6357880180161786 11.2430245930404560  7.9630136309532373   T   T   T
  9.1121918175490180  8.1305968677085136  9.1360691563431722   T   T   T
 11.0276981814687449 14.0672416595275678 11.0365007812075380   T   T   T
 24.3960268190588394  6.9983531136792525 11.0319717963675359   T   T   T
  5.6104121722153737 13.5090737855119105  0.9765179947558658   T   T   T
 15.1889164778497570  8.4506879495694580 -0.0254433535346439   T   T   T
 19.1657954786155074 -1.2480790162740851  6.0296362006447808   T   T   T
  6.8376877631869162  7.0942876038903648  5.1500205115677842   T   T   T
  3.9109484302899351  4.9129096273222634 14.2036148372605204   T   T   T
 23.6807107421802669 11.6034831988952885 19.7185884581845805   T   T   T
  2.2848299125763569  1.9995307982148944  2.1768918123643961   T   T   T
 17.9213244200894408  6.0222356501603604  2.7807864476703199   T   T   T
 18.1577260394169215  0.9163808498851997  8.7222908398502366   T   T   T
 13.9951716274119935  0.8038588011206327 12.5070103048997101   T   T   T
 -0.9916635572857779  5.3282825966176546 13.4035107019984405   T   T   T
  5.6151317985699771  2.1740299979445186  2.0930217036661403   T   T   T
 14.6978711386868603 12.0385897150461822  0.6941816824040664   T   T   T
 20.5022197819478862  2.9894373113303021  7.9180407330381666   T   T   T
  7.9824927453257191  5.3803579098959942  8.0627798865356564   T   T   T
 12.0860649619226592  0.3858124126392946 15.5201517230260109   T   T   T
  2.0493128129481932  7.5245670802740143 12.9252860994799796   T   T   T
  7.1023904251188119 -0.6799985603880496  5.3087539658781999   T   T   T
 18.4776369851554207  9.2242981103949635  3.3320181096340167   T   T   T
 20.2313070689278689 13.2278188832460142  8.5954314791380071   T   T   T
  7.4550136179176141 10.0814525627729008  6.9379919377902066   T   T   T
  9.8898661940849397 16.2110930284202652 14.0968572379555788   T   T   T
 -1.5351210670882205  9.8952890731036671 12.1550092756550772   T   T   T
  2.8318025902814918 14.0151058640415158  2.6139165622795884   T   T   T
 15.3326520783720373  8.7972031608827717  3.2245080581151662   T   T   T
 19.7913783823954859  2.0849998220943537  5.2496172627441693   T   T   T
  6.8166621194780674  9.8022409072566301 15.0992293051008204   T   T   T
 11.2941858680792322  2.6226705034950157 12.0798920548993820   T   T   T
 22.4931775780233139  7.4667524666167617 13.1813803758360599   T   T   T
  1.6449498201160528  1.5234023816900650 -0.2133366599770141   T   T   T
 17.6257138554095647  7.6214961314553582 -4.9955704084526058   T   T   T
 10.3447549762596402  4.0278777921768762 32.1871340529532546   T   T   T
 22.9922790895612792 11.6977465124117597 31.7494283990338459   T   T   T
  1.1368208156518951  3.6585071662272264 21.6019656249192558   T   T   T
 14.0551172478693971 12.3532907527393174 24.8982130293480317   T   T   T
 18.6945615925685900  3.7912421384747041 34.2195364186611499   T   T   T
 10.6146932188552157 13.0352902961629518 37.3697441271487492   T   T   T
  9.5519722958546680  4.7113616615761122 28.3138930378452720   T   T   T
 22.9425874326024442 11.8458179949776508 27.9746310998712779   T   T   T
  2.1294492819811301  0.6829309656999483 23.1103033779645912   T   T   T
 14.9694643858699354 12.7597700434473680 22.3215835456719631   T   T   T
 16.6497078514782118  0.9729691289955601 36.5122398170992852   T   T   T
  4.8111965865241864 10.8290844045779444 37.1320908397644160   T   T   T
 10.1121708144440401  1.6408057429643568 27.8293886736858234   T   T   T
 22.5424073094995450  6.8265490689228905 26.0162647994216378   T   T   T
 -0.8244632808731771  0.9626230165247091 18.3763974852568310   T   T   T
 16.5228293229611438  8.5977019847219260 22.9373703514398315   T   T   T
 20.1735145361035819  0.6241156077008878 34.5227597542859854   T   T   T
  6.7316899809704172  8.1651881917398210 34.4515419252503392   T   T   T
 12.9363578561397539  2.2871278607508878 30.9793154424295487   T   T   T
 25.0370211210346838  9.6942373026837476 31.7881757971497265   T   T   T
  1.1394750535571090  2.1830327195179433 25.5278076436414558   T   T   T
 16.6143081312859096 10.4948051971486738 26.4132640680813218   T   T   T
 20.9386168554836800  3.4640553759197728 39.5189466410321018   T   T   T
  4.8196915018128870 17.1451284293894659 34.0894308570510134   T   T   T
 12.7775620929861091  3.8720980642816825 28.5870745356879290   T   T   T
 24.4238558513743342  8.6989438808150563 28.5796729225092143   T   T   T
  4.7091401868942402  2.4122738157435064 23.6846754217121536   T   T   T
 17.6089175438719181 11.5029669740085350 23.3885267688492000   T   T   T
 20.5079002534459391  4.6481797750250058 36.8618545101188602   T   T   T
  4.4891593917970338 10.0785364086469098 34.4684727987702217   T   T   T
  9.5235931743423485  1.0659893647003418 30.4990318928300717   T   T   T
 26.1796323181529118 11.3767831414381941 29.4916292202476207   T   T   T
  1.6156194240041939  5.1077917499293539 24.3507976418190353   T   T   T
 13.5254797912039635  9.9177673752766911 22.8838712018155057   T   T   T
 22.2158095035005232  6.0269771844720372 40.3262795117330057   T   T   T
  9.1033578534561883  9.1104672889264329 36.1618183650751206   T   T   T
 10.9268044283104935  6.7193150678139935 24.8181519492462392   T   T   T
 23.5407447274594048 -1.9440411334182535 23.7267522857647464   T   T   T
 25.5581733790563632  8.1640207600366050 34.3578184041212040   T   T   T
 13.8841696762554498  0.2441389802460029 37.6374204687806042   T   T   T
 14.9599617828902502  6.1647980071261079 34.2918543038212249   T   T   T
  6.7765296878366215 -1.3867474040255297 29.4461765046425299   T   T   T
  6.9094446835418841  8.0028160534290720 22.5891480291462514   T   T   T
 21.1907975704422427 13.2852950031077395 21.3977974450456969   T   T   T
 21.9482982121915171  7.0103671468112632 37.8340168556406553   T   T   T
 11.8884675763358736 -2.2517863709259518 34.6346926511452295   T   T   T
 16.3658656442980828  5.0114248893694882 31.3505385040132332   T   T   T
  4.6155273364699392 15.5226571519175334 31.1368168973282415   T   T   T
  9.7737294343894998  7.0966855690074304 21.5597828930737343   T   T   T
 23.6746973688955293 15.4276354149626709 23.4832871213814691   T   T   T
  1.0283673128915987  4.4230684901756838 34.2858323129916016   T   T   T
 14.4240207190969372 11.7586362372096964 34.9775058941977477   T   T   T
 15.5073924136476791  0.7917621450775715 23.9636111691180069   T   T   T
  4.2662219103867658 12.3349303354972175 27.4984652523627844   T   T   T
  8.2108354277349420  4.7970855042131548 24.4408497649537502   T   T   T
 19.6825643503795433 15.4149398892848684 23.7076750766259963   T   T   T
  3.7045556108919113  8.9028308439777355 31.1362818977244089   T   T   T
 17.8166038885118496 -3.7289442080592452 35.0337701043950744   T   T   T
 18.0821708264555525  8.7744733034386471 28.8001718078379803   T   T   T
  5.5007496868733528 15.8389229585439555 28.2642167076455451   T   T   T
  7.3827120971984108 15.0629391501708927 17.9448927272940679   T   T   T
 21.6453127862972892  0.5417039359023288 26.1570215004899893   T   T   T
 -3.0794732913486653  8.5486365462590612 34.8273904266068968   T   T   T
 11.9481534753175360  0.5834761546858798 35.0611568194091774   T   T   T
 13.8957942870727216  8.6375884250058323 25.3541832389703430   T   T   T
  2.5115307226933270  0.2926406350964692 28.6342566214554211   T   T   T
  9.1374288989956707  9.3081519954608858 23.8991767984581287   T   T   T
 20.6115074551718251 11.8021032239848154 24.3878507122224981   T   T   T
 22.7913028084156366  4.9455872722759020 33.9063071917025383   T   T   T
 17.5680646601543842 12.6640166659435049 37.6302383002303884   T   T   T
 15.8988446731683659  5.6997966057224447 28.4621301229004366   T   T   T
  4.1297886341750294 12.1688789991291166 30.5484184092605595   T   T   T
  9.1567239624147447  9.9226785561201449 28.5154927433170222   T   T   T
 23.7506938866573165  5.3014898917722961 30.3628649148329295   T   T   T
  4.9675463964209063 12.0663392303068129 23.1264472674103949   T   T   T
 16.7181682940849896  3.8146573099875845 22.5550817698284085   T   T   T
 17.6590350423558462  9.3730166146264313 37.3781577681503592   T   T   T
  4.4464142066216290  4.7435207982354939 35.1930048983230961   T   T   T
 11.1150682966242798 12.6271019885678655 29.0199135682496099   T   T   T
 21.8672163333384475  3.9998974786341219 28.6048061971640983   T   T   T
  4.6048035459243595  9.2163217120041949 23.7905861197363855   T   T   T
 17.2292582002026293  3.0493926305542862 25.4525944379419862   T   T   T
 19.6392309807446637  7.0444104724312124 34.4967073218009688   T   T   T
  7.0888577055726341  7.1948080758004913 30.5812019559695472   T   T   T
 12.7011313108056658 10.2478660871035494 28.4515280892590070   T   T   T
 24.7705395025395489  3.0924334718057236 27.9644674137040496   T   T   T
  4.2159558496613210  8.7070557027143547 18.3282278517037511   T   T   T
 12.6036347414737033 -2.9636869337796972 18.4023647185497339   T   T   T
 21.8677182184103387  8.5970539359963780 30.4727451379460526   T   T   T
  1.9357182524457601  4.5226751084177383 37.2896237872182468   T   T   T
 10.1006060901754910 11.7626119234039006 31.5981979312416428   T   T   T
 23.3923579213416630  2.2398173874324736 32.1508255730871468   T   T   T
  1.6350882883577600 12.4909583595251092 24.3458415033744444   T   T   T
 14.3372721685034907  5.1031186310242367 17.6490649847912486   T   T   T
 26.3099367612495527 11.5906784122652500 34.3458553525655788   T   T   T
  8.0184894540362901 -2.6813825039184112 39.9001126420567260   T   T   T
 13.1272245620615351  9.9132407190259215 31.6239994286929758   T   T   T
 26.0831704983385606  2.8583942816878305 30.7562168975257144   T   T   T
  2.8668992939737352  9.2799768705469390 25.8206002612302825   T   T   T
 10.6218059326310890  4.8590374572887507 18.2137388956828268   T   T   T
 16.4446013592901821 11.6339953244919698 31.3702800453168464   T   T   T
 10.1066725538265043  5.3599267919149343 36.7845021617169436   T   T   T
 10.6356791109446345  7.7193320519077311 30.4465605451170234   T   T   T
 22.5637431365196406  0.7031047463571900 29.7711724986763926   T   T   T
  2.2792421018540150 10.4213767165453710 21.4603501308679654   T   T   T
 13.8676667695292277  5.1828951645165899 24.6648715829036043   T   T   T
 19.4737545087490815  5.9136082008896622 30.3471653464100939   T   T   T
  7.3113760341732705  4.7994607669051526 37.1178549420942545   T   T   T
  5.9078167881189669  5.5936384046631114 28.4220393256871482   T   T   T
 19.3621624594155790 -1.1772655061347643 31.7014239584430406   T   T   T
 19.6534063702696571  6.1788878503475964 22.4624951876046310   T   T   T
  8.1725870520990789 -2.3304878059107126 24.2416559725574032   T   T   T
  7.3950388259824678  5.3184219435698195 34.5149657252880786   T   T   T
 25.4910187578763896  6.3224401629537601 37.9324564387210899   T   T   T
  8.3461283883612776  7.9073187887829812 26.1487041453794227   T   T   T
 14.7723256564886842 16.9480565547509059 26.5988641039075091   T   T   T
 23.8199948879067023  5.8361887446664635 23.5806542469128004   T   T   T
  8.6002107059802881 13.4844135303708512 21.0874908640352103   T   T   T
 13.2321454025264966  4.1311151059812774 34.9314470097843781   T   T   T
 24.3697833538642143 -0.2525270435582604 34.6243473594142728   T   T   T
  3.3745178706756414  3.8576494027466270 25.9207139934300912   T   T   T
 15.5889963225067234 13.0986528739520303 28.6604377907515762   T   T   T
 26.0285692103080279  6.4167227463368111 19.6890270752879282   T   T   T
 12.9542448689661214 16.3168496088531683 24.2027902671401485   T   T   T
 15.2555843503989195  7.9328417203069668 30.4926991979249955   T   T   T
  3.7252854837441123 13.0033449287560412 35.1630597220722905   T   T   T
  4.7783000383019676  8.8513483913113191 28.1901465133385258   T   T   T
 17.9409914376492594  1.2430586797617453 28.9887061324084101   T   T   T
 21.9972431622922713  8.4986767288754859 22.7904468692715092   T   T   T
 11.0902688202685784 13.3458834737880920 24.2972676467759783   T   T   T
  9.9664055197276937  7.2784323558440871 43.4935051704590308   T   T   T
  4.4557780461727337  5.6902043974821197 32.0244317586512750   T   T   T
  6.2080868121875801  5.0260288411564140 21.5619315559126044   T   T   T
 19.3027729855007166 -1.1125798791939212 28.6712155737018222   T   T   T
 19.9291588340923198  5.0116159331219361 25.2251427037680465   T   T   T
  7.8433542620731647  0.4843590437957345 25.4949820487241077   T   T   T
 11.9193853785479700  7.8021658991964085 34.1718176985571773   T   T   T
  2.1128774077482322  0.9830713366707132 33.9440244977600827   T   T   T
  2.7957563425153835  6.2406376720843983 28.8811082690921737   T   T   T
 16.2695506924502027 15.2850686710791415 31.9551753445540925   T   T   T
 20.0707324222204164  8.4350611563473485 25.1127996845709625   T   T   T
  8.9235788037512673 16.4888229639759061 23.1538699554483571   T   T   T
  8.5283966061882825  1.7537841850665516 37.5689943339274350   T   T   T
 21.4811359721856832 13.9323037062178159 37.6616751718973291   T   T   T
 -2.7337234243854729 -3.6549153496551403  0.0065564092087088   T   T   T
 12.4925683874250666  6.7611215282095953 -0.1514258186984515   T   T   T
 16.2782548835958139  0.6368009630195723  5.6941466295751200   T   T   T
  3.6691872948612945  8.0798530571587541  5.8094574135620443   T   T   T
  7.6198007452768888  0.4812243075904042 11.5025263148545367   T   T   T
 20.0838577166954622  7.9635833330397769 11.9639920585356698   T   T   T
 22.7461303812485482 11.5932516911535242  5.9699202066032946   T   T   T
 10.0014129059038019  3.9738295240422921  5.6595573771761858   T   T   T
 14.2993799915444448 11.7753436642234774 11.9159829566948918   T   T   T
  1.6556809103584158  4.4059426674138873 11.4421565769308131   T   T   T
  6.1143066604710024 12.4196118275642338 -1.4991461508960038   T   T   T
 17.9990018913895398  3.7087811731610367 -0.1729581271304950   T   T   T
  3.9089350476636620  0.6235207274178309  5.3279472608080045   T   T   T
 16.2036239490403133  8.0153052661449067  5.9946438245264941   T   T   T
 20.4365947700403154  0.8581184062700921 11.5496390732935357   T   T   T
  7.9374742014746120  7.7094466015691365 11.7279278610732405   T   T   T
 14.3685074150411367  2.9846158825899618  0.3404476114417513   T   T   T
 -1.5256696471267552  9.1295034189753395 -0.4265823624000860   T   T   T
 22.6763832802023870  4.3643528702443870  5.7105063610890410   T   T   T
  9.8904410941390477 11.3749382556010161  5.5054782238837108   T   T   T
 14.0990425431365818  4.2707044452849550 11.5361579204105045   T   T   T
  1.6371327670285729 11.0279800036877251 11.5736130815357949   T   T   T
  4.3623023505151401  5.7839650295272724  0.8269588089043426   T   T   T
 20.3632724981418818  9.9674775275659933  0.6964512344523882   T   T   T
  7.6166098503621660  6.9727378811006835 19.2423342631402079   T   T   T
 21.1628858512727476 -0.0622874753778388 17.9172922827245600   T   T   T
 25.8095298778469626  6.4064260890608065 31.5503404120559381   T   T   T
 13.2435973934064410 13.6731822326321382 31.8692898825081059   T   T   T
 17.1390937006403306  6.7781083362598356 25.8589012122114461   T   T   T
  4.7820385244295300 14.2909959976522529 25.2129200449936945   T   T   T
  6.8382213205949212 10.3282896022771844 31.4126184669859398   T   T   T
 19.5915775884450909  2.7629323161110033 31.5773354357155434   T   T   T
 23.7728185511668073 10.0385008226374293 25.6286306242465329   T   T   T
 11.1577620645699103  3.4504275061986180 25.5986424840186544   T   T   T
 15.3269028821256619 10.5377423465903419 19.9383298134518867   T   T   T
  0.3066613463989716  3.4922145657407979 18.8622739333253122   T   T   T
 13.0432924682779614  6.3407666489246450 31.9047632891865049   T   T   T
 25.8787622136940882 13.8148599090627666 31.1674601734345309   T   T   T
  4.8705188993280402  6.6175720523983301 25.3939913242290558   T   T   T
 17.5934454990220175 -0.5562238685096231 25.8320974907854222   T   T   T
 16.3494635303600546  2.6832455107922044 18.6992249702188431   T   T   T
 10.2654523127280637 -1.0902749631553177 18.3023794114319465   T   T   T
  6.8875389795442699  3.4189273414584038 31.2578484501645875   T   T   T
 19.4213643085643994 10.0191689502975070 31.9482392826792072   T   T   T
 23.3449405125725349  3.3509104999827040 25.3379761348489474   T   T   T
 11.1616751511152081 10.4759619688637340 25.5828816747617047   T   T   T
 12.4873330764709820  2.4756021824763699 18.6192418442815857   T   T   T
  1.2997800228929441 10.3251861418680395 18.2398128053309989   T   T   T
  3.6822815121039936  0.7282661681148447  7.3052933833515388   T   T   T
 16.0405359653943620  7.9906584446389122  8.0844668605583898   T   T   T
 20.3108360214762413  0.9765248343522956 13.6700248402840518   T   T   T
  7.9435709968214994  7.1798100696959901 13.6972656787457900   T   T   T
 12.8378904673987932  2.1214239914759276  1.4507847550947151   T   T   T
 -1.4149010139844309  8.0535621443063015  1.5363321310991542   T   T   T
 21.3838064245751127  2.2583642271396216 10.5350339341740131   T   T   T
  8.6738146568718122  9.4875232069449886 11.1649376519380397   T   T   T
 12.6328082967285180  2.9870303389807198 16.4848566316062488   T   T   T
  0.9627051403878806 11.9920399845913952 19.4422723255364929   T   T   T
  4.8321006492179492  2.3846991959003647  4.7388980499706141   T   T   T
 17.2019630470161147  9.7021103855560096  5.2059494534439388   T   T   T
 20.8808681352473116  6.1019765293673762 11.5496102825441742   T   T   T
  8.5869991676892372 13.2756012816070914 10.9334762513589130   T   T   T
 10.6659508381199313  6.7924000699489486 16.6055763760745627   T   T   T
  4.1357234921892134 14.1162036583175805 19.7299375194734417   T   T   T
  4.4596469097906812  6.3128376821641350  5.0762282062364781   T   T   T
 16.9740592641968533 13.2863710456632980  5.3801534328642759   T   T   T
  5.6673251201506547  0.6899837123187428 10.7356916272371183   T   T   T
 18.1045825787781567  7.8690377218378638 11.7681633539355879   T   T   T
 18.4444068406822907  5.6594370642694329 19.8239542494369410   T   T   T
  9.5501698940011437  4.8669965318995221 21.1543448380942714   T   T   T
 14.2991751730459722  0.5619304429592009  4.8930730989533444   T   T   T
  1.8613403636376213  8.2905944910203235  4.7197565297363653   T   T   T
  1.5384933432240775  4.1822361493011817  6.9737904352358413   T   T   T
 13.9447827606500088 11.7102774337020534  7.6253570206627748   T   T   T
 18.2537138936177712  4.0331349712639932 13.4290091766991253   T   T   T
  5.6897665857788731 11.2148940877505492 13.5035069545151956   T   T   T
  9.5914229266573248  3.9477496753404075  1.2942070000090300   T   T   T
 22.9594409763246716 12.0127921067208501  1.7874828198690136   T   T   T
 22.4481666867668039  4.2518480456600347  7.7531977693881808   T   T   T
  9.7259524796385044 11.4595362262807914  7.5147291480054337   T   T   T
 13.6423204366746731  4.0472314568569816 13.5575667087723595   T   T   T
  1.4575758519575892 11.1691865096332652 13.6179271729423590   T   T   T
  5.9084364708727826  4.9877940416423341  1.9047291562404169   T   T   T
 19.2196831863154145 11.4107545631367771  1.6950020955031020   T   T   T
  2.4123789594599896 12.9122491712287157 11.0217497529978807   T   T   T
 15.0454709396244866  6.0264129537356190 11.0643475720448698   T   T   T
 23.5536278206630385 10.4376637431211812 17.1111409880045962   T   T   T
  6.0731774151634594  7.3470438684404087 20.4213467250742546   T   T   T
 10.7331170736959542 13.1063216932414104  4.7346394260428459   T   T   T
 23.7040248391203008  6.0201368764449050  5.0358619884625497   T   T   T
  2.9120721124438798  2.7314138201522136 10.7146523506291302   T   T   T
 15.3183467406452856 10.2034603547607752 11.3413500142293504   T   T   T
 16.7511546334630026  4.2231007758774046 20.1821530709238672   T   T   T
  7.5919261780956200 12.7116229502383469 16.7322427378786251   T   T   T
 10.7375202416255409  2.3239421658240085  4.7484963714309139   T   T   T
 23.8859051802775753  9.7704520272580346  5.5579038761685542   T   T   T
 -0.2596100683073663  4.4805696404000193 10.7430491899386968   T   T   T
 12.3234418253631350 11.7636846518913369 11.2023733414357167   T   T   T
 17.2445318377273793 -0.3193702932066867 18.1536781005733054   T   T   T
  6.2678683095022212  9.0648851736244644 17.1278957564942331   T   T   T
  8.0352704568996405  4.4207131113991931  5.0030245468088381   T   T   T
 20.8234127903183506 11.3150959369127584  5.0336958210606699   T   T   T
 -0.6800335162676562  0.7595096206046210 13.0843361787344108   T   T   T
 12.1526910921344182  7.7888314095392799 13.2797523615771311   T   T   T
 16.1416512429126087 -0.1052874350458644  1.2128159433927568   T   T   T
  4.2738104185536061  7.8279026873904298  1.0006077215259530   T   T   T
  7.8146393360102158  0.4556949399551832  7.0995881667964973   T   T   T
 19.9877210639184000  7.6771150076146011  7.7048116151072703   T   T   T
 25.0567248809567573  1.4136477661967026  1.4217679067393341   T   T   T
 13.0328087754511905  8.1912797011036584  1.3109082839590431   T   T   T
 16.0087062862403897  0.8312678650919124  7.7264140160513008   T   T   T
  3.3457985332732272  8.1727902132614325  7.9672990731530922   T   T   T
  7.6040481557252804  0.5816096344756774 13.6024331184009277   T   T   T
 20.3676037938919592  8.0462910398418543 14.0822742384459083   T   T   T
 21.2694872129588646  9.4340657149137961 11.0474444389424349   T   T   T
  8.7029452539449963  2.1824716553213457 11.0857634739844340   T   T   T
 12.1733510632899176  7.8435452523536204 17.6567093832612372   T   T   T
  5.0548192035098971  1.1688894537652377 19.0200916966402289   T   T   T
  4.8858794084129249  9.6764375124745623  5.3251579107212503   T   T   T