Li P  S  Cl
 1.0000000000000000
    25.1819793006824639    0.0000000000000000    0.0000000000000015
    -0.0000000000000009   14.5388225279766061    0.0000000000000009
     0.0000000000000000    0.0000000000000000   37.2126966544236950
 Li  P   S   Cl 
 288  48 240  48
Cartesian
  0.9405179639297129  1.8718223758649546  7.1685788956907839
 13.7015984397942105  9.3317963964993957  6.1423772397465521
 17.9429497614213780  2.5271157947029237 11.8158618671122841
  5.0189574708071447  9.0103017565285697 12.7169069266594654
  8.6866037176473760  2.5920965941887713  0.7162324851332003
 22.6268785399525498  9.3939481358847665  0.8208521967769643
  0.0168467577478730  4.3020666814541997  9.2445043506098248
 12.8303919836748417 11.6307863801078977  8.8588233328417747
 16.7438638494723797  4.8793147407648485 14.8334733031084305
  4.2571215878322368 12.0334587646590183 15.4841536830835995
  8.5246758808847254  4.4716844417968886  3.4291155008477658
 21.6670954613368103 11.5818356620106950  3.1055193907467258
  2.5929264243423593  5.4905259996943201  9.4245804552988588
 15.5357796553374072 13.1636874524062275  9.1496645254040967
 20.3817037391718223  5.3278147638963569 15.2435694950737464
  8.1738082594186796 11.7138496806331833 15.2051379253910710
 12.1850734096894833  5.4674452844425732  2.8826780392986358
 24.9429287627945051 12.7323401161846732  3.1208063009366009
  4.2016123281698317  3.4508619109830891  6.8903090646079725
 17.1591060729084148 10.7004899041024277  6.8793153125470683
 20.8587795480417704  3.1285816848627723 13.3753332892851535
  8.1950335778156447 10.0397489217892861 13.0258795938157981
 12.3090385746247968  2.5731559830973301  1.6420264001348859
 25.5552250129440175 10.1686778589434272  1.0830784062846786
  3.2695534390108540  2.1864081478471507  9.5768940196358905
 15.4783392989514947  9.0886969238018818  9.0843660752998243
 17.9620880065717188  2.0676840539118730 15.6839292694647128
  5.6294578051382098  9.1590309938320686 15.4260886182221721
 10.1866690433324969  2.2172852525644835  3.6605864370244716
 24.4043867222945039  9.5300510297380399  3.3835064472946614
  1.2091432475819128  5.4178405600952990  6.7533891194131010
 13.7849330518036393 12.8025388414703407  6.6516151610849450
 18.1025103498109701  5.8395052037685717 12.7119645002968049
  5.4902911084440582 12.9353854074392025 13.0385084258404831
  9.5188595097505928  6.1522564592554376  1.2271939216072192
 23.1182086722058955 13.4270297446329554  0.7373001622761773
 23.5848952574039501 13.0858801436214325 12.8453538997348176
 11.5991788978557473  5.9884770680078070 12.5786793301935802
 15.9318630125950218 13.2497641109586262  0.4543361434264264
  2.3410030659187480  4.1255507099831341 -0.9286486186158263
  7.1171018717973453 12.3689406883834039  6.7324519119184734
 20.0814305735862071  5.2108770867331238  7.2615494833071281
 23.0742028764075080  1.0702784980696838 15.3479328426079498
 10.4494087249113488  8.4415713145414131 15.4162515386825696
 14.7108532175390625 -0.2707169701021642  2.9801854908869747
  2.0917579418543562  7.8308132734221969  2.9317406167019828
  6.4531771575760244 -0.5074561675311817  9.4806618120422055
 18.9524736378102254  7.8862631244672530  8.8169800279481567
  1.7076697007752468  1.2402998349337839 15.8178158648395222
 14.0539533667753513  9.1706479062914887 15.3648653016891661
 17.6369072465946957  2.1157767165047341  2.7428639999393978
  5.5743747070470775  9.3079446333645670  3.3330389156458633
  9.4364901190971633  1.3362241775465939  9.4551589449818056
 21.5923578757303574  9.2778325267097426  9.3607870588912512
  1.7124471139280797 -0.1163831328818555 13.0769244325387302
 14.7804824166370885  7.3652504004558477 13.1562287571424896
 19.2249223247888921 -0.6334770646138985  0.7323497153100011
  6.2646788407316265  6.6214503815254417  1.8311038498162455
  9.8897059863059873 -0.3297951372459437  6.6331388397269633
 23.1726603848244750  7.4115856437040915  6.9548750144650517
 -0.8401797327950400 12.9280239925114717 15.9334693708836781
 12.3259601221052755  6.0538313640704740 16.0199148758924466
 17.5488717327389914 13.5429175006581328  3.3162474632654981
  4.3247242079379085  5.9528752522991359  3.7398596361009306
  8.8225774641630110 12.3314071209171008  9.2788011594069921
 22.0201787814262921  5.9266219433399359  9.3674089050700928
 24.0405363412766206  2.2197695032304221 12.9929070223646796
 11.6661556012447054  9.4764927438335356 13.1009304616197788
 15.1809741200479067  1.9725894084835462  0.3737563520605583
  3.8311553446410453  9.7922870727296054  0.7684203266780006
  7.0944985839958195  1.6772169604829081  7.5041404643846672
 20.2078885332931790  9.1037477226529600  6.8907106483652703
  1.2897724375195541  9.6119999777934115  6.5217122741372098
 13.5713212725897900  1.6763165132608024  6.2081665454299060
 18.0871436045290253  9.5851237173748434 12.1753379906954198
  5.2816244839157092  1.7629822672103452 13.1010931899571226
  9.4298559538582349  8.9771059779643299  0.4168520421511710
 22.4522403574282912  1.5483173587266716 -0.2278327878196044
 -0.0701720382150739 11.1082082630734114  9.2957971336872092
 12.7826579033162666  4.2992191073034647  8.8452848799075383
 16.6699184052444238 12.0080784666043385 15.2211060346156533
  4.4561671791437156  4.8969031344728764 15.1885934212722074
  8.5941759819658294 11.2023832526260048  3.2365931661389946
 21.0229688717363210  3.6917406130120298  3.0213429968026082
  2.1362113971506118 13.0813987998123302  9.2845883343832458
 15.4324463399322109  5.3175813568237684  9.1013279469018098
 20.6003834065329379 12.1836986913619274 15.2499345343246784
  8.5316846488099056  5.1163024904362713 15.4541080252800320
 11.7515198993823180 12.6333979304932598  2.7439830788650732
 24.5753566173289819  5.1555705410404009  3.2360577099360870
  4.3600656162971578 10.9867556918787930  7.3530010279157336
 16.8640483686134637  3.4748182175323929  6.9415584732501854
 21.0725387852736858 10.9733895389702383 12.9193198176821298
  8.4918508440560743  3.3131354284952188 13.1396915305446953
 12.3219983251542970  9.9078194296517168  1.2882788582540026
 25.1024252029156720  2.8343587666812136  0.9783449348696982
  2.1268914813406363  9.2225730068849252  9.5655401679968222
 14.6701650050852965  1.9027360327250102  9.0788860119782715
 18.0475008750573060  9.4482264241995129 15.6648215912028324
  5.5046724727010625  2.0469715176657406 15.9260909728750359
 10.8606940771217548  9.2966043101696929  3.2813055896699823
 23.5974535439812527  2.2222697218269407  3.4457854979070373
  0.9229847245654130 12.9192422886670784  6.8283390234422594
 13.5112108559945394  5.8725425671301901  6.7386838714515767
 18.2248740737035675 13.1833204683962286 13.1198085520696157
  5.6195916783482147  5.4995424782919589 12.6588651443307771
  9.8977404100866693 13.4212356890079416  0.7724874676560516
 22.5808051240643302  6.4027821579951825  0.7050592410834847
 20.1799326831348083 12.9989043604761569  6.1802474828272942
  7.2878884497492882  5.1999978349051919  6.9121562684206452
 11.4515203574725071 12.6821764629419693 13.0039128514448468
 24.1911056778796691  5.3907511554842706 12.9923942022427958
  4.0789842486420085 12.7649843503756841  0.3709932532791033
 16.4565461226288470  4.8500889148432949  1.4422804226956094
 18.8547447959656225 -0.1670599169116588  8.9753619146800894
  6.7509946414757342  7.8431439896838082  8.9106759784065570
 10.4581369262373531  0.8390209238801104 15.0591646889127926
 23.0215151546727839  8.4338241440238466 15.1005743012129194
  2.4102958420605800  0.8983594577803283  3.0123617204408677
 15.1041601576867208  7.6430413606525693  2.8881223350232257
 21.0581908759944554  1.8878129805996098  9.4193592793227516
  9.9505033786403505  8.2860318239507986  9.1968550951402275
 13.9155367519141659  1.8283972497529768 15.1058249346731408
  1.5319286748937355  8.8487540008151857 14.9257465195339094
  6.1915349071930477  2.0167075041345468  3.1393970357751759
 18.3363861049412584  9.4664682438561858  2.1057270067405636
 23.2572360156299354  0.0308311680192805  7.3021247501033804
 10.7186700433360933  6.6873915703064259  6.7874011944059571
 14.6355855028523116 -0.0352686993026817 13.0180178616831856
  2.0611929219105694  6.4790726532279139 13.6406893201445598
  6.3234357796914340 -0.7428872040743337  1.7321177102962833
 18.7716277413976727  6.1307981912724943  0.5147813112517245
 21.3235845918870766 12.9513562781987286  9.1526330151933308
  8.3256390309377561  5.0404277921657625  9.4735267129823466
 12.5918735572719864 13.4615026219370915 16.0803364042493406
 -0.5762107179812777  5.7245686276028094 15.9125687994004608
  4.0824807492769661 12.9848223407608181  3.5558479766718567
 18.4132687924865621  6.3922306631378660  3.1900386505787646
 19.8402767194600500  2.2546114781822841  6.6863222092219363
  7.6593393168390831  8.6942841122083365  6.6681354479518253
 11.6926984728378418  2.2804721607341842 12.7505597477643988
 24.5866343130451064  8.8242615928563257 12.3050315412616538
  3.8151358605575267  2.7254337890462783  1.3738338034053412
 15.7902924379650074  9.7040432720875547 -0.1617928098123504
  5.1538809719404535  1.9852539018342261 30.0910267906817381
 17.8319835622226464  8.9923290072767674 30.2643073552535782
 22.4792081060828757  1.1328949001533404 24.6999446099341426
  9.7872943421764393  9.1755016445620594 24.0062931191695164
 12.2485044881664358  0.9960491655643833 36.0709280311363401
  0.2694837578102122  8.1931686409932851 36.0620666491828743
  4.5570454755614263 14.0909780701419027 28.0914008128559374
 17.9450693697474648  6.1589005308022662 27.7616200362092478
 21.5936302317816171 13.2698800644213186 21.9220875199491410
  8.5926426069532091  6.4490082920170630 22.2268138443814536
 12.6134849469367012 13.4110396411081947 34.0218107982568085
  0.1330255762205733  5.7853761199219642 33.9635878613565012
  7.6318312632750258 12.8083818543177657 28.2536535218401461
 20.8370756968693236  5.9270974117111548 28.0687494040199788
 24.7609601775996317 12.9137208494194748 21.7222747353207488
 11.2978026268383331  5.0521533035136521 21.8934687928506690
 15.8854257774433467 12.8097297892873261 34.3493106030763258
  3.9455718794187082  5.4486765417452476 34.3137635123476699
  8.5240754977908804  0.1008223518695380 30.3633190114479028
 21.3866858288226496  7.2836340899455001 30.2912914605627712
 25.7896510856510908 14.7760956812868098 23.9784600631093099
 12.3543259321577956  7.1496123288904414 25.3562712621232542
 17.3845439614045887 15.5702531292518405 36.1189136109533848
  4.2102547561297481  6.8465816175417036 37.0692936390442753
  7.7045799788057536  1.3187631173890992 27.8478659764489507
 20.1909263560068588  8.6509415578663216 28.0405301692061890
 22.5554737303776847  1.6860939492732230 22.1691059794672825
 12.7110112816612073  8.0855792145279288 22.1818691386439752
 14.8729050118532378  1.9652841574945223 34.1155841248896934
  3.0106480838619905  8.7509766806645448 34.3612462258141491
  5.5724971343656868 13.2256765768837532 31.0086943453538133
 17.7625919491189457  5.4043863582607301 30.5611588623803954
 22.7547470625443324 12.6747244537016055 24.6418084448081558
  9.4549958911214951  5.1320027591233890 24.5928584857862447
 12.8406555679194341 12.3795294211007949 36.5254604314867990
  0.1483928905677671  5.7185995850234681 36.7775267865908404
  2.8661355998906992  5.1263368052563489 24.2099510308693766
 15.7284749225018992 12.3751957390585829 24.2017164623188350
 18.8510378568704695  4.4905800631573154 34.9722115213256615
  6.3787563816394792 12.1716494566693196 35.7943537381975929
 11.4759955678726957  5.8464424839720657 30.1385044971510112
 24.0647141389166102 12.6265468069426809 30.0977645278425712
  2.2082828344483874  2.4643737783699313 22.2822732849556964
 15.6717200559077376 10.0540466311858019 21.6892200918701263
 19.2134412603557223  1.9896774010718981 33.9226214830145452
  6.2345632869661065  9.5462635325259804 33.9964847764009050
 10.7624163842002787  3.9606251499733700 28.2465464856021917
 23.3344225190608370 10.5366012650320258 28.0188445054612387
  4.3785765859763286  0.9763736926787123 22.0783464910497393
 18.5376747732446958  9.4571057838969992 22.1819992679517313
 22.4652408587572410  1.6139882204664842 34.0049356791492770
  9.6383115994771789  8.9446815535364141 34.1115598343997632
 13.0445569962796064  1.7468299855474769 28.2529918088978533
  1.3132277221452167  9.0710452130415007 28.2682744674448259
  6.4142565887233367  3.7061330518749060 24.1101014741630770
 19.2137431923232391 10.8934133059282594 24.3376373328722444
 22.9130835451700570  4.2686055009980786 36.1079804870166541
 10.4662945228698394 11.3476414899341407 36.2256769490625814
 14.6946773372458885  3.9860967162113150 30.3905083434264185
  2.4515857122329141 10.6155455362619726 30.6006375227120913
  4.3577809950547559  4.7031053060907082 21.5771058023403270
 17.4354293595409438 12.7347464424175012 21.7562616763824828
 21.5585901464933265  5.1131876053065053 33.9152690249103657
  9.1576122589903139 12.2281643208219357 33.9666187018555021
 14.6086835967039228  4.9708068283995415 27.9544291897655803
  1.7261080897133918 12.0304596210913992 27.9271651240010499
  3.5696683702545831  2.0607401330079620 25.5054758638646923
 15.9090157631099700  9.0383354860420315 24.3141806873902553
 19.8982864971431859  3.0632048466369488 37.5318997963869165
  6.8532499982425161  9.2905985425940418 36.7022416570387620
 11.7781988894687650  2.1534900383097519 31.0557970130221648
 24.3121849603368752  9.0291238048499469 30.8449999931976357
  5.2143554111382038  9.1910219241431239 30.1321635659163292
 17.9749738747045633  1.8034392626437352 29.9382682198386050
 21.7118976273813331  9.2748376066113032 24.1418375095858728
  8.7812455859586720  1.7559114194266907 23.6727069810976509
 12.4409796228481468  8.0661796287454575 35.9599052108459816
  0.4145064074998735  0.9358954378178597 35.7315913097391586
  4.7144202132559165  6.4929659725842646 27.7234780427639471
 17.5982501322165881 13.4289252150589906 27.4433736900109331
 21.9158972156862220  6.5092533158824120 21.8499738217045945
  8.8402970256608242 13.2424850113723380 21.7541200207664751
 12.4826094658250373  6.5245050093192489 33.8361144525727227
  0.3185054559370328 13.4562308172135925 33.6980605484558424
  7.8106055762495465  5.7515014553154691 28.0442750974538910
 20.4851629588670576 12.7412701333444751 27.7207397742946462
 24.8477492576183607  5.6691782713564542 22.3514017723585638
 11.8183715703686740 13.1139863851459886 21.7360064650048059
 15.4215478133437465  4.9626496739862214 33.9137356612495680
  3.3037179109542469 12.2304928119439609 34.4134124910141992
  8.6763458333835057  7.2392299800247617 30.2557142343287602
 21.2525602789713979 14.1138561430669149 30.2867202522706549
 25.9332771270019755  7.3873431930420326 24.1735671647724288
 12.1571304052792257 14.3624180732230577 25.1196818010825247
 16.4250814920192845  6.2768882490911029 36.2252484589349706
  4.0313783161411676 15.0860698624083067 36.4185394386678212
  7.6515610972778356  8.7728192192412795 27.7307497538256378
 20.3592988378147055  1.4970881191921528 27.9462376078194872
 24.0195299087050742  8.7102907529026403 21.7853650276518209
 12.5769771180120138  1.1311521152444248 22.6437964991574141
 15.5683500160415207  9.0845163017327053 34.1461294001125424
  2.9162951132488977  1.5797838728389164 34.0672606994098288
  5.3336798619337324  5.1481324304449005 30.2456780091535755
 17.9480319241294914 12.7208403057995234 30.1172930595127255
 22.3421081337448904  5.6233693510459322 25.0788510262752453
  9.4906231918112898 12.3464422277444665 24.1201370639100361
 13.1636926815383859  5.5949765355134797 36.4329546928570096
  0.6380415281801660 12.8802763154195432 36.6485117999754380
 24.3422066768650822  5.6142597994368124 30.3072020207832047
 11.5384155448133043 13.2169912939890679 30.3266446076018035
 15.4923012559487656  5.5665089098142184 24.0000754863574848
  3.1846155632243915 12.5739379706611132 23.5755181234632651
  6.9134827191453860  4.8832496614212282 36.1077192817470376
 18.8370926008877255 12.0431359699253946 35.6442084359972924
 23.2182608768267755  4.3737908820617264 28.0323824259629255
 10.7703973271502456 11.3816725520899560 28.1232140043060070
 15.7422117827235883  2.3930345186310045 21.3584319005290588
  2.7945642771305437  9.7404777382623386 22.0165345754855259
  6.1878505879736982  2.4095903708082669 34.0310231127050642
 19.0669108411741242  9.8694942527324478 33.8753377138854077
  0.9033742152038693  1.8539753099696292 28.0867449124741668
 13.7287336529666639  9.2213086753995057 27.8440134149489289
 18.5903101408838225  2.4336876814352109 21.9199181814013428
  5.4040815734616183  8.8764002710819074 21.9777444959437460
  9.4064114090632156  0.9263033602898181 34.4656286142067358
 22.3001690084913271  8.6296746984232335 34.6242153058437481
  2.2692912467771928  3.4031710134267299 30.4081875310654866
 14.5511232550479619 11.1127759340659917 30.7149639263441649
 19.2095312396311613  3.8728643656210586 24.0237726412269588
  6.6522681692239773 10.7109884433175946 24.2248942826999105
 10.6076697143975309  4.4104161963283781 36.5329777235404194
 23.1977807673497551 11.7003680506685672 35.4114309741527578
  1.6279895616784394  4.8095096127452601 28.1556303509563861
 14.5481882899004678 12.2185840725473209 27.9125520990966507
 17.3335296609854872  5.0563955070773536 21.5709254896389133
  6.1133536411667890 11.9570961572146732 21.6727747305784746
  9.4080527993692105  5.0596740065569286 33.9043293492389921
 21.0842696939722458 12.7445904419541911 33.9631293266312397
 23.6750703596820742  1.8526655280297204 29.7187575464777822
 11.6357676290767049  9.3847859420783326 30.6751034632660868
 15.6991674598121005  1.9310206727097288 24.4375033456493398
  3.3642536068440059  9.3251857355040642 25.0323928639594619
  6.3374243936539321  2.2712346582128289 36.5963713993853617
 19.4318876717742448  9.2244504201389681 36.6350681338528972
  0.0991821230928644  0.2221435653701168  0.9735767794457159
 11.6659398416662352  7.3317903453877831  0.9184885584173217
 16.8509713517718787  0.1596102785223900  6.1912211414094136
  4.2731156177048408  7.5636401895281082  6.4297986762915711
  8.5312282093760761 -0.2070174772639389 12.4334527265064967
 21.0705053240770255  7.5590000828158592 12.3124789064650333
 23.1082657943525476 11.0277941847841436  6.2236513572672081
 10.3230601154953767  3.4479322399894321  6.2710523500268742
 14.7356775116982828 11.2560153532607110 12.0398018899180901
  2.2223804391977091  3.7311885574169272 12.3371089532537628
  6.0738846223981238 11.1687603499507713  0.9206884233932602
 17.1702331736328055  3.4219285143117397 -0.6727767273765963
  4.0795718648109238  0.1167802418925268  6.4550292112569672
 16.9096696776690223  7.1251632997812635  6.1063632766223721
 20.8393265214880863  0.2976214694521795 12.2051131129788217
  8.3456837263373114  7.2335935824227340 12.2270524438377421
 12.2112073987148317 -0.0356549345486920  0.9606231481889729
 -0.5330667403825804  7.7068152686954807  1.0562766917144812
 23.0760802951509625  3.7748476953552177  6.2650803731540838
 10.4843282258665305 10.7612704865665627  6.3634522351274185
 14.5391628654421066  3.9397459784559312 12.1449989400506126
  1.7647897407841640 11.1213977285322514 12.3265046220183869
  5.8097749705482391  4.0016588538543383  0.8884446162666899
 18.7094576785789428 11.4198486697394301  0.7502085177272291
  4.0742996768929434  2.9219245656766382 18.8573988435389381
 16.6673529203697264 10.9302184936864819 18.7955788151779295
 20.9829978293876493  3.5254057278147632 30.9216862294954495
  8.4554976780659885 10.7491596088041383 30.9785516928944560
 12.7464809964276178  3.5398825280738038 25.0174372574180310
 25.3399110984809965 10.8445267311747990 25.0350848278712625
  2.2378693664003144  7.0037248301115698 31.1186288905987745
 14.5281497581816446 14.6472940008323782 31.1057069254184597
 18.9665982961261896  7.3280841707358277 24.9116613490523235
  6.1724255672575739 14.2655348581140693 24.8933889833222857
 10.3787717784141087  6.5233979507581727 18.9304260627067080
 22.8641605224873210 13.9687424976346630 18.9222127140362666
  8.3847460989739488  3.5305477139214223 30.9782906257309314
 20.9729809243563459 10.7223845389722481 31.1436514289948754
 25.2156580237287713  3.3860309488564906 24.9640671288076526
 12.5811343231088451 10.8470064385096681 24.7754422706557982
 16.7422168910017213  3.4492503938508139 18.7605813062564302
  3.8493312712796284 10.1131854251659696 19.0079193311465779
  2.2056908566428879 -0.1182018206240566 30.9609841874747254
 14.6273131973727111  7.4397908803817083 31.0030629208444743
 19.1578857407542884 14.4907725795158715 24.6748126908879861
  6.2998114295723617  7.2083296209129086 24.8706554276368870
 10.4557985166191543 14.1826883945420885 18.9963920818793639
 23.0688119134305758  6.7609627909071719 19.0331851293118390
  4.0128188653881294  0.2147177129010658  8.4625858584849194
 16.7482880128490699  7.2384687454508141  8.1241720009331750
 20.6616650274733296  0.4956775172046123 14.2095584247617062
  8.1867482421592630  7.4536971217439829 14.2717098740765120
 12.4573325561355350  0.5535697942674289  2.9496741392499586
 -0.0812083103670896  7.2845859771655341  3.0238227408904805
 22.0899313063548171  1.8195353643079599 11.3712899211587448
  9.6254984729655764  8.7062613369810400 11.6143582155292329
 13.8343509412911470  1.0889413098437839 18.5017753174965804
  1.4955932786731989  7.2106967508584399 18.8885487424061083
  5.2302708139784393  1.5909548699309166  5.5648683211035754
 17.9341738721470882  8.8448599683255171  5.5742622016574108
 22.0863382097809442  5.9154871871422792 11.8505190114783456
  9.3005922039794573 12.5602749632787170 11.6355935498454883
 14.1930602325169808  6.3941959564719593 17.7259055936626098
  1.0979943291734382 13.4789861380504092 17.6454581179178973
  5.2038458395268776  5.7450034462295099  5.8516249640717648
 17.8433255759753209 13.0591911257338182  5.6947800292559512
  6.6075494953606473  0.2807241812791484 11.7773207476412178
 19.2154894637453921  7.5090696540681545 11.3794192424267813
 22.3768740634636281 -0.7613780040974474 17.0524418048008748
 10.1435757412355816  6.5991900266503443 16.8856624302634266
 14.9994978855408885  0.0426743726342806  5.4249991880052137
  2.3951647910634000  7.5278645937432911  5.6362754950321081
  2.1984852823398269  3.6185489834606037  8.1937382042090388
 14.7695246943958605 10.8796250611124066  7.7026951089747913
 18.7584958845034322  3.8277827744588730 13.7520845943263765
  6.0258696671295215 10.8984813558342619 13.8546123952346889
 10.2841773412910644  3.9530041703162677  1.7141372917997739
 23.6976047462372854 11.3039450454427950  1.8200909143469397
 22.8871445065694274  3.7408244357841887  8.3296593887738268
 10.6162061909241014 10.9512104342271410  8.4167807721064580
 14.5001276264288279  3.9937966663132185 14.1859865243206507
  1.6820555061423506 11.3025702556355352 14.3640154643218239
  6.2057892736253173  4.4291448620233824  2.9238378287936690
 19.4406331144758902 12.0831911492392745  2.6495917541888012
  2.8862002687332602 12.7338336939771555 11.5802818971015906
 15.6714520365759231  5.5076976479707138 11.5929121871047496
 19.8682572994299989 11.4140633578852668 17.9303717736439197
  7.6266956744916374  3.8256496189097096 18.6158994625481427
 11.4424617850852055 12.4143733860436036  5.4171646309613539
 24.2767055069004272  5.3401157388883407  5.7176266674925031
  3.2171175193824704  1.9549117720808289 11.9932428065634653
 15.5231128047564351  9.3322222137188078 11.5180258079397895
 20.2196973754259410  3.2035834303892430 16.5906409363109084
  7.5765662469181230 10.2250846312001880 17.2194980821475916
 11.2465113309138527  1.5826916839884790  5.7687221667563229
 24.1602235072508584  9.3677615234635283  5.7500487283018344
  0.2167980553213643  3.6137479725828916 11.6244691625536269
 12.7441926372882062 11.3745835684915839 11.3119606504598362
 16.1396357459941520  3.2140300142218106 16.9434335205539917
  3.3372201694564190 10.2187442647330471 16.9583532028722956
  8.4291060562915003  3.3368688719620416  5.4770407294629262
 21.2694054683942895 10.9390428011671492  5.4193147314183916
 -0.3402984373693425 -0.1193482789120874 14.2634067915711018
 12.6909299621799327  7.5309494730432149 14.2390361018867697
 16.7024318230966315  0.3966376954135987  1.6339367119195893
  4.2391949054801454  7.8810783592444915  1.9121127054825020
  8.1504746413103497 -0.2183656605473995  8.0541679086263684
 21.0629091559244586  7.2377463174772148  7.8426772017907247
 25.2220364959712384  0.5757412709051896  3.0025745384833264
 12.7116702285768071  7.7487765826687980  2.9141752994403300
 16.7846874031027689  0.4527481485113326  8.1958913199392160
  4.0895261556762419  7.5207774320800134  8.4931015252756321
  8.3285728836713950 -0.2263092837536177 14.4640304127668760
 20.9833652359775336  7.7123168450515154 14.3647522431831032
 22.1547765148101128  9.2430983945979310 11.6020234408122018
  9.6221374031317648  1.4726127944603282 11.7924739527986500
 13.7125114784639930  8.0320300239166134 18.6570051675269646
  1.0584042338229853  0.5917388880758796 18.6938834652902344
  5.2895309492120752  9.1698102133288497  5.6848311203302853
 17.7488554435620109  1.9046808519606631  5.4754582463204473
 21.5203601758945027 12.9395522746168599 11.5637393891928379
  9.1534871595755867  5.3596417425708669 11.7754899404630660
 14.5543587727660384 13.9349495339356633 17.6958724430051575
  1.3724433870692676  5.6440218271362737 17.7679137232409374
  4.7672457372293895 12.7788670877799895  5.7225139979159350
 17.9321123817483965  5.5464514685622728  5.5028754920076919
  2.2200625344653568  0.1888907103929978  5.7094527999628770
 14.9771276425830155  7.2741394320105126  5.3049660229031490
 18.9521187229040180  0.2817207513405734 11.3101223688748558
  6.4862509900507019  7.3536216448643499 11.3950591033339652
 10.2520297893588275 -0.3943106235410963 17.0557260554144356
 22.5645977929419175  6.8115163243538506 17.1010912339183605
  2.0701460321021887 11.0679314421733856  7.9616477010738871
 14.4507739006063201  3.6580352410874197  7.6447102562591303
 18.7328722724529584 11.0806367252833553 13.9797519353318727
  6.3232401514398049  3.7345397285286848 14.3606983211014541
 10.3130812751029044 11.0195681195586754  1.4831081157119717
 23.0903600001533817  3.7967633340642686  1.5361754219932275
 22.9845837208072332 11.1767587081641135  8.2574138378890449
 10.3441753753142756  3.7527788510404232  8.2914366538072741
 14.6765654209610741 11.2184682686871646 14.1226009112002853
  2.1254173023055438  4.0542763065140059 14.3802889640303686
  6.1969404297676611 11.7054821909872526  2.9125789906012072
 18.8948715231971889  4.1265383151185624  2.1126634215654723
 24.1131765377333913 12.6728525315235423  5.4619332161533363
 11.2250597846743485  4.9877095618342127  5.1618878817349563
 15.8577338183990584 12.8633080537855573 11.3590069143521166
  3.3604937733913043  5.2365556347775426 11.6239068680313622
  6.5394604996692030 11.9024021791029817 17.6134995446454568
 20.0830475633805889  3.8840879946956615 18.4043420584693642
 23.9329203512978665  2.0491845278957563  5.7650079622883457
 11.3972993977239643  9.0296749260360745  5.6990294673045661
 15.3715791870231691  2.1600412044032606 11.5573625533026441
  2.5129804894363286  9.2103837118033827 11.8545803224980180
  8.0799836917368459  2.0058625842445097 18.1534000710110917
 19.6822325133531244  9.5780360519465724 17.4122511873624788
 -0.0971631708459089 11.2589777390993806 11.5642161984286478
 12.6973987172890350  4.1458385625717176 11.3387366344584724
 16.1765076570978188 10.4130364734491518 16.8940908277551181
  3.5970042308153709  3.0476710887425704 16.8790817667244148
  8.6332912609780745 10.5874726252716727  5.5309532312496801
 21.2229550673045573  3.8088588720675918  5.2633376294302243
 20.9758139096093110  0.1975070033842764  7.6578486617399424
  8.6494740813124071  6.8398635481853809  7.8054680308804247
 12.5744604046581951  0.3635695296671995 14.0595186452833207
 25.1210086534380181  7.2820601156690756 14.1068113700536468
  4.1023548617036409  0.2818292258645134  1.6538656900028521
 17.0187459572359110  7.4753949350181692  1.5729140152555114
  8.3962390049621209  3.4362705540132175 28.9034945949690680
 21.1640642209106744 10.7898067622437139 29.0342838970915231
 24.9573949786800391  3.2323079316671293 22.8615049545880389
 12.7134749963306835 10.7638906872918234 22.6971760447584217
 16.7791298767259427  3.2669112740065587 34.4688180718964077
  4.3461931489427856 10.3416517285866991 35.4535212868999636
  1.0560661837958045  1.6499560019913984 25.6354741863079134
 13.5857768693152341  9.1667949613103197 25.5292290976305374
 17.5469697903949999  1.8720275312429346 19.6954697052728918
  4.6314471331713865  8.4393049339155954 19.7933231749196388
  9.4280557116947588  1.8795487168939886 31.8562691968426392
 22.0181140652270066  9.1408700995190468 31.8161183728143975
  0.9484111036296921 12.5262159420145007 25.6624607024536466
 13.7868556703944289  5.3096811733396745 25.6551705641965597
 18.0796470611060798 12.4822746660761972 18.7699759772484462
  5.5177036402214021  4.6142954505468845 18.9892757504183898
  9.4028268143297762 12.5195932536846648 31.6880313381772751
 21.8473380471537801  5.1040370453568489 31.7211327878298981
 10.8208253888449004  3.5274305355734934 25.9108140111563259
 23.3956089647090195 10.5997119411900211 25.5894985138097475
  2.6446714494124657  3.6783614864616117 20.1154253136437724
 15.1308064999760763 11.8242998200051357 19.7836751800247228
 19.0479245805655211  3.2614874372865628 31.4330865414985006
  6.5667193078128578 10.7903460415945798 31.6202611792542960
  6.4730210673223745  0.0302452429137886 29.3743461101605376
 19.1401006300953718  7.2188707413025472 29.4173892994119370
 23.6217460712888538 14.2936155062414301 23.4289837784738673
 10.6007202008140737  7.0913824765079436 23.4047890500757241
 14.5656550780311154 14.3470413355151472 35.4860320648650927
  2.1110236308188708  6.4728940904159673 35.4867495364430070
  2.3060452997717511 14.6185332267090971 28.9568348561642424