Li P  S  Cl
 1.0000000000000000
    25.1819793006824639    0.0000000000000000    0.0000000000000015
    -0.0000000000000009   14.5388225279766061    0.0000000000000009
     0.0000000000000000    0.0000000000000000   37.2126966544236950
 Li  P   S   Cl 
 288  48 240  48
Selective dynamics
Cartesian
  0.1810650510046465 -0.8776307508212944 11.5068407295603823   T   T   T
 15.4111967338715914  9.9972754749410946  8.2772926922782428   T   T   T
 17.7870551254335005  5.2481425530931736 12.0681491280510294   T   T   T
  8.3030633826883964 12.3553927244055402 12.3540929388320588   T   T   T
  9.9997062114907695  6.3826239391388508 -0.5285434496761497   T   T   T
 21.3690861964997119  6.4849493953760025  1.3427491354945023   T   T   T
  2.3895601714227155  6.2438559384747796  8.1456526777699700   T   T   T
 10.3489310362444886 17.0989050546127217 12.5375550114583802   T   T   T
 18.6348043397068572  2.0892430641408728 13.6142806444652624   T   T   T
  0.3290128485006018  9.7529568227462473 14.1215513426857235   T   T   T
  3.8531232067818237  3.2936424134914333 -2.2968880606325501   T   T   T
 22.3434967095519745 10.1881090827625904  2.7167738952092702   T   T   T
  2.0330907545975503  1.9035060988034471 13.2132429786314667   T   T   T
 12.9534168829096892 13.4283190605730773  6.1378411918660634   T   T   T
 13.1089963292317027  8.9043414667900898 11.2273036134673134   T   T   T
  4.8445240213843066 10.9477912792229120 19.8474696139652487   T   T   T
  8.1157900775253733  9.0146356370489187 -0.2698795438799875   T   T   T
 28.0825320618576590 12.4877998420038008 -2.3461373670401642   T   T   T
  6.4121231068578988  3.2011999065368024 10.5135463891755148   T   T   T
 13.0697503063123985 10.0335129741964000  5.8499798066236934   T   T   T
 20.8101155869215546  4.1017741766174991 13.0310820611359848   T   T   T
  8.3138313928080851 10.3872094996422213 14.6789593022327551   T   T   T
 11.2586357078821226  3.5274132586589784  2.7683357964703452   T   T   T
 25.6580406196112669 11.3155029725668381 -0.2744749925519401   T   T   T
  0.0361589255425273  4.9630873442708321  8.4186181167254990   T   T   T
 12.7519440103348209 16.5615666907986281 10.5048256049969524   T   T   T
 20.8713864345252489  4.1490339556321763 15.7539391753251667   T   T   T
  5.8050532112748359 10.3096880681806127 15.7055645922738805   T   T   T
 11.4804106011337037  2.8495778483552971 -0.6195377660237399   T   T   T
 25.0212932691892185 10.6444772425373930  2.6124690784826554   T   T   T
  2.7275748116967478  2.1151634155283441  8.8841466328562984   T   T   T
 16.1193364245629596 11.6942649931191056  5.0128972871307083   T   T   T
 19.6110692784362044  6.6360706392871140 15.1984248940589985   T   T   T
  4.9382342411392184 13.5622865803241766 12.6608939345397324   T   T   T
  5.3528585752452935  7.7777859686482076 -0.3445929917258532   T   T   T
 15.8376674633853547 18.8001086973636262 -6.8234148415154632   T   T   T
 24.3729601156173672 11.2722052972794824 16.9477630198178026   T   T   T
 13.3470530210609226 10.3903604935125156 14.5448277643299484   T   T   T
  9.9346472097835878 11.8567028777910721 -0.6237128309397389   T   T   T
  2.2704249127437697  6.9142399766480347  2.5421021823979406   T   T   T
  6.9350752601416223 13.3095088379453852  7.8141655091213122   T   T   T
 18.7043421043685925 10.4204234606322892 10.8253246562840477   T   T   T
 21.6844524015170883 -5.8509334793585266 17.1988543857072500   T   T   T
  9.8980780327590594  8.1337823489700174  8.3796998576837467   T   T   T
 20.3563459356793963  1.8955716698121146  0.1944706785645577   T   T   T
  2.8847994701340491  9.7332725294247240  3.2693517039952744   T   T   T
  5.5515986620356195  6.7038742903978985 13.1817451799547101   T   T   T
 19.5003562264557537  7.3418520864256260  9.3333338327142847   T   T   T
 -0.7396602467364317  1.8532248717076598 10.9959598582850475   T   T   T
 10.8581995122715291  3.8574408431094378 17.9001135082736766   T   T   T
 14.6544672926446875  6.6602261646709184  7.5635339991998611   T   T   T
  2.3278469948993590  9.3618889050061735  7.6054125102983212   T   T   T
 11.7437709836690605 -1.0282844503637552 11.6696612637159696   T   T   T
 20.7188391332632165  5.3963908556270068  7.9707961788671051   T   T   T
 -0.8095990589129834  2.2001688054687563 15.4284018407714729   T   T   T
 15.7502395778137210  6.4817360040015606 18.4929180701321165   T   T   T
 18.4288267019347138  1.9686833045669403  2.9849031707044640   T   T   T
  8.4173861656244995  5.3203787183139841  8.6099569357784826   T   T   T
  9.8621822518181208 -0.3634127189053005  8.4237551935922390   T   T   T
 29.6528746709795747 11.6055750167848011  6.7267373197528588   T   T   T
 -5.5574158474378486 14.4000092587862589 17.6511331156024518   T   T   T
 14.9047820309781809  7.5443481376811210 13.7602752320027708   T   T   T
 16.3663301900231062 13.3123930096197025  0.8820838199173130   T   T   T
  5.4846399762956350  7.3575042563773501  2.9596060499461774   T   T   T
  8.9465454768066266 17.2223707144788136  8.1410399645820455   T   T   T
 23.3427091025921243  7.6971003823114561 14.8028869604130549   T   T   T
 23.4463826030024300 -0.8720315243165172 14.3394141491165428   T   T   T
 11.2531384541469581  9.9462929423567150 13.0358081835723176   T   T   T
 18.3811541970599706  0.3474879935827785 -1.0631384403818660   T   T   T
  9.2774764658134270  7.7241663697068024 -3.3226328091358917   T   T   T
  5.9830243322470587 -4.3096774099115169 12.0528161874097925   T   T   T
 19.8422412915175528  9.7069933983297183  6.6473872473093572   T   T   T
 -0.7220596893818876  8.8131833532632768 10.9887989081611828   T   T   T
  7.8315394313942557  2.7624120022842473 15.0158419402825221   T   T   T
 21.0721392409246278 11.6520590785661025 12.2218611708139235   T   T   T
  4.7131345137434231  3.2693307979530188 13.3494488169100496   T   T   T
 11.2136304143211696 10.4423675202617634  2.4376126594633809   T   T   T
 20.3460874777000029 -0.8492531778369641  1.9463242215884113   T   T   T
  2.3444363637150061 13.8314256705144061 14.0626918276808883   T   T   T
 12.9157360888363968  5.0163775646653370  8.8124214719704330   T   T   T
 15.1862831895139987 13.3796322393121638  8.2143071178129006   T   T   T
  8.2267627969871064  0.9921289216467649 18.4905755067435464   T   T   T
  8.3282899151460761  9.7192712100692855  2.8995078442496212   T   T   T
 23.3687068607600530  6.9857300333012251  6.8181739332629689   T   T   T
  0.8437676441374936 11.5918825358903064  5.1015911581078592   T   T   T
 13.5749426551520731  5.4461659837598351  5.4719600079325952   T   T   T
 16.8826028409632087 10.3110145603943053 13.0086588776968703   T   T   T
  8.0548272848678621  6.7392312396320433 15.0189044582321056   T   T   T
 12.5926662288556486 10.9186121981374828  8.5368557336947788   T   T   T
 26.5340614961267889  5.2978119520431948  5.2301308712806396   T   T   T
  0.0518042768145907 11.3771074556574447  8.9642149429829932   T   T   T
 13.7500663263399492  2.2004524482843753  6.4604021155857048   T   T   T
 16.7444454931162277  3.7869682486800413 15.0850289359011143   T   T   T
  8.4281889480436423  4.6555470593275396 12.6711659828422167   T   T   T
  3.6734689808931971  9.5365966137532325 -2.9158259770745869   T   T   T
 25.7497851642366413  2.5430331590944197  6.3733889278770546   T   T   T
  6.6906577078703249 17.2102508001761478  6.1873737824066408   T   T   T
 16.7102731273031537  4.6390274978410666  9.2091609734621205   T   T   T
 19.2884901736875705 10.0366904998744353 14.5457516594187339   T   T   T
  5.3583018074693589  3.7984776416629691 18.8694234271898793   T   T   T
  9.1054786494397799 13.1404516553757507  3.0261495190934879   T   T   T
 20.9408380664128906  4.0259498129768900  2.9784034899919698   T   T   T
  3.2703315095685861 12.9918749602705361  8.7361108184270009   T   T   T
 16.0528417055011339  4.2598167366745390  5.8352210516608549   T   T   T
 17.0994535646029249 13.0828539340150947 13.8914809076786483   T   T   T
  5.5226706376442651  5.1238446362776200 15.9686114413014781   T   T   T
 12.3133068424213725 16.7084044683771253 -3.2989535707356628   T   T   T
 29.1491326673959712  2.8280642180501592  3.0415847951263699   T   T   T
 18.7826516419933540 13.9857988848469290  7.1944224456095105   T   T   T
  6.8438911954383990  8.5491640644110767  8.7238326692995987   T   T   T
 11.2265951384242708  6.4693808913373889 12.4915979393595453   T   T   T
 23.1188099084908991  5.4825044586011762 18.6513744503627628   T   T   T
  3.8766203758190705 14.1301552650037827  2.8802775124829845   T   T   T
 15.0745529097909543  2.1201577204543378  2.8391095477482193   T   T   T
 22.6350163914258680  1.4428665760586425  8.6502761264590511   T   T   T
  7.1951115718133822  9.8156064697342149  6.0606915346199290   T   T   T
 13.2790387814347461 -0.6114584269623841 14.7459102733238829   T   T   T
 23.7521587538010017  5.7335361566826935 12.2113676475240585   T   T   T
  0.7924732322620609 -1.0777846907113384  6.6861479271036037   T   T   T
 13.4575256386219451  5.4789201672532135 -2.0585214345967988   T   T   T
 20.9862459962779582 -1.6525100114411668  8.4390794472112205   T   T   T
  9.4475962161379492  7.4877829019447351  4.8918095917613389   T   T   T
  3.7074488031893331  7.1888654416563753 17.6547045029641900   T   T   T
  3.7729234264493745  8.1648436585073068 23.1204764912386409   T   T   T
  6.9886836653139284 -0.0448744088394253  4.8202216667906876   T   T   T
 15.9060918032465803 10.0292925674670670  1.0284365421516530   T   T   T
 22.3483840105080453  0.5008736329601888  5.8476034282952121   T   T   T
  8.9040369689681125  2.9396612680877641  2.1173533458500891   T   T   T
 15.0293224198651707  0.9526776935418068 12.4058985945813998   T   T   T
  2.2798349629900678  7.8832170521234799 12.2755300856733136   T   T   T
  4.3591001586357931  5.0216938168042127  7.2402035776806413   T   T   T
 18.2326360060083168  9.3411013162515051  3.0530383340575864   T   T   T
 19.7257139679089128 16.9778450687032816  6.3571833038680845   T   T   T
  6.3287168790976462 -0.8724124742215039 15.3131027358458596   T   T   T
 17.8943766543389273 12.9919255376981670 10.6450043271722681   T   T   T
  1.0543134512263079  5.7749368111689385 14.7582046552491128   T   T   T
 10.2922977147223325 15.3503241964574890  5.4514556222365691   T   T   T
 20.0542729918784595  6.8095911642698503  5.4655395257880901   T   T   T
 19.7935109822346043  1.6850757974080961  9.4502383314216001   T   T   T
  6.7824922122822384  6.2220780500191655  5.5537439246460787   T   T   T
 12.7351590591321031  3.6322129776561671 13.5304320106523512   T   T   T
 19.7253504334779137 13.3954367255067002 14.6775044103590933   T   T   T
 -4.0122416579625586  2.7456676888883345 -3.5809592150270908   T   T   T
 13.2294344712629535  9.0416591805363140 -2.5691455665629683   T   T   T
  2.3747117428832758 12.6674127089108346 29.7074333877486154   T   T   T
 23.4691986360181915 -1.0074175799259704 24.5958016418433481   T   T   T
  2.0204360516813868 12.4380821434992299 23.0459796348513066   T   T   T
 16.8175218484702000  2.9694816379849840 25.0421838606070999   T   T   T
 22.0474793836488487  9.5253556658463481 36.6788153680053171   T   T   T
  1.6704117337877904  6.8079243818921933 34.0971473782421270   T   T   T
  9.8265204204758003  7.8800787379513970 29.9461292991243759   T   T   T
 20.9604418567107054  2.1046180183319989 28.6832185379098057   T   T   T
  4.3230105852559921 10.8957975956475916 24.3941677630263172   T   T   T
 13.5019641691929895  4.8457397196933067 25.3386513163133458   T   T   T
 10.6393714369728460 12.6503497564679019 34.0665401825875023   T   T   T
 -0.6674064960359973  0.9835947128787480 34.8377728198800583   T   T   T
 11.7640823022797125 11.6972774523923011 29.2281240944600640   T   T   T
 22.8537763841666930  0.5367696101364078 29.8396443937807874   T   T   T
  1.8149838936229110 10.9688426500486962 26.3424501990830535   T   T   T
 12.1556366347499942  1.4994217847004101 24.1186304356006467   T   T   T
 22.3900755791631454  9.1913799368840543 45.4617238297544475   T   T   T
  3.1863046396258490  1.3171785190261904 31.1664226383314293   T   T   T
  8.5492009846908363 10.5623544487696286 28.6668888458190523   T   T   T
 25.0803023079991441  1.9466449230117979 28.5138892669942088   T   T   T
  8.8000231308551147 15.4602428972853154 22.0345994882200600   T   T   T
 16.0964708410095056  8.2529388551559766 32.1977859552681736   T   T   T
 23.6076073395614010 13.1196387607646017 39.6191690446391078   T   T   T
  7.7512633814149714  0.1879805979098415 37.4132750192955683   T   T   T
 12.1801740223997186  8.6790059994526487 28.2742947243121812   T   T   T
 22.0004235021177692  5.0104086871500835 30.3877850258808451   T   T   T
  4.7809178894654272 14.9942485448982126 19.2176896762309042   T   T   T
 11.4015709917731076  8.4608029917903682 17.5117694786612468   T   T   T
 24.7155086075417110  9.0267998244113592 28.8352930823574383   T   T   T
  8.6123562848743855  4.1558759109921146 35.8423581713461630   T   T   T
  8.7979582649585595 11.6678853495867649 30.9728949224016219   T   T   T
 24.0862425475042237  3.3575983963720009 31.7310731425942443   T   T   T
 -2.8222985422472044 11.7991270974539901 28.2448129421962655   T   T   T
 15.6125251914147558 -1.1025855581198960 17.8726839542390223   T   T   T
 18.5971887452169469  5.8649053426944446 28.6297519092971591   T   T   T
 -0.2850803436586432  3.2740746328627073 39.6923414078912629   T   T   T
  7.8306637176252405 -3.0143145411545591 24.5590093810140182   T   T   T
 22.1796409182600200  6.0357674411176623 26.6583328568241491   T   T   T
 24.2118946987519799  4.5928118881457358 28.4542635658629344   T   T   T
  7.0251886486416000 11.8681773223093057 37.3154725881930318   T   T   T
 17.8794006111827208 -1.2739585950703267 31.8376183312864853   T   T   T
  2.3797110234805698  1.2080932377983784 22.8662863809287416   T   T   T
  6.5868562974237586 -0.4369427582561775 22.6078546088111381   T   T   T
 20.9743752526043536  3.1579633707781758 20.8017235191873588   T   T   T
 17.5493958680202482  1.3944945816661463 33.9566474753129910   T   T   T
 15.3214812407085237  6.2317262728960090 28.3995113874273244   T   T   T
 16.8769804278639484 -2.5960962562273853 23.7148903532178217   T   T   T
  4.3515444990879546  5.6442493971549350 32.2848886006251519   T   T   T
  7.7704117460005966 15.6161040044262656 24.7313770203298624   T   T   T
 26.6317622962960634  8.2425344943381571 19.3866641457989353   T   T   T
  0.4602798665036461 11.4884973773360262 34.1122661705350225   T   T   T
 17.9728151358793546  4.4573450116212561 34.4735686632663629   T   T   T
 14.8251259234857304 13.2230190798398013 28.3295243997086672   T   T   T
  8.0301418398749540  8.0584429477764807 24.9932509344889695   T   T   T
 10.9531698692797992 -1.9270229868946320 23.6446885717686683   T   T   T
 19.3100952576695271  5.7095998871000857 22.7679104812598752   T   T   T
  1.7946928402398867  0.4849473001076840 34.3540946397276201   T   T   T
 19.2223631189174498  8.2019002104735961 34.6693374395436109   T   T   T
 18.6600245265805391 -1.5462315554979214 28.3352331824046217   T   T   T
  4.4082047015793462  4.4113382234939520 29.1729263912478345   T   T   T
  8.4408069529003047 -0.7129212002486778 26.3016814519774798   T   T   T
 19.9905087103223984  4.8586866750813495 26.4597939401429940   T   T   T
 -6.9442880033130043  6.9854264245848885 31.9337741359574387   T   T   T
 17.9776543459819713  5.9862660385445645 39.9664989357053599   T   T   T
 17.0778022669310623  1.1331772057237615 28.8740052741027604   T   T   T
  2.7928224000456976  9.0363001030892480 30.5258227540591633   T   T   T
  9.8279722695443983  5.0954633063824462 22.0126187470024597   T   T   T
 22.4546801456823282  6.8468855165712981 23.1448307908408246   T   T   T
 27.1503385300121636  8.2509121000113108 36.8204585231022747   T   T   T
 12.8795197819389777  5.0477106645039846 37.7122420303033863   T   T   T
 15.4915119791002276 11.7436893168501300 30.2573633345997379   T   T   T
  6.5102758152627445  6.1677440856512318 30.6414282585769051   T   T   T
  8.4444814869945528  3.9111489081526187 28.6229156969570440   T   T   T
 22.3280565826256350 11.8538545066195944 32.1066242615815440   T   T   T
  1.9392663890160817  5.4912098378722538 24.4195017871084161   T   T   T
 17.0740853949664206  9.4285289545714797 22.6807464923654898   T   T   T
 17.2494638458909009 10.4356177540910746 35.2379583229821236   T   T   T
  1.0610416557034010 15.0421210272826613 37.2309269356752566   T   T   T
 12.9105590817586897  1.8411534693766654 29.9322613325771236   T   T   T
 26.2048183355469284  7.8915734699269384 25.2680109935342685   T   T   T
 -0.0491972287218947  2.9616348495965559 23.1742906747819966   T   T   T
 12.3382241375963808 13.6878148185490893 20.1531832667797062   T   T   T
 17.5937615332875765  3.2620153070421871 37.6081840418108584   T   T   T
 -0.4005373373238400  8.8804500320209350 34.5765677347675506   T   T   T
  8.9403744920169128  3.0005819906535010 32.3063908370754689   T   T   T
 23.5003511665714306  9.3697904659246287 32.2077755166244657   T   T   T
  1.1813673030152938  0.9332596593130121 25.4758985226868475   T   T   T
 21.4643203394832192 15.0861456806022325 22.5791651374283866   T   T   T
 19.2061667798824693 -6.4048936502370282 37.6665703927760518   T   T   T
  6.6139424353507588  8.0347121982180187 34.6310459688755117   T   T   T
 11.1939078760851185  4.5048543017633413 31.9646948270198692   T   T   T
 20.5701007171442853 10.7345586875360670 34.1752555174859651   T   T   T
  4.1089814836270797  3.6239557847015686 22.8917809895122843   T   T   T
 16.0321850652115465 10.1456129505208636 16.9351881320524242   T   T   T
 19.8091758964249713  4.5576480205368863 36.6665051273796081   T   T   T
  9.1286533403589907 15.4529700235395246 34.1302706447976050   T   T   T
 10.4314763380511337  0.9026812148777580 28.5924225744270792   T   T   T
 22.0061082959512078  8.0562204326895923 29.5240019122288331   T   T   T
  1.1725023202778782  3.7984231109453948 18.3547453930180708   T   T   T
 15.5443678535134353  9.8717448048052727 25.9509564432811679   T   T   T
 14.8901162430040408  1.9884403213334416 26.5088197870360318   T   T   T
  7.4147126607697151 11.0650040876421372 34.8809738526192916   T   T   T
 11.9833445813311243  3.9418635804376541 28.7311371915883420   T   T   T
 23.3748509828255884 13.0515481088666299 36.5189382903288902   T   T   T
 -0.6498856023935146  2.4894604336029635 19.9985209159778066   T   T   T
 15.1143730331419359  4.9922304667544699 22.9195142452035689   T   T   T
 15.7804574879998949  0.4500693790989149 31.5777405424865272   T   T   T
  2.1917691071850998  6.3627605358336830 29.2627513049325216   T   T   T
  3.3029985793316947  3.5107116097938107 26.6502267261759727   T   T   T
 13.9301969477210896 11.5495402404988603 22.2803087894765248   T   T   T
 19.1420393452112698 -1.4419247068931385 23.3083447255825114   T   T   T
  7.1213775884611277  7.8110594199509489 21.1412832047097510   T   T   T
  6.1652903373783676 -0.6858977389505735 34.0539571512784534   T   T   T
 25.1315663930648867 11.5056760608188782 30.0138921683276010   T   T   T
  4.7643608216578590 -1.9779658815064725 31.7944715816599128   T   T   T
 20.1973524596653746  8.2304124774800425 25.6900474887295118   T   T   T
 15.6159212544798862  1.7513288850619841 22.0418173344436390   T   T   T
 10.6039030627201836 11.8657161527719079 17.1564249847406352   T   T   T
 11.6286198731993355 -4.7634748287668343 32.0719482759527352   T   T   T
 22.9605748526814466  6.8150264945844627 35.2247587260399513   T   T   T
  0.4287839321658762 10.1391454353933259 22.7434516278487813   T   T   T
 16.6985603772918871  8.9327571409230977 29.1655557473935936   T   T   T
 20.8117363062821781 14.5522709403793566 25.8999167339671779   T   T   T
 10.4886570010844800  6.0581657748324460 24.9773695186947933   T   T   T
 14.9927464241067465  8.6447979167386322 40.1355640106534395   T   T   T
  4.7992898516029294  7.8752151670692863 28.0718781857703412   T   T   T
  3.7871623571530755  0.5378005277436511 28.3175831398827675   T   T   T
 13.0556895596652094  4.2835113649453218 22.0882721531579804   T   T   T
 23.7614733970076060 -1.3742914446955292 19.8709241940535719   T   T   T
 10.1144942631050458  8.1238282246787197 22.6045775415334980   T   T   T
 14.7851609082496349  1.2822492803054040 36.7738360643091795   T   T   T
  4.0574468704502085 10.5585850537559320 37.1312191463852201   T   T   T
  5.5638524967073977 -1.9447947516066992 28.6968757278505997   T   T   T
 13.8149523114284154 12.5459154287337427 24.9120334683700797   T   T   T
 21.2504486164775095  4.1550921901180828 23.7489985613189987   T   T   T
 13.8859460257728795  8.3618242072785520 23.9370485082524951   T   T   T
 14.5184856593062186 -2.1157394496972288 34.4173349140958464   T   T   T
  2.4330670817254956  3.5532676284650866 37.5458598880588283   T   T   T
  6.5147485711824968 14.9467919088345180 30.0286982583350195   T   T   T
 16.1582261633146871  7.6927661690002243 36.4345485610636359   T   T   T
 21.0457408548211902 10.8594186376916806 23.6909155885964857   T   T   T
  8.0190320407383542  4.4575735828486449 23.9360729403272501   T   T   T
 13.6299629818172523 10.8924200532812669 37.3858522855329767   T   T   T
 25.2418646067539925  4.1940448573357614 34.7538914178909693   T   T   T
 -2.1986067734906611  1.2698978185038727 -0.2119921079325045   T   T   T
 13.5439365134141543  7.4387708480709351  0.3161912482547753   T   T   T
 16.6850978960929623  0.8732385491059699  5.7626906676800447   T   T   T
  3.8579768829319527  7.8580374252129310  5.4682855732720341   T   T   T
  8.4536479152272186  0.7738098288626023 11.6400446905490256   T   T   T
 21.0984015874298727  8.0391907830060418 11.9849519582610569   T   T   T
 22.7422943653333043 11.6547643613702636  6.0968182195575285   T   T   T
 10.3398777155240751  4.1348538101911210  5.2561577040268208   T   T   T
 14.6561204607530886 11.7963585354057940 11.6677162117929853   T   T   T
  2.5916556691541088  4.4978515046232506 11.5212787434540349   T   T   T
  4.1113393060052905 15.4681200668317285 -0.0323998888951568   T   T   T
 22.3244620668726945  3.2069066244909852 -0.1642602139656447   T   T   T
  3.9847302639961537  0.4400606921387679  5.8677453444594123   T   T   T
 16.6475564874716113  8.0464249802973224  6.0668589927374992   T   T   T
 21.1942612853545747  0.5791159944134698 12.1372844011323959   T   T   T
  8.4371510203765112  7.9397215960817862 11.3712199370676856   T   T   T
 12.1014725343847651 -0.0427246018311987 -1.2960101722154782   T   T   T
 -1.0120159646849722  8.1255086594112669  0.4647541812908341   T   T   T
 22.9936457754614381  4.0882602233425498  5.8164404534727172   T   T   T
 10.2026696893084807 11.5704439487870179  5.3941948091897451   T   T   T
 14.9206137608855389  4.6973609948840007 11.9924830379667373   T   T   T
  2.3456603164343708 11.2372738751762657 12.2880187997206551   T   T   T
  5.5892149976672334  2.8138987369665469  0.5380735628205193   T   T   T
 18.6216363807328023 12.1628976412331244  0.2137203751666479   T   T   T
  7.2383779716704906 -2.3927981592115795 17.6330713503331786   T   T   T
 18.9223061650623166  5.8864821907654861 18.2724400893630907   T   T   T
 25.2280855043985248 -0.4408181493320286 31.3757107597359592   T   T   T
 12.7498201714007475  6.5873074302488384 31.5776174274182537   T   T   T
 16.8121932950252351 -0.3956396718835420 25.5398213079988494   T   T   T
  4.5627958178574861  6.3761498994465802 25.5939686431509621   T   T   T
  6.1064933045247942  2.9143660709360568 31.8498346536317598   T   T   T
 18.9531896974261045 10.3844819222002140 31.4165200057899341   T   T   T
 23.0938122549745977  2.6403892433421308 25.6539355578562756   T   T   T
 10.7858390552200785 10.1852519659347642 25.3611249016986520   T   T   T
 14.8711826005793295  2.1651514549556241 18.9126184574395353   T   T   T
  1.1975647953240409 11.6948617086410565 19.2972385653211056   T   T   T
 12.7178858559420327 -0.5392660097988672 31.3692183349335814   T   T   T
 24.9280322125391116  6.7816659533777557 31.8255946698108794   T   T   T
  4.6861236633862422 -0.8832208473884098 25.5886903322628072   T   T   T
 17.0166131696540788  6.9193596540526787 25.6654448307382133   T   T   T
 21.9469473404556226  1.1771480464140838 18.4826724173762855   T   T   T
  8.4715355300872179  5.9214108785219155 18.6207583026689107   T   T   T
  5.9080307514365487 10.1477393388373773 31.6152083764745910   T   T   T
 18.9211397156791428  3.1820094462228043 31.2319592750532173   T   T   T
 23.2569695377037036  9.6307648195992392 25.6435378924750701   T   T   T
 10.5213095501149887  2.7813293374058148 25.7391844284897786   T   T   T
 13.2960426708737742 11.4618102150638741 18.1312525364957082   T   T   T
  3.5343246585953327  3.3529510916359082 16.3947941921136824   T   T   T
  4.5217624466882782  0.4868849674872066  7.8361765251923670   T   T   T
 16.7247569201720339  7.8475207968808096  8.2043782437062163   T   T   T
 21.1842003040443636  0.6640184847047883 14.2273041363763042   T   T   T
  9.0492845030122915  8.2118052367350121 13.4643799651458416   T   T   T
 10.4167178485532048  0.4264078062026168 -0.2631676159465379   T   T   T
 -0.3394937738256247  8.2220284835611164  2.3118024630929241   T   T   T
 21.8670235858985400  2.3145480633035436 11.2345326562044434   T   T   T
  9.4644334943123329  9.5581527591933231 10.5962434378036914   T   T   T
 15.1733030578988881  0.3763228752580705 19.7757348932763435   T   T   T
  2.0252942629282926 10.2486768218442403 17.9885859518443816   T   T   T
  4.8388470845054004  1.9001280646374350  4.8643840288550733   T   T   T
 17.5655503524483905  9.8091680087761475  5.5017131390780829   T   T   T
 21.5091389900624748  6.1728275207401184 11.0580133897215251   T   T   T
  9.7040193604435778 13.6015166973247403 10.6727821807448446   T   T   T
 14.9957904014444967  1.9864475985323162 16.9765618720140807   T   T   T
  0.3824553746406444 13.0954728888301712 18.1275324510521969   T   T   T
  4.5179974557748350  6.1608399910954503  4.6188934025244768   T   T   T
 17.8090871489790601 13.7654268256360997  5.0030710653753765   T   T   T
  6.5184399609774815  0.5215760348151496 10.7213471384415957   T   T   T
 19.0315962838414201  8.1349398984453263 11.5692705240930849   T   T   T
 27.4838461542395009  2.2608402061494304 20.5983973396556657   T   T   T
 11.1575660528030536  7.4635601040323536 19.9971771201981419   T   T   T
 14.7979382752250359  0.7407998438469829  4.8747742226392852   T   T   T
  1.9220755799015041  8.0148264356696295  4.9908404889388480   T   T   T
  2.1749757289282083  4.2757509558459752  7.1161697603171206   T   T   T
 14.3236647141878173 11.6012761472482673  6.8441703648935110   T   T   T
 18.7687297132270885  4.2631353200685842 14.2527199586152484   T   T   T
  6.5661254143527632 11.6349494983463266 13.6373818534196261   T   T   T
 10.3525062785409379  4.3879632222536706  0.7713172130878810   T   T   T
 23.6685694867327570 11.2065128081156047  0.7854736313850461   T   T   T
 23.0512833018811207  4.3276262695107759  7.8673263921400887   T   T   T
 10.2029568346389592 11.6627243806694203  7.3590626905978640   T   T   T
 14.8904291208228567  4.9685979669591802 13.9927156232299499   T   T   T
  2.3819897159496817 11.6357786970234081 14.3388941765488447   T   T   T
  4.5221456086567642  4.4904064427638435 -0.1718818253787145   T   T   T
 19.1823171738002962 11.6913710386121110  2.2379581333145091   T   T   T
  3.5760219635438255  9.7011155738860690 11.7519367933209065   T   T   T
 16.0850648430488334  6.2943203462472788 11.0637577792910804   T   T   T
 22.8192533062414071 15.4978360904404013 20.4721881257077456   T   T   T
  6.9679808942353914  2.6321698298812244 17.4413316438119175   T   T   T
 11.2007190928004636 13.0959767311008832  4.3731912717363386   T   T   T
 24.0998466908885050  5.5987574773171813  4.9131528262143904   T   T   T
  3.5908227214473043  2.7804504600296065 11.1453537380924121   T   T   T
 15.7616024122152396 10.2602092053861700 10.8551180129989238   T   T   T
 23.2089333395615824  2.7014134122864895 17.6865972507117704   T   T   T
  9.1574990261061568  5.7234666012242501 16.8125113359715037   T   T   T
 11.7408889610120539  2.5197805721792186  4.8644702863067950   T   T   T
 23.4817196079264114  9.9142877713866948  5.2086188388362151   T   T   T
  0.6120174485309267  4.2417000175957611 10.7152705738131448   T   T   T
 12.5565823075684957 11.3446465844943418 11.2081222294061202   T   T   T
 15.9417070642289787  3.8684594614304952 20.0500541442745899   T   T   T
  3.4165651930955243  9.2631049282156521 19.1157051943060665   T   T   T
  8.4939365881609348  3.7697426619044374  4.4762002784795047   T   T   T
 20.8014197510021859 11.9794363596211717  5.8106846001640271   T   T   T
  0.2106030376581948  0.5081862700023148 13.4135332769118936   T   T   T
 12.8246119847021944  8.0118728219211146 13.2852055342219018   T   T   T
 16.6729737701101044  0.9507719494664786  0.9261678120893831   T   T   T
  3.4294493782462201  8.5187310562638210  1.2863126587207951   T   T   T
  8.3397052499406605  0.5418807839070390  6.7342441137983302   T   T   T
 20.9454020346021146  7.8659359723009263  7.2242855187689301   T   T   T
 24.1026938650810401  0.8542522652055579  1.4903263585862729   T   T   T
 12.8916109730522734  8.8705994760344637  1.6873500203898788   T   T   T
 16.6704068787257498  0.7964892736027898  7.7610117226471802   T   T   T
  4.1133088906570237  7.7411840031700514  7.5014939262186040   T   T   T
  8.9121920249182995  0.6299966935741256 13.6009024610631073   T   T   T
 21.1826964067808277  8.0138307485216771 14.0504859705435887   T   T   T
 22.0873676573625772  9.6718935725339819 11.1942634863973964   T   T   T
  9.1028458846092253  2.6487087808093897 10.7053549628666715   T   T   T
 13.3110049805804653  9.6676175040138652 16.8041199836447106   T   T   T
  1.1969813547952601  3.9660926568499555 20.8264433022655346   T   T   T