Li P  S  Cl
 1.0000000000000000
    20.5609999999999999    0.0000000000000000    0.0000000000000013
     0.0000000000000033   20.5609999999999999    0.0000000000000013
     0.0000000000000000    0.0000000000000000   20.5609999999999999
 Li  P   S   Cl 
 190  32 160  32
Selective dynamics
Cartesian
  2.9193327084921425  3.0650054915100386  0.6017619083283288   T   T   T
  2.9468614283262462  8.5545364576907961  5.5247842441617072   T   T   T
  9.9908250757613004  7.7842126555733095  0.7207657251177061   T   T   T
  9.6590071645536515  2.7707238152000562  6.9716712046235259   T   T   T
  2.1297626527293563  5.5340462625844813  7.1167270294658982   T   T   T
  4.6864996257597200  1.7671960736059962  3.0651585689563556   T   T   T
  7.3420191059301594  2.2870463535778387  5.3850923279063982   T   T   T
  5.8562737813048420  7.1957006731262103  0.8241459515112152   T   T   T
  7.3969220559119888  5.2342549388291619  7.7989259851707793   T   T   T
  9.1349073617453964  7.3346472694976175  4.1850794747540361   T   T   T
 -0.2864191664054977  3.1215992638296726  2.9979481584510075   T   T   T
  2.2338795236583624  9.7595441740612667  9.0860762961622701   T   T   T
  6.4870184841605703  8.2926546469699911  4.2196099663955549   T   T   T
  5.5847864375042322  2.5560617593078492  7.6446090943008311   T   T   T
  1.5574804175683357  0.7188764571295670  1.9281288744669438   T   T   T
  0.1308539259737297  8.3139043408315150  8.0351608709934954   T   T   T
  7.5631971900230557  2.7937660994836584 10.1212034306954894   T   T   T
  7.9850548158029966  5.2793383988983003  2.7839107927586526   T   T   T
  4.9141918766404711  7.9986170827210339  7.6583502267254540   T   T   T
  1.8378889379430001  3.2274889781203995  4.9345513596904444   T   T   T
  2.0412826267110167  5.1438814638683628  2.8588034539189868   T   T   T
  2.7275500575087368  6.9326234355713687 10.3199997649197659   T   T   T
  7.1345897087478924  0.3004497715281074  7.2486710313810345   T   T   T
  8.4681365219438351  9.9481254795227017  1.9242510620493787   T   T   T
  2.4809562533387099  3.3162390642404627 10.5207389681804298   T   T   T
  5.2591861134959164  7.8711585467427954 18.0408705492707284   T   T   T
 10.5619889343059761  7.5539641096464392 12.7068867961576757   T   T   T
  7.3078559049787479  4.7606154182013496 18.3659200369017128   T   T   T
  2.2269551716292573  9.8640491350923210 18.2513104179864030   T   T   T
  4.5141625585919263  3.4739525715486774 12.6308026011586723   T   T   T
  5.7310934295105325  2.0489284474572727 16.1362073830388013   T   T   T
  7.3290808767968363  9.1802226871506427 14.6745033785486196   T   T   T
  5.9134045805606599  2.8747363124643712 19.6511466556528447   T   T   T
  8.0990814688099864  9.7899024131606538 12.3162040842471256   T   T   T
  2.0431974645656448  5.1224078275891953 12.8962497608680078   T   T   T
  2.7090743140470650  7.9977837203654154 20.2934514162217354   T   T   T
  5.3999290682398335  7.1149540794182844 12.4045589985349451   T   T   T
  6.9664632456953166  0.0110752271687740 17.9677382560030097   T   T   T
  2.4034356675280319  0.5900213431881389 12.8343263042076909   T   T   T
  0.3869707928211182  7.2022940519986571 16.7074143995034490   T   T   T
  8.6185460822294981  1.6563360755469960 20.2732485382171106   T   T   T
  8.3650532675408140  6.4117655512358898 11.0284376167291871   T   T   T
  3.3245848943139586  5.3340354942473400 18.2246498654448672   T   T   T
  2.1218336253199350  2.7088394484440541 15.3136153585560137   T   T   T
  0.2506072906433348  2.0080764124394994 12.3205207901608880   T   T   T
  3.3332802462791307  8.4033596702908380 15.4293686170049842   T   T   T
  9.5819340415999523  2.8804274900671492 16.9150820502653119   T   T   T
  8.3455871215553064  5.9024312426152479 14.7993671486293135   T   T   T
  2.1912692184702505 10.5089622320312284  1.9657390265443579   T   T   T
  2.6957311884171400 15.7243451461225572  7.6500394262342217   T   T   T
  7.9483302001999858 17.4983035969434511  4.7909627794454313   T   T   T
  7.9416170465326781 15.3876255073212267  7.6927510694005861   T   T   T
  1.8194760043747833 17.8490551134144297  5.3195858484379590   T   T   T
  1.9219895599611667 12.6675890146838288  0.5260888457884082   T   T   T
  7.4402568733070966 12.3056452082977490  5.5630450387865249   T   T   T
  8.2846614006873605 20.4802081206856883  2.0603459046733303   T   T   T
  7.1435179377272338 13.1965974342583383 10.1118162843108799   T   T   T
  9.8990926640904338 17.5344929278206934  2.7077725516833127   T   T   T
  0.5699041081158678 13.7114757884239893  3.6818261268769343   T   T   T
  5.0500918284794567 17.9595075005927640  7.9088450589835091   T   T   T
  7.4504058000252522 17.4076188104426279  0.0704781478871723   T   T   T
  5.3364643919174846 13.0861037847514137  7.8950687826068213   T   T   T
  4.9975127513629891 11.4104755850546784  3.0042485144314464   T   T   T
  3.4210695851822899 20.6230732669396843  7.1077098048100398   T   T   T
  9.7389542512592833 12.9181524363301339  8.2725394372985352   T   T   T
  7.4357298939351031 15.5494868218319748  2.3523266550807951   T   T   T
  2.2182833144776262 19.1793579880234759  9.9571069847258258   T   T   T
  3.2894063317445870 11.8630368236984420  4.7193103452322633   T   T   T
  4.2970298200566761 14.1865303388952153  2.2781241511851276   T   T   T
  0.3986157229514618 17.3864611092133359  7.6786823989427253   T   T   T
  8.2456430654735744 10.7297797117666907  8.1906450501805121   T   T   T
  5.2735019720496341 18.2490271919032168  2.5951693347562448   T   T   T
  0.9076657518778135 14.5082282083666634 12.9165145016678391   T   T   T
  3.9642456954352601 15.7849203735324028 18.6679158298336532   T   T   T
  8.8425946350116753 17.6143889997613741 14.9036434032041694   T   T   T
  9.6217778665633755 14.0417904337199868 18.1154281698049786   T   T   T
  3.0470919535066172 20.0120309356840806 17.6698926477603990   T   T   T
  1.0010790969760950 11.2314368884384734 12.6281278071454164   T   T   T
  8.4033252616971126 10.5787190080114542 18.3970027149099664   T   T   T
  7.4845615098104465 20.1365580211687245 13.0604669813643319   T   T   T
  6.8173365336752783 13.5828133608448223 20.2061611813180377   T   T   T
  7.0641665778676215 18.0063686477896709 10.6573017813997009   T   T   T
  3.0988620212851243 13.7151692897334687 10.0373369133171604   T   T   T
  3.5576023929371008 17.8386842668210264 20.4196652700071297   T   T   T
  5.8116281634826006 18.1491309013856466 14.0455759881406674   T   T   T
  7.6124544652890140 14.2409600241304108 16.1314171720411608   T   T   T
  4.0338357028193323 10.9642455467710143 13.1592919737702267   T   T   T
  0.6391093267032335 16.6698621185735263 17.1776880021686083   T   T   T
  9.6055440610338625 18.5331476103250097 11.4095321558749241   T   T   T
  0.6300353540025233 18.5889175619761318 19.3268063422034899   T   T   T
  3.6017748208092191 15.0250159000678742 12.5343150998946058   T   T   T
  2.5914865379555767 12.9155816162395283 15.1237462921123509   T   T   T
  2.9554641543941949 18.1497242862041546 15.8279688441003561   T   T   T
  5.9528232794907758 12.2565815917412877 16.3606297890211536   T   T   T
  7.5409923517050208 15.6123907500111958 12.5636738133111052   T   T   T
 12.9616045446493331  1.2793534284226897  4.6958199690003468   T   T   T
 12.4472954901481359  7.0949897995806337  5.0231644318236111   T   T   T
 20.1743902095293990  7.2974804856622288  2.9788452521212720   T   T   T
 19.8634462263336751  1.5103433782925479  8.1092234933607532   T   T   T
 13.0417653076508380  5.0593896653258605  7.6926519455791302   T   T   T
 10.4774554173767953  2.6425618525913528  2.4646002458026710   T   T   T
 18.2209461069550400  4.6188291713763334  6.9371749038996899   T   T   T
 18.5037376931985946  9.9395293142253589  2.5410623082670463   T   T   T
 17.4626268660755422  2.8615946547360664  9.8196171869989914   T   T   T
 18.5639871666046226  8.0472912594821810 -0.0199684006187541   T   T   T
 13.1396918611065523  4.5963054705938085  2.3907067363449537   T   T   T
 13.0947606776517720  7.5352015341053260  9.7330906629297580   T   T   T
 15.6662457172504901  7.0907506249822827  1.6831651028097807   T   T   T
 15.2296172366422962  2.4006133432851722  7.5410933848105932   T   T   T
 13.7440882535792266  2.8333382702947691 -0.1210364673136151   T   T   T
 13.2353962152227460  9.9034981858791244  6.8914662087776009   T   T   T
 18.0359099367259610  5.2901487932178544  2.5065974420786938   T   T   T
 10.6713477263449263  7.1297649236622771  7.0112932910406274   T   T   T
 15.0828215592001076  2.1867183550096128  3.1074210012072485   T   T   T
 12.2622171317504858  0.2231776518277769  1.5790340120429385   T   T   T
 15.3754057560974715  7.5072621284843519  7.9830404375650721   T   T   T
 17.5390987105697107  0.7211061686671950  6.1478582162440132   T   T   T
 17.5629413209923477  7.8971856799033811  4.8264844292399234   T   T   T
 12.6338763481408112  4.1459255923478979 14.5849358938979563   T   T   T
 12.1880211213887577 10.2249502843181634 18.8984857691526216   T   T   T
 17.6708051958543990  7.8061157113280100 14.9019478129763705   T   T   T
 19.0527676175014733  3.7694680824041460 15.9398160778751290   T   T   T
 13.3950175998062715  7.9733205551705417 15.5829575056892171   T   T   T
 10.2940451996595783  2.5108365921964837 12.7782008766890129   T   T   T
 17.3857698207419062  4.8812163043930248 19.1185220151822364   T   T   T
 17.6039324614254475  9.8941242784629164 13.0477194890464219   T   T   T
 20.2476254070669412  2.3826403745461993 18.4122364773135416   T   T   T
 20.2775418667185683  8.3730696652974963 12.7315128637919592   T   T   T
 13.6440844762071603  3.7854099140598643 11.2136349010643421   T   T   T
 13.2484477063926640  7.0203237814985879 20.1490692196834118   T   T   T
 17.3153843581293749  6.9194186339426516 10.3316996142551414   T   T   T
 18.1759918500056692  1.3319662766561517 19.9817132180950807   T   T   T
 11.8169910252382664  1.3441214593793924 10.7047173889577500   T   T   T
 10.6797925917120136  7.2292064017098490 16.3696043392544652   T   T   T
 18.1917591106632948  0.5891846143092898 16.6301096110137010   T   T   T
 19.0357127094069831  5.4811298810073250 13.1002364825378130   T   T   T
 12.4142399510486356  5.1684843157801259 17.5821971340171785   T   T   T
 14.8618593636698382  1.8723497895108108 13.6783980096429509   T   T   T
 12.5323441697004867  0.0603606179041442 13.2610125834875117   T   T   T
 15.0915192587179661  7.3500913720360730 18.1114262956365977   T   T   T
 15.9370660599228042  2.0349536508302735 16.8249154668196326   T   T   T
 15.6435403639933988  7.3981245795041666 12.6540191541668889   T   T   T
 13.4254072251563308 15.1003110170737980  2.3508767453762878   T   T   T
 13.0219897287199142 17.9943177698281360  5.5756375612142097   T   T   T
 20.3719551693533383 17.5714155606751277  2.9346717179660993   T   T   T
 15.7868789144654542 12.2848743298376153  7.4122993843636751   T   T   T
 13.4920747918490775 20.2510453934499850  7.4169799660930744   T   T   T
 11.8665465537720589 13.5651670827181601  5.4494370958695262   T   T   T
 17.8941140494452000 10.5178409046147650  7.7300142141020691   T   T   T
 18.6378142156195068 17.7236482552829031  4.9010625800242771   T   T   T
 17.9208996767800741 12.4356707496349852 10.3651093955860958   T   T   T
 18.9754421289150059 20.2489152081481549  2.7253445012618767   T   T   T
 14.0791228858518238 12.8751834136755683  0.7696154073901954   T   T   T
 13.2657632811524842 18.0602793836135973 10.3900269983256059   T   T   T
 15.6205994053885728 18.4837815386690849  2.9187662551486064   T   T   T
 20.1980574057347511 12.9998933880606735  8.4563853017440653   T   T   T
 14.8474607477101035 12.4355129427336770  4.5635514969894118   T   T   T
 11.3661001167050948 16.5111500660593862  7.7987104996140486   T   T   T
 17.5076077862580561 15.0524367062103472  8.5224160340863371   T   T   T
 18.2707054689022925 18.5219787288671256  0.5178576924194959   T   T   T
 14.9183382730319742 17.1820801684853137  8.2496070017074601   T   T   T
 10.5612612558171843 12.6331693773995042  2.8549460125602537   T   T   T
 12.7300968640182148 10.7494014433838050  2.0358371694231159   T   T   T
 10.6370049327284732 19.1331570768227479  8.0771333659707309   T   T   T
 18.4501713564505572 13.4642827974087194  5.6680476436678733   T   T   T
 17.8447924074322231 15.7267193522172182  2.2316525093095314   T   T   T
 10.5282701693688754 12.2009268103933248 11.6386300278534804   T   T   T
 14.8292578996176356 19.1234009737027577 17.6580078227215793   T   T   T
 20.4111886902062878 17.9773484240700938 13.2548732759435417   T   T   T
 15.8279041302621497 12.3531347167587260 17.7264912741649781   T   T   T
 12.2728216670126304 20.2266144219557233 18.4249089145028364   T   T   T
 11.9662206478439188 13.0759562202951347 15.1111573500840191   T   T   T
 18.3854738917072922 12.7161646959791010 20.3855041558644956   T   T   T
 17.7895318876597450 20.4367940614795387 13.3487409326957405   T   T   T
 17.5763191847575051 15.5008646777564731 18.2578990829149177   T   T   T
 19.2188511177197299 19.3000352012338041 10.8854840083698043   T   T   T
 13.1013155988303129 10.3526232976730856 13.1888223103084474   T   T   T
 12.8970897537340843 15.3013047663878368 17.6397498665539345   T   T   T
 16.5290289322619799 17.5874847783089834 11.4149528744305879   T   T   T
 20.7774460245237265 12.7735098582308702 18.5552527694019531   T   T   T
 14.9307854468278745 12.9099784277496177 13.1315283050250375   T   T   T
 13.3355738842232725 16.9229750699781718 20.2955810078154570   T   T   T
 18.5038875118149271 13.1367633012835103 15.7246473559499691   T   T   T
 18.0044943659671119 15.9133507371688836 13.1046282903282165   T   T   T
 12.6478834585144639 17.3569067927750638 15.8690287032773796   T   T   T
 13.3268521724169844 13.7427755131018561 10.4031674162988939   T   T   T
 12.2894647108664028 14.8283955968567653 13.6300293902040401   T   T   T
 10.4680283463172010 17.7735068407074976 18.3354532317849319   T   T   T
 18.1874576845497558 10.3770623675184748 17.6609782974242933   T   T   T
 17.7078103986936206 18.2600296110075035 15.1570077484526742   T   T   T
  0.0509140469566820  0.0244774261622676  5.3256565634687592   T   T   T
  4.9403832876375340  0.1130262381910940  0.0669725620558973   T   T   T
  0.3181075535437511  5.3339126273076314 -0.3887507401661088   T   T   T
  5.0128272737541364  5.2118647677155385  5.1025420630073119   T   T   T
  0.1754903660017933 -0.1083761239361977 15.4390304104152811   T   T   T
  5.1370416061209383  0.1889880339698943 10.3655492216223415   T   T   T
 -0.4165389917479876  5.1338535479619019 10.0266708283417056   T   T   T
  5.1702801694660119  5.0851518101640210 15.3534574018316388   T   T   T
  0.1254939404902273 10.4806478127783542  5.2092737146126300   T   T   T
  5.2206132562641647 10.2942666286695328 -0.1082963699995515   T   T   T
  0.2460924464508538 15.7119706533885424  0.0234563039977798   T   T   T
  4.9963856747602184 15.4757459155528885  5.1289245927216616   T   T   T
  0.1215868314703509 10.2737176577087990 15.2613631917401715   T   T   T
  5.0751051368647255 10.2761234331213345 10.1227887093850963   T   T   T
  0.0090672104413927 15.5613996963790697 10.3250376576056890   T   T   T
  5.3160167293984761 15.5426666376465210 15.3416758928079773   T   T   T
 10.1755218761124038 -0.1497318664042296  5.1957899105840886   T   T   T
 15.3041324914534460 -0.4336367077069153 -0.0243980844121859   T   T   T
 10.4323670709722460  5.0386700926541170 -0.2036592705745339   T   T   T
 15.4332782970291458  4.9847678780427280  4.7680819825763789   T   T   T
 10.2917755059114242 -0.2752282403483421 15.6153274041803325   T   T   T
 15.5834420811993333  0.0228231997570780 10.6356235297811974   T   T   T
 10.5193185499033728  4.9777869615152834  9.9866514229649592   T   T   T
 15.5290620711364937  5.0794055579420645 15.4767738427633219   T   T   T
 10.0883468404299279 10.1266566092766919  5.5505596974325888   T   T   T
 15.6038834596723195 10.1482670880000736 -0.2977207384158883   T   T   T
 10.2793631996952453 15.1094711941874724  0.0745268130596508   T   T   T
 15.4968784334271135 15.5096528534530602  5.3231079359734625   T   T   T
 10.1680036510141889 10.2643529118124803 15.4381997545127998   T   T   T
 15.3789460265354734 10.3295119646894022 10.4605106761654003   T   T   T
 10.2910705286271611 15.6451379660295213 10.4194322656668454   T   T   T
 15.3422306677140536 15.3209808591786718 15.3240159827848501   T   T   T
  1.2146777138493596  1.1783214215495119  6.4372309636757175   T   T   T
  1.2482367137374504  9.1680847805874510  3.9881183025656077   T   T   T
  9.0613964578144568  8.8215650953095999  6.5407068906802035   T   T   T
  9.0830042687379073  1.2352966708405453  4.0454087406183623   T   T   T
  6.2878761935111172  1.3624667495627125  1.1326673129868776   T   T   T
  3.9350448513623877  1.3801541188708097  9.0689292347715131   T   T   T
  6.4844910658517172  8.9975371092329191  9.0838511591528039   T   T   T
  4.1069880738231435  9.0582406469738039  1.1602498184955687   T   T   T
  1.2816831529540265  6.4450437131289213  1.0488270860183766   T   T   T
  9.0202268822026870  3.7625962981073235  0.7933295411418049   T   T   T
  9.4481141119786791  6.4710784793343548  9.0150966220762978   T   T   T
  0.9606983766861860  4.1612039564209375  8.8783121994070751   T   T   T
  6.5135278896863289  6.4422838255634796  6.0610459628601117   T   T   T
  6.0834702780489911  4.0644878670811000  3.8168924585199444   T   T   T
  3.8998327634279919  4.0705025731574969  6.3415709252675745   T   T   T
  3.8313358251894987  6.4535316620254264  4.0109844826438321   T   T   T
  2.3065110435855831  2.6744467152196907  2.8384376929069806   T   T   T
  2.5003137690132968  7.7665583060584771  7.7775740157317044   T   T   T
  7.8999494709410030  7.6465906040722338  2.3850576076562744   T   T   T
  7.6768086841166001  2.9797934675899587  7.7907524517739422   T   T   T
  1.3018820728916805  0.9799520379814006 16.7920201642344864   T   T   T
  1.4621305981266066  9.4225257197420760 14.0123599383174380   T   T   T
  9.0971514530792632  8.9958954056048555 16.5990795003519196   T   T   T
  9.1686764097122744  1.0516410745516138 14.4649973118388608   T   T   T
  6.3650141482793368  1.2444275951450761 11.5186566641252739   T   T   T
  3.8235693192510176  1.2328785572700378 19.5627804120594888   T   T   T
  6.4410295126826256  8.9735160436171881 19.4366778919409740   T   T   T
  3.8101669094688377  9.1401827668973361 11.2042513467089382   T   T   T
  0.5250727218248520  6.5216759449376003 11.3732367594571393   T   T   T
  9.2280742107513198  4.1479348436347214 11.2877463942613225   T   T   T
  9.4068244504806700  6.2772811654291187 19.2575391920209995   T   T   T
  1.7788516012662130  4.0027653620781001 19.3996121636372152   T   T   T
  6.5084209256462691  6.0911859064505576 16.4593225603269460   T   T   T
  6.3811083656002943  3.8286037075302475 14.1514508274306241   T   T   T
  3.9325052926743433  4.0206038273083644 16.3853425890363198   T   T   T
  4.1426300877120985  6.4258146647141539 14.1357699168952777   T   T   T
  2.3006793019014227  2.8567595698035668 12.9637782140449733   T   T   T
  2.5745061149558612  7.6262180708392204 17.9290482438736873   T   T   T
  8.0231938871258688  7.5919107719902676 12.9250356207451169   T   T   T
  7.7236035497002336  2.3743268398761397 18.1808682111838564   T   T   T
  1.4131699806162643 11.6580121670210985  6.4295702717205323   T   T   T
  0.9613163236467828 19.5552627056030346  3.8397756321203507   T   T   T
  8.7066118741468639 19.4536542795149074  6.3067832582550958   T   T   T
  8.8036065119759783 11.1979266199183662  4.1467507610875689   T   T   T
  6.4226909913191639 11.4257380265465667  0.9005900660491492   T   T   T
  3.8941100420425276 11.4145422866552391  8.7503294451785951   T   T   T
  6.2894266015060101 19.5612815046489885  9.0011615950313804   T   T   T
  3.5851582953500887 19.6271022680940916  1.4724202342571948   T   T   T
  1.1574519651392912 17.2889551691831684  0.9865509961210274   T   T   T
  9.1188196306816725 13.8642484664257228  1.1793055627461178   T   T   T
  9.0785036747095695 16.8608481633758771  9.2885868713390707   T   T   T
  1.1405995182222963 14.6219138697266722  8.9803236834567866   T   T   T
  6.1803965132521386 16.6035194519706621  6.4374538513581037   T   T   T
  6.1797670815895911 14.4003800714056069  3.9288152266503338   T   T   T
  3.9058284320394474 14.1958034797971990  6.2390145651413373   T   T   T
  3.8170187206233188 16.6965077186968145  3.8554010480118164   T   T   T
  2.8126941402493943 12.6138772643816726  2.6723220847367273   T   T   T
  2.5901545776104484 18.1569763231345078  7.4459046048515383   T   T   T
  7.6221470877017898 17.8825783177295250  2.4151450928113483   T   T   T
  7.5808510205734807 13.0544750446148772  7.8307776834003935   T   T   T
  1.2246207537169034 11.3707816864538387 16.5911078518942929   T   T   T
  1.6916398796297656 19.4693235167244438 14.3994571049374471   T   T   T
  9.1287380226206203 19.0026403439785057 16.8314916868350579   T   T   T
  9.1369971288232019 11.2775706618884399 14.1050375915506088   T   T   T
  6.0445013321692365 11.3673913191794966 11.5355106746365053   T   T   T
  3.9082812185247557 11.3527469240146459 19.3286369371414182   T   T   T
  5.7905577302555082 19.1344793088554042 19.4575819489665491   T   T   T
  3.8644873106315272 19.6083681357482575 11.5015506869568949   T   T   T
  1.2188976720681808 16.7036388332291139 11.5023877470134366   T   T   T
  8.9399420962566634 14.2361570971038223 11.3055459804661389   T   T   T
  8.9855893535719620 16.2218698507124088 19.3892229360597455   T   T   T
  1.4935916784238545 14.5626485059338417 19.4253183464718404   T   T   T
  6.5440461236041001 16.7407177283447268 16.5250863894558364   T   T   T
  6.3325190562468627 14.1452747322913908 14.1408662063905357   T   T   T
  4.0946356837039088 14.3824103439229152 16.6201189784466337   T   T   T
  3.9528559479100149 16.7780077207059222 14.1923749410494171   T   T   T
  2.7251711545261750 12.9998183947946977 12.5946161872120186   T   T   T
  2.6368479869920973 17.8778522098914507 18.1770627468558601   T   T   T
  7.7715700016883771 18.0881249759510538 12.7831293949101070   T   T   T
  7.6968200763687271 12.7843527098474397 17.8888045587625726   T   T   T
 11.3033128397294949  0.9699524459343779  6.4515356152401440   T   T   T
 11.5951192429197505  9.1958940327964616  4.4240538436943559   T   T   T
 19.3760475284031841  9.0798127047612844  6.1870159456200788   T   T   T
 19.1224616374910070  1.1900086530368903  4.2927082478347725   T   T   T
 16.6398814268929556  0.8022331561931255  1.1902534329516110   T   T   T
 14.2026238473027462  1.1209150568144608  9.4913004153833000   T   T   T
 16.6995474366194436  9.1599679225720223  9.3102910391203473   T   T   T
 14.1852763943191480  8.9977125180304593  0.7473523045176059   T   T   T
 11.6377803658942227  6.0387458396784455  1.2083182670670833   T   T   T
 19.6099037863524508  3.9456667173468714  0.3887748254950166   T   T   T
 18.8092612346556258  6.2158564430408072  8.8794127212694249   T   T   T
 11.4485594175923726  3.4456705158441010  8.9060681785645244   T   T   T
 16.5215423519905933  6.3713566332897029  6.0884159749241240   T   T   T
 16.8708839728997155  3.7806975924022015  3.7161294347859037   T   T   T
 14.1552524223922145  3.6929543355839849  5.6974037909633850   T   T   T
 14.2900906061559336  6.2072581649849878  3.6081106685990711   T   T   T
 12.7464863586624961  2.2568142512664155  2.4547055515533303   T   T   T
 13.0514141679059428  7.5322418170214949  7.4393945937365187   T   T   T
 17.9034911616125036  7.5988870011720637  2.3006804966132748   T   T   T
 17.7218244039787045  2.4936860774649490  7.5350941888228711   T   T   T
 11.2208897129119514  1.0612749196595139 16.7800208744044852   T   T   T
 11.4972420025452617  8.8930972537109572 14.3106300617747610   T   T   T
 19.5368520460329371  8.8699253141950063 16.3108335932034265   T   T   T
 19.4598603073384524  1.1818603609791705 14.3648521459736749   T   T   T
 16.4646044365615616  1.5091719998470117 11.7318741674947766   T   T   T
 14.3789018807288063  0.7976254435819924 19.0569560361239070   T   T   T
 16.8436055391289763  8.9085530123651040 19.1964491764498817   T   T   T
 14.0734532786260012  9.0341881275218388 11.4825143550263853   T   T   T
 11.9399451634075575  5.8787614186258406 11.1140877103973956   T   T   T
 19.0802844047432565  3.8388540208735127 11.3159870057349554   T   T   T
 19.6458351370773734  6.3729435604995208 18.9432153399509673   T   T   T
 11.6172437246895051  3.8154746451712231 19.2026887794740801   T   T   T
 16.8069028680832382  6.1964625109755653 16.7634192962544972   T   T   T
 16.8654723154118109  4.0234805496316577 14.2801345315184562   T   T   T
 14.3385271454491043  3.8154941935190752 16.5028144547067868   T   T   T
 14.1104961022617008  6.1114687695690870 14.3515628006423608   T   T   T
 12.5969671529335816  2.4318501612973842 12.7510520460817549   T   T   T
 12.7468750490844602  7.4605572469088921 17.8554139083577255   T   T   T
 18.0122895273506209  7.5300474062495590 12.5531697010742818   T   T   T
 18.0548175985379515  2.5415098403831817 17.8489252738615392   T   T   T
 11.1552073191026313 11.5458589773909495  6.7626964717637907   T   T   T
 11.2547837517851974 19.1650126415168245  4.0957655381031950   T   T   T
 19.4678860276607644 19.2880398118257474  6.4624398487626324   T   T   T
 19.5587390098379750 11.7114973251138714  4.0365186629239478   T   T   T
 16.7005790104005420 11.4502032975355714  0.9865078868994620   T   T   T
 14.5149602079951396 11.5758088216257775  9.2535480481539114   T   T   T
 16.8577437541269788 19.4885495656453358  9.4856263591829553   T   T   T
 14.0512932924860827 19.1326332282277605  1.1617609549854668   T   T   T
 11.4813976630727375 16.1174419634127091  1.4061478669173113   T   T   T
 19.7465899186022611 14.4879157227022439  1.3050753528336230   T   T   T
 19.2740024258441025 16.8855062452073739  9.4092965578298955   T   T   T
 11.3785322943031790 14.5475392889032715  9.0210717196116796   T   T   T
 16.6305344529549473 16.6375809792254472  6.6447414995226577   T   T   T
 16.9161289345567312 14.5803483557250217  4.0515557471724195   T   T   T
 14.2589018416036382 14.1715194104355113  6.3767061963331191   T   T   T
 14.3994121415025145 16.7345154155492040  4.0989508856802859   T   T   T
 12.9075422317410684 12.7638866471099792  3.0596661531199909   T   T   T
 12.8735725574071704 18.0901376476670706  7.8920060184268630   T   T   T
 18.0149030437772026 18.0949674811370187  2.7336626989171902   T   T   T
 17.8744316342262586 12.8733159894150830  8.0377092506732275   T   T   T
 11.4231042073929512 11.3158048822747812 16.5682149372993095   T   T   T
 11.4416829759821148 19.1089064676451912 14.4725561087270762   T   T   T
 19.4914690486140927 19.1690477820111624 16.5041348229415661   T   T   T
 19.3567118876919224 11.4021550244186383 14.1974877453197426   T   T   T
 16.4427583573912415 11.5417371867356646 11.7958654213165754   T   T   T
 14.3668403304324386 11.3893917091248049 19.1658323630994261   T   T   T
 16.3978587611419755 18.8929458516751438 19.3659758628321370   T   T   T
 14.4317910796193996 19.4238736131324288 11.8888244017095399   T   T   T
 11.2389526259995502 16.8396580295464844 11.6587229567377157   T   T   T
 19.5569630647255082 14.2539944250662138 11.4916521194731178   T   T   T
 19.4232940451052158 16.7674073750221027 19.3849077874851403   T   T   T
 11.4728358228766290 14.0403373257201221 19.5413114445511482   T   T   T
 16.3101996286733275 16.6281134773125387 16.5948359890488959   T   T   T
 16.6986608912241188 14.3275779729309765 14.1514810223534830   T   T   T
 14.1967348377345406 13.8142658054467393 16.3489373982612705   T   T   T
 14.1707794161092764 16.3740973074537166 13.9030189216453390   T   T   T
 12.6822925001852447 12.7346527673628156 12.8264348586742472   T   T   T
 12.7172968764778620 17.6538308152069732 18.1354064557760495   T   T   T
 18.1325447785366407 18.1690805124390167 12.9771626437901144   T   T   T
 18.0203333295968200 13.0640821234114579 18.0894210600255860   T   T   T
 -0.3538017291868608  0.1750853306288372 -0.1287010253619312   T   T   T
  5.1640699962261269  5.2176199886660735 -0.6480421105184802   T   T   T
  5.3132318242368584  0.7055618546212759  5.9678387906816166   T   T   T
 -0.1796734537090566  5.2114295639689541  4.5368673747571897   T   T   T
  0.4974598384792748  0.1344594701947609 10.9016729025628702   T   T   T
  4.3790824168056099  5.1863911934420397 10.9071333619443838   T   T   T
  5.2743449742364961 -0.1472581341642411 16.1237173218267600   T   T   T
  0.2145080374308381  5.1116273092492568 15.0998098753078551   T   T   T
  0.3862205171530224 11.2425917931114157  0.1271223290323294   T   T   T
  4.8064956404984880 15.3734413829688776  0.1074700190448451   T   T   T
  5.3185264218835524 10.3619658946168993  5.0472133584130265   T   T   T
  0.0641503226387319 16.2221621710934372  4.8340343520656477   T   T   T
  0.4594194783130161 10.8412890539458946 10.0610600926189253   T   T   T
  4.8457558030179690 15.3439939746399201 10.2402391419154490   T   T   T
  5.1134570030698470 10.1091898886421294 15.2309570363599107   T   T   T
  0.2547767393199408 15.4795516819841534 14.9620326825462975   T   T   T
 10.0778023479085892  0.2075600281134702  0.7012321476797205   T   T   T
 15.5346227476112428  5.7314774452525912 -0.3309922376530802   T   T   T
 14.9434853066252042  0.3057142782328688  5.8354332185148614   T   T   T
 10.4275457388833050  5.5135592383630794  5.1222860235574421   T   T   T
  9.9334571727859124 -0.1931350138245509  9.9299029053215619   T   T   T
 15.1694858334691158  5.6357591331341972  9.8483233016033296   T   T   T
 16.0953373619922857 -0.1365806460101445 15.5073971662970589   T   T   T
 10.4226205822106870  5.0726071639747738 15.7581865662035128   T   T   T