Li P  S  Cl
 1.0000000000000000
    20.5609999999999999    0.0000000000000000    0.0000000000000013
     0.0000000000000033   20.5609999999999999    0.0000000000000013
     0.0000000000000000    0.0000000000000000   20.5609999999999999
 Li  P   S   Cl 
 191  32 160  32
Selective dynamics
Cartesian
  2.1131752006517632  2.2271164576957045  0.4589210913255045   T   T   T
  2.3329208519196358 10.2481924900334516  9.1459299071034383   T   T   T
  5.8163496899461133  9.1142936317804537  2.8357236422650129   T   T   T
  7.4232860972852190  2.3129640305009023  5.1851233903458311   T   T   T
  2.2617940368381810  5.8242255107443368  6.6247843336336141   T   T   T
  4.7315519552152665  1.7890188709434673  3.1109352986577488   T   T   T
  7.8739307101488096  1.9640859578109167  9.9551092106013108   T   T   T
  7.4668503072158154  5.2464457840938454  2.5063036208899181   T   T   T
  8.5981944781110577  0.7642853040773869  7.4653411376107943   T   T   T
  6.9043408757833769  7.0234889949887718  0.2258627085590764   T   T   T
  3.0586094549074696  2.2363669693037016  5.0864872610812260   T   T   T
  2.9201320752217632  7.5442042565167924 10.5799757071467990   T   T   T
 10.0709815964509382  7.9746176156768058  0.6548247541558796   T   T   T
  6.5699703901222009  4.8369315101308255  8.3489024912451058   T   T   T
  1.8839425145388100  0.0783600633829073  2.2273994035735614   T   T   T
  4.8479889120647242  8.4443811159407591  7.9457938416961378   T   T   T
  5.3188544755689557  1.7104953764675814  7.4257746260924034   T   T   T
  8.4478211613618512 10.3209078170557511  2.2650594960115580   T   T   T
  2.3903105362810111  8.7198903652952531  5.5832419800007100   T   T   T
  3.1852057997859013  4.8419288291080180  2.4544653134920558   T   T   T
  0.2975878629568441  3.2677758715914536  3.5810989396635180   T   T   T
  0.1881543259533819  8.7916394832409477  8.5928065506145064   T   T   T
  9.4300807996658467  4.0207765923814733  7.5497592016582526   T   T   T
  7.6172990359842281  7.7315222137187964  4.6576213848568129   T   T   T
  3.2258670002364056  4.6664607948948600 13.1587414549630317   T   T   T
  1.9805725257981486  5.2960033901002266 17.4844832169994788   T   T   T
  6.7778598314964640  5.3058476209816821 12.7555294341369905   T   T   T
  7.9416595785303059  4.7813237255473693 17.8459715009231310   T   T   T
  0.3099241893299328  8.1294894326732106 17.8983320463868161   T   T   T
  1.9168527188391535  0.5619321004833454 11.7671840930898313   T   T   T
  9.6979921957272666  2.3992222912909988 17.4620974358754921   T   T   T
  9.7115583596438686  6.6853450277202446 13.1686278882033729   T   T   T
  6.9048388695455118  0.1314219791802962 17.8176197035911876   T   T   T
  7.1122539145297159  7.4060555823429723 10.7750553727172864   T   T   T
  0.0873876562218065  2.9921819471847408 13.5161964007012756   T   T   T
  2.4686255059040376  7.1552144682770411 15.4641720351679890   T   T   T
  9.6120485469458128  9.3920341638619558 12.1696723680284933   T   T   T
  8.2184170704332580  2.0086522785275260 20.3400671329038438   T   T   T
  3.3878802081707260  2.1016927749597683 14.6535384232780306   T   T   T
  3.0183502540238125  7.1037157291919462 20.1866909739341835   T   T   T
  5.6759832182577670  3.5002185181144894 18.3647167294176974   T   T   T
 15.2560750055429644  2.2940486480881574 12.7616397121863105   T   T   T
  3.2425135527128317 10.0075860748246850 18.0522779684339554   T   T   T
  4.9635619854136799  2.9015072479287962 11.8131536622139190   T   T   T
  2.4703787534053743  3.8328306381871426 10.3053722049813992   T   T   T
  4.7434259046593628  6.9144091591504111 18.0299271372283165   T   T   T
  7.2328073848778391  1.6964837590724948 15.4702474021006200   T   T   T
  7.8262487876745936  8.1993839694541677 15.3577125883027001   T   T   T
  0.1555654396546242 12.1917627754788196  2.8178449508162196   T   T   T
  1.3815487479662194 17.2567035754349405  5.4267183971071891   T   T   T
  5.4305405126482418 17.0385859070790637  1.9655346975147698   T   T   T
  7.5783055043448835 13.5501928724915626  9.5998519433127143   T   T   T
  4.3420977220286643 18.5987907078702754  8.3536739263626210   T   T   T
  4.3692786724722916 12.9352963490734520  1.4062397747900508   T   T   T
  8.5923930174404450 10.6626135964188204  8.2648586036167373   T   T   T
  7.1333044351967834 18.1838876593947028  4.5139584213877146   T   T   T
  7.1759453245294118 10.8248349799984229  6.0019205898270931   T   T   T
  8.7812589833930819 15.7511603236673974  3.2488178572238051   T   T   T
  3.9451890207329208 12.2527413245156485  4.2352462769813712   T   T   T
  1.8884209633789437 20.2145498646074024  8.6110986153022626   T   T   T
  9.9439501862085127 17.9682996399844477  1.6702416822607025   T   T   T
  9.7350280224243644 13.0730378605341571  6.0460327089989958   T   T   T
  2.8187550572910056 15.2527097457200238  2.5051421086884043   T   T   T
  5.3162143368018437 13.1279298415159893  7.4768460977862023   T   T   T
  9.6712590259392037 17.6690413836463200 13.1377392675074383   T   T   T
  7.7606912244760986 18.6214904912885046 -0.0200132426205963   T   T   T
  2.3504722627858632 20.0793844876673582  5.5044597116378737   T   T   T
  1.5338932725262544 11.8791330893842151  0.0860819683046693   T   T   T
  1.7438648138042676 13.4394621414670059  5.2246361465652527   T   T   T
  0.9812102859633174 17.1828549993540847  8.9114717509493957   T   T   T
  7.8577155633917117 15.0233585772228526  6.8294436887897447   T   T   T
  8.1255630947285642 20.4686894870914422  2.2573050925824476   T   T   T
  0.8256715311033939 13.2214918748000176 12.4946318368281126   T   T   T
  1.7020091955065173 18.3783206511917925 20.3960833045722083   T   T   T
  6.5346796055488268 16.0380009409061337 12.9384436363143731   T   T   T
  7.7595911300540843 12.0782045896625068 20.2446028724879916   T   T   T
  2.5731815928260420 18.6343054574781384 15.7033390738110157   T   T   T
  2.0937552939582531 15.0977451687918727 14.1812494163466578   T   T   T
  5.0608554892004012 12.7954067672111744 18.1588413443391268   T   T   T
  7.5862504800590029 18.0611125834985913 15.1301295744758697   T   T   T
 10.0063888379988999 13.0516219680277494 18.5960415404232791   T   T   T
  5.1449640005454276 18.9537721563473909 13.3313190493778890   T   T   T
  2.5665510771691551 10.5234417631821966 12.9933337421187165   T   T   T
  1.6903128305485027 15.9315265833818529 17.6737505234287653   T   T   T
  8.2317753570240271 17.9561755733726578 10.5983559765828961   T   T   T
  7.5624158551791760 11.1202946022402465 16.7450727920312694   T   T   T
  5.1780736271363255 12.8535420187498293 13.3704278876354561   T   T   T
  0.4203615127985719 19.7936576414529029 18.4731620650898876   T   T   T
  7.4477223519814375 15.3715126088093150 18.9221515356349883   T   T   T
  3.5580995721213413 20.0840915821668275 17.9696345821201398   T   T   T
  2.8955371885114696 12.5725548853398177 15.6746630283694159   T   T   T
  3.3157835531192310 13.4169208706473366 10.6511463096969639   T   T   T
  4.4646061636069474 16.9616990063122550 19.0121968616893895   T   T   T
  8.6844289195045015 13.5178504928094583 15.7785511831886076   T   T   T
  8.7037244979085742 20.1020039265754669 12.7339906801461584   T   T   T
 14.5713529560404940  3.2831724001705478  3.0863573769873538   T   T   T
 13.3443686474974132  9.7282770191486918  7.5607087991999622   T   T   T
 20.6900691425372614  8.2821139284674992  1.9552863338497977   T   T   T
 15.9480791629357004  3.8067144169649434  7.9034313510104734   T   T   T
 11.0242766747490570  7.8455052683143833  8.8695637315921090   T   T   T
 13.1499955281871070  0.3387339863840412  3.5451712210725730   T   T   T
 17.0013189651190473  0.3314449760094329  7.6158530086305580   T   T   T
 18.2701655983012259  9.7288168007878113  1.3892436178096095   T   T   T
 18.1124574361964790  2.8221083301288870 10.0222446797283098   T   T   T
 19.1691633699417991  7.6545640084725521  4.5917593234111465   T   T   T
 11.6878692770453032  2.6676148666572828  4.6877365774575344   T   T   T
 13.7051207902205139  7.1672404640698097  9.8430105965616121   T   T   T
 17.9075368133636914  7.0763554132521884  0.1063460829344487   T   T   T
 17.9229332592357125  2.6337070384271706  5.1962957953969315   T   T   T
 12.3247194922919991  0.9591290495147164  0.4545147999775658   T   T   T
 12.9705000492040128  5.0831651898398142  7.7239165282841444   T   T   T
 18.7655018699299845  5.0394231469630935  7.8319608614079481   T   T   T
 16.0234626977423531  7.6573423289361067  2.4382696242850384   T   T   T
 12.8810101715968042  7.3083319793373658  5.3374130995317755   T   T   T
 11.0354897161155137  4.1148387556184964  2.6325267016848737   T   T   T
 13.4552523972773397  3.8062548830287759  0.4126527487411270   T   T   T
 15.4238225212559463  8.1000566964697409  6.7169816748646296   T   T   T
 19.4775894775316658  0.9320256049190662  7.7277626287611225   T   T   T
 18.9746634810142396  5.3325039752219379  3.0933120849522724   T   T   T
 10.8155010443210760  2.7699427680210031 11.4268840667119793   T   T   T
 15.0473510996321451  6.7832178676362727 18.2487728233689985   T   T   T
 19.8747446023873025  7.0010689449593659 13.2302059083297845   T   T   T
 17.8650535211589769  0.3064745526458051 17.7689676261828140   T   T   T
 12.1991075773179567  9.9980613238933440 17.8766735855336343   T   T   T
 12.5067990347646045  0.2711360847030913 12.5760338669668918   T   T   T
 16.9811628723991532  2.0282087423925410 15.6313767039236033   T   T   T
 17.5202990267117542  8.8709041381876901 14.5728559285382442   T   T   T
 18.2097732143180906  4.9428205052644811 17.5898439209635420   T   T   T
 15.4015925380027809  7.9034578053938374 13.0080067976609879   T   T   T
 12.2099742079634161  4.4194137989697539 14.0456495566660511   T   T   T
 12.0484313107827230  5.2113710394879682 17.3477631170855382   T   T   T
 17.0016933390670388  7.4350813950030910 10.3413566754018103   T   T   T
 18.1409422538228995  2.8846033264650841 20.0652173472801145   T   T   T
 13.2718683821795995  3.5061576396489351 10.3610986353594630   T   T   T
 10.4825779572657929  7.2747291931555988 17.6708927099559787   T   T   T
 20.2709999001288850  3.0544389632397637 17.2140235690999006   T   T   T
 17.5370602408069232  5.2766120504984464 12.4125054860726411   T   T   T
 13.2337231375231283  7.6923846107445222 15.5842775970304466   T   T   T
  6.1986627144520776  9.6339217773899399 12.7958256339407548   T   T   T
 13.6431244903030304  1.8975145058749798 15.0219762673989532   T   T   T
 13.6944981578375842  7.2125323061677449 20.1252528004459919   T   T   T
 15.3928350614321072  3.3981433755579311 18.6575523146597213   T   T   T
 19.2206001396095587  9.5592451806831527 12.0315632453355210   T   T   T
 13.4188975358379956 11.7253767862106457  5.0725457716160847   T   T   T
 13.0425210154517028 20.2638553677647266  7.9245253000150999   T   T   T
 17.8151828547745836 20.0872443129229445  1.8831032024208836   T   T   T
 17.5185481419982807 12.6149973195274576  9.7416476119049378   T   T   T
 11.9883116967337493 16.0901239083481862  8.1756720469773008   T   T   T
 10.3543930805742317 13.0861374739481455  3.2349134203277541   T   T   T
 18.8300373063284567 13.1571232732195575  5.4369867067289368   T   T   T
 19.3919481739058597 18.0841474123727579  0.7868728247120889   T   T   T
 20.2462004881727893 12.7652323234272131  8.0535744502167628   T   T   T
 15.6015920426792096 17.3883499469588969  1.6167598711095112   T   T   T
 12.1707212260968696 12.0368789103223826  0.3691675512464988   T   T   T
 17.6034191964821360 15.0708646304536060  7.8423767317583257   T   T   T
 17.6608627520582218 16.0425575736424015  0.5071633151776307   T   T   T
 17.5619698552056747 10.7004505895320854  6.1534347758610179   T   T   T
 15.5465846752011565 13.2230157219103983  2.2720836192272649   T   T   T
 14.9801264591383934 17.9008050046095697  9.3802541939717727   T   T   T
 24.5564170080339181 15.9643986246430796  8.2057829540581650   T   T   T
 18.4340332876547635 15.8320621276363234  3.6897678011992339   T   T   T
 14.3951469356341537 18.2049172358917808  5.5760438201664453   T   T   T
 12.0809380160453355 14.8776305664994215  3.5704855401676689   T   T   T
 12.1074200031191292 10.3712944463960177  2.1181014305131609   T   T   T
 10.5346146822416724 19.0284731257868458  7.9085306660295505   T   T   T
 15.6145313366674579 12.5289166464100816  7.4388779263947349   T   T   T
 17.2679658262319649 18.4175041373722692  4.5821768932587696   T   T   T
 13.2762358683721029 10.9251536576067263 13.7589379260269435   T   T   T
 11.1002549451308319 16.0522520835849143 17.7968664172008957   T   T   T
 13.9887357744132341 19.4813092881056384 16.7308251427534458   T   T   T
 15.7163487926157863 12.7046278728842328 17.8096319694706544   T   T   T
 14.9089813592091449 17.5900316947174389 18.6132998326682859   T   T   T
 10.5594657080516843 12.5130208781865893 12.4145695744086328   T   T   T
 17.6575143408167250 12.3026127646699059 15.4138706965339090   T   T   T
 17.0993548012971672 20.1657395773198473 13.2268576309863448   T   T   T
 18.1923054861736588 11.1899315312198837 19.4664163927437031   T   T   T
 18.9068509513872982 15.6689095968713712 13.5501694241492192   T   T   T
 12.8806870454694380 14.7179027092956805 11.1192018973791598   T   T   T
 12.5199984196288234 16.9544268276436085 15.3926466614135471   T   T   T
 20.2823557115702471 18.0867444504673571 12.7527038098928251   T   T   T
 19.1015463815152984 14.7743214287196043 17.5048627550315388   T   T   T
 12.3975549966865355 14.4146068219215859 14.1222733639835045   T   T   T
 12.5295470026078171 18.0056350730689161 20.5898835713431367   T   T   T
 17.8823358459348185 17.6565578368811096 15.3150801900021349   T   T   T
 18.5574734731917985 18.8263485249741613 10.5892455875347427   T   T   T
 13.4481138636529014 15.1956480112432519 18.3214738930193768   T   T   T
 11.9349190631800575 11.9793893933067004  9.9102359543546648   T   T   T
 15.4434499723545109 13.4364790321648275 11.7332014073413742   T   T   T
 11.1256519289235314 19.3712238366671095 18.0717877654006145   T   T   T
 20.5227460664723509 12.5839578142300095 18.1126871453891631   T   T   T
 16.3813395313829417 16.5871157852770494 12.2486949029301382   T   T   T
 -0.4621749189026980 -0.0963323002979845  5.1305913948785200   T   T   T
  4.7459841961277762  0.2236346634567702  0.0227359934676970   T   T   T
  0.1289556826999446  4.8757036391470452 -0.1335501530469337   T   T   T
  4.9167149805233805  5.3700622743112740  5.2292106850066267   T   T   T
 -0.1342162630082120  0.0434276067665206 15.4125619079117211   T   T   T
  5.1648787282705957  0.1858831164164894 10.1584674405956310   T   T   T
  0.0082694697133861  5.1776905137007141 10.6417036115040542   T   T   T
  5.4188639673628627  4.9571420527076713 15.3207048038981402   T   T   T
 -0.3229057382335651 10.4567343553658247  5.1566357764245652   T   T   T
  5.1031564231035640 10.0922632398858987  0.2226943841668158   T   T   T
 -0.1310659030970721 15.2303316616928051  0.1684574135202690   T   T   T
  5.0564382962904961 15.6596677561307480  5.0168594256473487   T   T   T
 -0.0359259617392794 10.4369800363026357 15.3775451263951535   T   T   T
  5.5321957500484995 10.5695894987715118 10.2973119236425106   T   T   T
 -0.1936632446750817 15.0239476011051423 10.8065365801761448   T   T   T
  5.1340469684403613 15.6726012472290606 15.7039357185578954   T   T   T
  9.9496615795781569  0.0746526583723453  5.0319353412832415   T   T   T
 15.1276196658650317  0.3079187386138470 -0.5602617278229216   T   T   T
 10.1257889190760650  4.8556356935378764 -0.3532868032735398   T   T   T
 15.6232151752383572  5.1764024882383408  5.2232071419323978   T   T   T
 10.4314899872063354 -0.5633707390032574 15.2834392500355776   T   T   T
 15.3673569292066929  0.0810562284095251 10.3188943534219426   T   T   T
  9.9946174537048211  5.2140350549580115 10.4185627764254409   T   T   T
 15.2971523192095535  5.0374804417839263 15.0956181791216792   T   T   T
 10.4146854636990902 10.2341316428833853  5.1630475029722875   T   T   T
 15.4831586928174847 10.4948895338949040 -0.1604287685808701   T   T   T
 10.4099559700219189 15.2758294831015018  0.3142051953613824   T   T   T
 15.6146781739001561 15.2174698249056419  4.8116993858304120   T   T   T
 10.3772871411108980 10.3632449155427011 15.3995605456870823   T   T   T
 15.3010313509166807 10.2307639809739115  9.8963857630298122   T   T   T
  9.9453514365158409 15.3908378084852657 10.3410718030480755   T   T   T
 15.9122961015353859 15.3532208819716924 15.5277104568864939   T   T   T
  0.6891825246024832  1.3170811076827380  6.1248513796970716   T   T   T
  0.9121188762447067  9.4205334148422128  3.8379102177342550   T   T   T
  9.1156855355189634  8.8772681724174856  6.4143246547064603   T   T   T
  9.2834977445722551  1.4040585257416909  3.6398954523317792   T   T   T
  6.1957717512125416  1.1665176737205334  1.1872452812092735   T   T   T
  3.8034228710918363  1.4898888791902574  9.3536731645741273   T   T   T
  6.5987247949789714  9.3511579735640602  9.0086943814834655   T   T   T
  3.9342856408177700  8.7223606430867111  1.1875521147998944   T   T   T
  1.3266275389077282  6.3149597000384956  0.9909796642871163   T   T   T
  8.9802953855698746  3.9630258250580273  1.0894084713023218   T   T   T
  8.7461380209064377  6.0122575331403132  8.9476148303852998   T   T   T
  0.7856199448944038  4.5443941164334056  8.8436224263172019   T   T   T
  6.2769870757800001  6.4577903933040810  6.3205763260095251   T   T   T
  6.1032447488589634  4.0872563286835231  3.9283339755139273   T   T   T
  4.0729215156031930  4.1737167830911472  6.6391862569860915   T   T   T
  3.4646205608843363  6.3079691726180718  4.2624899962249723   T   T   T
  2.4363758265635451  2.5477958255348927  2.5988137058666312   T   T   T
  2.4771509116819828  7.9459651270557536  8.1096581542378754   T   T   T
  7.6154793279407968  7.6577871525753602  2.3822878863726906   T   T   T
  7.5095641883673130  2.7493834182549755  7.6758041290828842   T   T   T
  1.1838400882737135  1.0998193379370760 16.6092610695356342   T   T   T
  0.9443128274230000  9.0455984656534838 14.1016253611565592   T   T   T
  9.2733490164223955  9.3467874476293389 16.8000898567987065   T   T   T
  9.2467543251414348  0.8327470185982445 14.4026550812162366   T   T   T
  6.3888033676069451  1.1398674121461685 11.6176669673947686   T   T   T
  3.9069663468734870  1.4969504471267649 19.2071964229433654   T   T   T
  6.2722617647562249  9.1367065478561162 19.4079103598827523   T   T   T
  4.2849449076556310  9.3634600563196830 11.4190618758070794   T   T   T
  1.2992175479340564  6.0614345262116878 12.0286309940568898   T   T   T
  9.1131924298510025  4.4325516081222975 12.0497029618733702   T   T   T
  9.0279485149010377  6.2961873812434570 19.3223780709241595   T   T   T
  1.3306534773566405  3.6069061783291754 19.1889534283578271   T   T   T
  6.6270938067936678  6.1622078427015321 16.4132501407144993   T   T   T
  6.1181822879685237  3.5332126408604081 14.0525474677681874   T   T   T
  4.0436427433559157  3.8786347318476828 16.4920781172055015   T   T   T
  4.2127919173375696  6.2584480640224252 14.1755913767423980   T   T   T
  2.6621588671204046  2.5885200900442862 12.3836867479570678   T   T   T
  2.6282727120129818  7.6037290412878615 17.9757288450531476   T   T   T
  7.7646316409666003  8.1622273754340657 13.1326476141234476   T   T   T
  7.5097306804094979  2.3143744553258760 17.9652217604649849   T   T   T
  0.8649008699277647 11.6741478763564714  6.2415390067340564   T   T   T
  0.6464177214745169 19.1944743090909498  3.9923934668131551   T   T   T
  8.7346914460024170 19.3511925676179288  6.0956926231983148   T   T   T
  9.0728156576784169 11.5281624951626647  4.2804309221364862   T   T   T
  6.1214427776153419 11.1770517490448480  1.6019557593849687   T   T   T
  4.3487857246248289 11.6810134021948535  9.0201006010047458   T   T   T
  6.3519835525929969 19.9381745358586855  8.6748370819857534   T   T   T
  3.5613905835541679 19.5870120636843481  1.1115198864911060   T   T   T
  0.7592337610286931 16.5166228913176383  1.4439334203747416   T   T   T
  8.9809739808868549 14.1828142871249216  1.2187836632527633   T   T   T
  8.9678512816197227 16.4987008958643919  8.9821748323928361   T   T   T
  1.2161158494753666 14.2759161799797933  9.4885665373154406   T   T   T
  6.1439202075577590 16.7881178762478598  6.4398935007251570   T   T   T
  6.0844579865917243 14.3442697067976219  3.9083906306384826   T   T   T
  3.8528225936203073 14.5604077702013850  6.2570170667608966   T   T   T
  3.9242257703304344 16.9127097186607394  3.9494358139898726   T   T   T
  2.2838505235354756 12.8859841056316746  2.7571277257446334   T   T   T
  2.4595872987496548 18.1476286885624241  7.5167530188295739   T   T   T
  7.5040013666479579 17.8762864255502834  2.3079097748934658   T   T   T
  7.7382511497462056 12.6199996424349177  7.2263745331224687   T   T   T
  1.2020619665840866 11.0339083045804003 16.9036043559180378   T   T   T
  0.8670892693458103 19.4679234484071202 14.1724629795324049   T   T   T
  9.1587983181688699 18.9216704810005751 16.7588554793792852   T   T   T
  9.1438584928458564 11.5254719656819660 14.2186024436153389   T   T   T
  6.7724924106815800 11.5112327337461302 11.6466354602081008   T   T   T
  3.8157444263479072 11.4672374987054440 19.6337538635999529   T   T   T
  5.6577263213014053 19.3442680414749617 19.3280512069273911   T   T   T
  3.9513794987188677 19.3909694236283059 11.0838049464695523   T   T   T
  0.8675985078113065 16.1220860574764906 12.4652394986085042   T   T   T
  8.6627435616544162 14.2937212367331892 11.5927248030681689   T   T   T
  9.6170864594549368 16.5827554691175649 19.5053314603565831   T   T   T
  1.2600117050266195 14.0860792329903681 19.6619995515254224   T   T   T
  6.2258751904552287 16.8283593788061729 17.0230815725128366   T   T   T
  6.6010228453840574 14.4599219026002661 14.7220593528485324   T   T   T
  3.7194237688725895 14.5962542327801419 16.8153520654352953   T   T   T
  4.2354840632707242 16.5815557085651548 14.0648065039037764   T   T   T
  2.7679884170640658 12.8640210655779441 13.1437024391157173   T   T   T
  2.4421269694985424 18.1710357993809595 18.1240890803401236   T   T   T
  7.5909516735307419 18.2756997254601998 12.8062984031563456   T   T   T
  7.5916200320611233 13.1138133055812780 18.0451309011211407   T   T   T
 11.2607846355902925  1.0232068178128459  6.3291616438448388   T   T   T
 11.2831028616217246  9.1292416190767423  3.7628112500029767   T   T   T
 19.4848470014797428  9.2080538805686523  6.5902651195428996   T   T   T
 19.1835982108327912  1.1273160703738301  3.7417682082109978   T   T   T
 16.6306636230406681  0.9452130774833882  0.6905671920576979   T   T   T
 14.5737462028503941  1.3422002561084989  8.9147757609508602   T   T   T
 16.6500478654013122  9.4070448865223479  8.7060559463582781   T   T   T
 14.3816121988000560  9.3570977736843517  1.2774758500871255   T   T   T
 11.6349355016904745  5.7090691791700303  0.6455682866480343   T   T   T
 19.5298453777646657  3.7245116177313253  1.1522040388453334   T   T   T
 19.3494621875077044  6.6172493487033659  9.7539945361339448   T   T   T
 10.9737584323384354  3.5437338147598219  9.3528159431708708   T   T   T
 16.8039241530767569  6.0681479442044068  6.4457723456253779   T   T   T
 16.5265117573773637  3.9708081219549332  3.8776740275407073   T   T   T
 14.1627733370526183  3.9186217873792430  6.1545230738218226   T   T   T
 14.6034749383276665  6.5629251794025016  4.0126442792952242   T   T   T
 12.6561876106071978  2.5894238621954875  2.2822174258109849   T   T   T
 12.9654227875790991  7.3898587481166116  7.6612633363468401   T   T   T
 18.3096014610363440  7.5363520834128446  2.2363775607919880   T   T   T
 17.9257520551861802  2.8494818393746346  7.5577330605565187   T   T   T
 11.8292071740179416  0.6083771433528330 16.6045805410850384   T   T   T
 11.3991455642552033  9.0577695683144022 14.1996033428670749   T   T   T
 19.2561036657095812  9.2215453434206403 16.2748137066130596   T   T   T
 19.1411962255591206  1.5768949839154263 14.5356042870498765   T   T   T
 16.8038274997708541  1.1064799477839746 11.3682471096668394   T   T   T
 14.0019627695814410  1.8504934559047337 19.2855661566741361   T   T   T
 16.5896033396639666  9.1879499419407775 19.2428530763982906   T   T   T
 14.2576437386278201  8.8684065848084099 10.9801055887520693   T   T   T
 11.0430678252081105  6.8924284579868047 11.1411790112506903   T   T   T
 19.4438463862806117  3.9282485711441173 11.7635243418649527   T   T   T
 19.6040069848517291  6.1977277504838852 19.0011790855281326   T   T   T
 11.0434688174407043  3.5119829644758696 18.9546282131326365   T   T   T
 16.3847371125695105  6.3387707458394527 16.2850867317970796   T   T   T
 16.6844110443744427  3.8444631536076019 14.1626843192011673   T   T   T
 14.0928555404446438  3.8319579963179700 16.1856776782105314   T   T   T
 14.0957571113449767  6.0815936356436229 13.7558850339159271   T   T   T
 13.1250925989789398  2.6837107696205136 12.7165729108741452   T   T   T
 12.9121916598500164  7.6259808918975880 17.8750174386118559   T   T   T
 18.0749587090942896  7.8047969403023467 12.5660019511095982   T   T   T
 17.7576613317192056  2.7914150322308346 17.9148271208548664   T   T   T
 11.5327978672417544 11.3284709612374908  6.5202332497435371   T   T   T
 11.1523073361844887 19.3533351358450787  3.7596222022869146   T   T   T
 19.0220464746837905 19.6708173043523153  6.6086406879967123   T   T   T
 18.8550386648937405 11.4128696750399197  3.9954140546801868   T   T   T
 16.6703384709049729 11.7103680410386133  1.0626077472477409   T   T   T
 14.0808430882946940 11.5491360415437914  8.9987753102466801   T   T   T
 16.7397353809497531 19.2652800499233408  9.1472281376393401   T   T   T
 14.0797612109313679 19.4507747817695318  0.5860999570610993   T   T   T
 11.5932964799995872 16.3403871216003544  1.5226818697595195   T   T   T
 19.1126540223213581 13.8480250884044569  0.8399027009123403   T   T   T
 19.1525000858940970 16.2105400572097480  9.5155284642279074   T   T   T
 11.1007866218298012 14.1299536127028116  9.2291162154059077   T   T   T
 16.6033458473712301 16.5871703134910256  6.0045985617464996   T   T   T
 17.0478812433213847 14.0660157850870817  3.8804649886211684   T   T   T
 14.5851706077982222 14.0955134336536219  6.0935886611791021   T   T   T
 14.3941863654342139 16.1085801162695503  3.5515975204654757   T   T   T
 12.6411085257520934 12.8028865200610706  2.7713252042322343   T   T   T
 13.0367181346478702 17.9187273970062613  7.5395243534684582   T   T   T
 17.7229570356878341 17.7352551497586290  2.4196548478298809   T   T   T
 17.8236418481348124 12.6628542718570714  7.5275768265464933   T   T   T
 11.5395642262771254 11.7526186545863638 16.3911744495039073   T   T   T
 11.6421100387694700 18.9049900671750102 14.0966602326224191   T   T   T
 19.3039002014853196 19.3666486910361790 16.5853070950855610   T   T   T
 19.7724340297463712 12.0176076743159665 14.5179539940162243   T   T   T
 16.4330487605163924 11.3289231602253064 11.1829548710030711   T   T   T
 14.0663526523561053 11.6666112212781581 19.4669883882182795   T   T   T
 15.9567597498795468 19.6275910921314818 18.3887284393328763   T   T   T
 14.1301015488376489 19.4123485915782581 11.3977500755711549   T   T   T
 11.1762426705873530 16.7433121963656895 11.3520894491405695   T   T   T
 19.2048017228732135 13.5370242272607282 11.6455685680250074   T   T   T
 19.4151191659209914 16.6402352207360522 19.4681218643702749   T   T   T
 11.7136439003986048 14.2079595431171093 19.6633867086075682   T   T   T
 17.0348269098399001 16.2401024940899710 16.9572015591936278   T   T   T
 17.0198073596288282 14.1909901742577915 14.2528778880478058   T   T   T
 14.3703806735874089 14.1395005928885826 16.2927169235943552   T   T   T
 14.8203376031489977 16.7532308368698963 14.3622270734360384   T   T   T
 12.9891961382096603 13.0091348142979903 12.7159241649016437   T   T   T
 12.8385845171674031 17.7661504458280177 17.7335357288922637   T   T   T
 18.1563155708122324 18.1426593413376125 12.9282833125262044   T   T   T
 18.0580282353469883 12.7029638247261847 17.6381982698588260   T   T   T
 -0.0080278781613040 -0.3769086318257650 -0.0210556044610730   T   T   T
  5.3037671516955758  5.2156782350505511 -0.8388337526878308   T   T   T
  5.1037378342451616  0.5049458656621896  5.2272393927440914   T   T   T
 -0.1276581069577604  4.9794934375161608  5.0887980237522408   T   T   T
  0.2845815910484784 -0.4146034247779927 10.0277447272682938   T   T   T
  5.4976009895035149  5.3742345873683757 10.6651926439411575   T   T   T
  4.4497024085756038 -0.3014313400951494 15.3525092101956435   T   T   T
  0.6475721489003317  4.4791978744936340 15.7245374631684758   T   T   T
 -0.1500755157759940 10.2659051517154776  0.5580960275144283   T   T   T
  4.6289175732659311 15.6583965096646924  0.3163482499470540   T   T   T
  5.1498841326567941 10.2594612780679046  5.0609426174007073   T   T   T
  0.1782514111355094 15.1901401858535277  5.5131931712632971   T   T   T
  0.2913675186908395 10.3519471531902258 10.3018355894575571   T   T   T
  5.5187762242739948 15.2479378761343281 10.6559391735093172   T   T   T
  5.1531083745948267 10.8688424124815679 15.8077813414881003   T   T   T
  0.1532237334792806 15.4660934746676055 15.9013647677290209   T   T   T
  9.4772279444433938 -0.2932765293378321 -0.0899996683530563   T   T   T
 15.5946301110337888  5.6004171282220128 -0.4480774752584978   T   T   T
 15.4980666882735907 -0.1592643899163610  5.0826664111777049   T   T   T
 10.6460834863714702  4.4974896558036077  5.5417503575397538   T   T   T
 10.1099322597571586  0.6496551124290613 10.8066165607149482   T   T   T
 15.3162031807195813  5.0685392867906085  9.9686706600913109   T   T   T
 15.4034798589662376  0.3822673052448914 14.8843229171396221   T   T   T