Li P  S  Cl
 1.0000000000000000
    25.1819793006824639    0.0000000000000000    0.0000000000000015
    -0.0000000000000009   14.5388225279766061    0.0000000000000009
     0.0000000000000000    0.0000000000000000   37.2126966544236950
 Li  P   S   Cl 
 288  48 240  48
Cartesian
  0.7165986890335131  3.6497754944658807  6.1620693499527253
 14.5930778249556656 10.1338235284992617  6.3425941200295499
 18.2039898432927352  2.4592856761365915 12.8953952955772593
  5.6375271064247556  9.2169617670508863 12.9520610663657738
  8.6562232074002061  3.2755546899452774  1.0340707467608363
 21.0927959964141927 10.3897289192161431  1.0270905470521376
  0.2319980160705741  4.7284587662921700  9.3437801352648417
 13.3629063975186337 12.9828065180743568  9.4286737839437897
 16.5557537740421488  4.6463867492882622 15.4860315058428970
  4.5346744943288186 12.7416885237040258 14.8761413210757159
  9.0174386010057841  5.4752439258112302  3.1696486220213749
 22.8997137330717742 12.7658268728072475  3.3503337872109666
  4.1256720728665748  4.1986754477567816  9.7342354644845308
 16.9365951188042061 12.5290257188117771  8.9135098027720474
 19.8440334329153210  4.5153631978870790 16.3911606930993941
  7.9282117015437823 12.6300141817670895 14.9448750385334836
 12.6502241383517227  5.0460478381673273  3.2706733764500830
 25.9928628660818930 13.0598979251567631  2.4855315399715980
  4.2628727285964665  4.0545053055481324  6.7162938751389509
 16.3844069054778849  9.9228390354114424  8.8100852096560427
 20.8370800667657683  4.2410784593854167 12.9040670255047232
  8.6911732010384899 11.2221486456281454 12.9047680491612518
 12.8059452776570115  3.6098185475221185  1.1262149416528873
 25.0416333276560614 10.1894593211814222  1.0448542019186677
  2.2998878675790744  2.3479302859767333  9.2382527066929274
 13.4094216747551496 10.1807071862824614  9.4221061490251667
 18.8401590471546392  2.1259153453220168 15.5885302671426764
  6.2597127694144126 10.5251751865957317 15.8939640754740452
 11.2458443787762921  2.0958449343847478  2.8028682949726718
 22.7969797638336260  9.3614918686138271  3.3890724162928736
  2.2523451055773096  6.8419052249151582  7.5537156347679133
 13.4650937955551875 13.1867661796293767  6.9451711111276646
 17.5842586429800924  6.1011430262920259 13.1636046787134262
  5.5034821018166751 12.5317845796767759 11.5680894713214641
  8.2490840610919030  7.5247194684992333 -0.7611485099447163
 23.7959895972664910 13.4654401036249443  0.5227787900511479
 24.5122454439635113 14.0683130657698960 12.1200876800159296
 11.3533897679890021  6.2455105855045323 12.1270714531207897
 14.5874245359782169 13.6148426585398532  0.8551434099217462
  2.0786336339330820  3.1406306015574628 -2.5899900646605167
  7.7038480169606558 13.4295938634266001  6.4396046453453071
 20.5212469608884760  7.9279446294510265  5.7640489192602731
 23.0380606410406656  0.9351314092331365 15.7679600347135533
 10.5772904426152543  7.7995046989443351 15.2656895101123613
 14.8619318895073835  1.6170751078948420  3.1227718153646897
  1.6945659640623985  8.1989532119649695  3.1815190103450766
  6.5579156704843351 -0.0525576955108080  8.7828456104076480
 18.7985372319904016  8.1263304166407035  9.0856931627319497
  2.0122899482362611  2.1487336086520736 14.6754946968002571
 14.1594825675557114  8.5215097445457921 15.2150406010568560
 18.7049028138353393  1.7679796589798016  2.9317629940951928
  4.9077107525857855  9.6606966400240584  2.6078025797937259
  8.2998433923714376  2.4841176476312876  9.4552041099016559
 22.8323114790325441  9.0507734041658594  9.3932404038010606
  1.9601657351176753 -0.4984112428969968 13.5614330819013489
 14.0003748795439336  7.7484507146950978 11.7158675722651839
 18.0824905212669407 -0.5505697869850154  0.6377239463170973
  6.4024455929673838  7.0568502852906621  1.7089646978110065
 10.8295641845317281  1.6934774350752706  7.5225596087402025
 23.6247659812029411  7.7755647712208846  7.1087451756943212
 -0.4529192063515609 13.4651789828320698 15.4313928601969117
 11.7276551872713188  5.4900353554195522 14.8291867849597789
 16.6787321654095422 13.5962709214620414  3.8678342510986101
  4.4251094971676679  5.5534580121040031  3.1771743287366023
  9.7905808254425626 13.6709248158369405  9.0948051284355955
 21.2622201364658494  5.9792096755312025  9.3325905564314162
 24.2187243676041923  2.4904941425686165 13.0420035473663880
 11.2037995297743596  9.5324096910172624 12.9362689680358631
 15.3251017191539649  2.8055132643352696  0.7335234210094159
  2.8507528869593104  9.6221262763665365 -0.4592237446326696
  6.9996776827322247  2.3901890729568165  7.0333056297222578
 20.3105187293843272 10.3954238349521582  7.7111917869679090
  0.9671053131536630  9.3922834664377923  6.6168192103538308
 13.7751146377238918  1.8964762300115157  6.8285474637328889
 17.5474798627103894  9.4896743114701536 12.3649374801395329
  5.0304549067473676  1.9199962054492203 12.4745170416800946
  8.6065944869317050 10.5627677345524873  1.0699650727225545
 21.2489606222499958  0.0704986489056825 -1.3911331735389292
  0.1403027166801618 12.1734812642186636  9.1600110541627320
 12.7456900288605528  4.2462894531072264  9.4764703467116060
 16.9436634380555091 11.3124150643230887 15.3049223470100131
  4.7585591461625096  5.1762821842407787 14.5810156811743994
  9.6611189297114546 12.6075477525668482  3.3092344481932665
 21.2585134376006195  4.2504289167887181  3.3764859249308823
  3.5365840706056160 12.6652014145014125  8.7049868831018138
 16.1023862874980033  4.2235309249137041  9.8910996040205710
 20.5378741594413974 12.0000746367253850 14.5412995337627429
  7.8582795549155922  5.0489489222913742 15.2698013903887908
 12.3614848491854463 12.9794249015020426  2.7762596645487863
 24.3498848246641515  5.3575157923844232  3.2750973900156723
  4.0540758163485915 10.6548360943480134  7.3318322753093081
 16.8902625387663754  4.4097717396802372  6.9272903757462414
 19.8826439034020517 11.1205970176129298 11.8100586591047598
  8.2670753068413081  2.8463648303872469 13.6573829002555875
 12.9657437229541568 10.2119632894579802  2.1665660920052248
 25.0746034052034510  2.2395031904528198  1.6687960729146041
  1.9680704666960576  9.8832919365165033  9.4873760829552989
 15.0040629236652201  2.0524331212088298  9.7127810970089534
 18.7741972287136676  9.0888336061491870 15.4066601701061039
  5.1509500346847581  2.4804553610687132 15.7726206439462704
 10.8535273363622551  9.3641669843516873  3.0936270201076965
 22.7994745899631681  1.8579337574765833  3.7552269062206216
  1.4109481827569135 13.0096844746236222  5.8120449994186618
 14.0463923030536932  6.3499096960092594  7.3708388208045976
 17.5138980621608553 13.4256248194674974 12.8404761224246773
  5.9222070628036017  5.5594070315453665 12.3844537139235200
  9.5452089454109910 13.4037204729816661  0.5795543647206536
 23.1994495567975250  6.4154420627748330  0.8428116665773393
 20.1808622841874943 13.6396027216208484  7.1314320597766043
  7.9952532103873075  5.7220196635076412  6.6366680338601052
 11.6075645509814187 12.8145925351228271 13.1813423301300912
 25.3753524339414014  5.9892761687874128 14.0111244724964248
  4.6802377899795236 13.2111293954451483 -0.1674334878616489
 17.0847682321433609  4.7513935659272217  2.3654064445228338
 19.0031080931710683  1.4201741368457834  9.4138370798076281
  6.6901586177258556  7.2666326002139527  8.8434918217923837
 11.0380230226175513  1.3499218235808341 15.9098683312922464
 21.7238741359957750  9.1393784324503216 15.5753750369876940
  2.7795879871767912  0.5254814977809882  2.2997972103631730
 15.6634911045391689  7.4355834077047653  3.1837115400841425
 22.1716094087808848  2.5631850637777798  9.5035229302217967
  9.2583779309234746  9.8866355692950183  9.0145830367443747
 14.5385145799902773  1.2109600886646130 15.1506623483431326
  4.1348662810197894  8.0496206773462315 16.9107645345439437
  4.9014508801782162  2.5917813639012395  2.8523146894786509
 18.5528905334451508  9.5865278232587503  3.9303157440850560
 23.4836383050285455  0.7426959564159874  7.3911645211519037
 10.6138513723063639  8.2868359504522413  6.5378711006430850
 14.3828989056854688 -0.9755480466169937 13.6217902113439617
  2.8822074943043967  7.6623707504987957 13.1252872405936660
  7.0106863660163503  0.4241952588959119  1.8003411404835010
 18.5760240548565960  5.4595040328973141  0.2159319366577488
 22.1400287597119778 13.8649086481141364  9.3573065171928089
 10.1676959659295303  6.7738563375809484  8.6037211988266726
 12.6791143097402834 13.1031722004153277 16.0669260663433917
 -0.9386195483473890  5.1618648584719926 16.6077194024792227
  4.9930400819209773 13.3091835739564051  2.7330516304582613
 19.2457567650822163  6.5037904458515596  2.8116600930026916
 19.6781821393538330  2.5793205581679377  6.8368614943547641
  7.3563614049522457  9.4057225615062041  6.5352060889630117
 11.0245739160104606  1.7880188402433963 13.0515369459877757
 24.3278412086564160 10.1937823278693713 13.3330602567164593
  3.6758656000255607  3.8238332406342592 -0.1124848301872410
 15.9787705475474588 11.1566287672081295 -0.1007152704545768
  5.1311772800415305  1.3504653054021012 30.3895792332770753
 18.2860529357474846  8.0301368279357721 31.5550754322531724
 22.1954836522843379  1.3977378861244476 24.4875625813503710
  9.5330631268194459  8.7375880565466701 24.4653404864992687
 10.7236008129099112  1.5511853835988696 36.5080063538254507
  0.1345309752845190  5.4589678069880323 37.0024336149900250
  4.3804193042840147 13.7879363187955253 27.6408748579731913
 16.6833345207983115  7.3117133182892511 28.1694288016185652
 21.7839859308640591 12.6755987791499223 21.1199306779299327
  8.8477365540588853  7.2632961350452874 21.9051936985450517
 10.9492923658564134 12.3422360440388843 33.4320241898720312
  0.0355909422403655  5.1666707559927980 34.1184653419319801
  7.3809295073333132 12.1927578557350671 27.9541441658501135
 18.4462382874738182  4.1634162035906535 28.1296163343232060
 24.7593804039063521 13.7821740850672594 21.5703742543085646
 10.5605167270189124  4.5823361549815838 22.2734217208481518
 14.1077066859092142 12.3521397115331126 34.2284678561881677
  3.9899289976147179  4.5632309589476652 34.3262887749349233
  8.2407146704214078 -0.8606173903292430 30.4794131866863012
 21.1635613013933366  6.5399451777146584 30.2748225421175015
 24.6781707202703373 13.6666533113018414 24.1640875709691691
 13.0762592302430249  7.0551698939660401 24.1851504776855677
 15.7159759930820915 15.3869471165051763 36.4398321463077934
  4.6016752015608677  7.0020081374641157 36.7924394046492935
  7.2008966461368464  0.7667903856538062 28.1725691767945747
 19.1036412885973341  8.8008447448966525 28.5266492400287071
 21.5721318343882906  1.3727455334044325 21.4016410293842263
 11.5521023369993294  7.6025760739704999 21.5140763055686222
 17.0145561941975494 -0.2638381081546463 34.0919475318329432
  2.8810879707936925  7.6092015982029153 34.1392177806335368
  4.9396086475340146 12.0049198993426707 30.4204330574209720
 18.3113616481456738  4.9358711883477371 31.6286496075475689
 21.8934350267579205 11.8054372709052764 24.2589211464498860
  9.5324993512618885  5.1168579231301958 25.0744542207623589
 12.3543070813903739 14.8492493535554058 35.1769327491394392
  2.7152800038983913  6.3114179389674714 38.0656977500213074
  3.4460178001955044  5.0566067953830673 24.6096318526325284
 15.4485742767404926 11.6003825598181169 24.5011840553459805
 19.0715168954948986  3.1907572172611314 34.4146664110244416
  8.2875323525530327 12.4007458656372762 35.9825285188794410
 11.7030522764807863  5.0074184061702338 30.6536666332343266
 24.5834306480395455 11.5408968590649970 31.0410925946574778
  2.4862255114768552  3.4783355854346363 21.8904372163832797
 16.0391052061154760  8.9256378025934549 22.0068369267482637
 20.0633324799198078  0.9901565903663134 33.1204583964677042
  6.5939841494858884  8.2587308680445108 33.7859474661191328
 10.7105203529181026  2.0744342377783918 28.4017309792804014
 23.4486949458579055  9.2560237668901788 28.1647582637486771
  5.5735754427775914  2.0407877187291579 21.5492187148876084
 19.4228206406415325  8.7662968315937047 19.5577474549767949
 23.3700688812030855  1.0346407665286419 33.8095604316596408
 10.0355065640702641  8.5656926967744624 34.6122559501271922
 13.7201629880064697  1.1354923544963866 28.2678755355069313
  1.1427899383967168  8.4900311136521065 28.0453198762391729
  6.5887062422175333  2.8136766769425572 24.0412733724441239
 19.0483358173572590 11.5537225301438369 23.2296629999303406
 23.0554848255961566  3.6573577327213926 36.5915553334621748
 10.9638744358288598 11.0740645190735396 36.3542348199665142
 14.6636422057217075  3.4265429264898768 29.7186857341500819
  2.2356563434150480  9.8549783155168811 30.2262697903479349
  4.8886879583177452  5.2075373948010597 22.3181591309842808
 16.1791986995400947 12.0587027658782588 21.5029969658147913
 22.2063459661536413  4.4006481863007370 34.1052592563252404
  7.5101166359169724 10.7732304148594302 33.8242020743641518
 11.5827276373906560  4.2420917915832659 27.6867458939249431
  0.1972887737777517 12.1848810411549717 28.0046025375193217
  3.7558947583031643  2.2963147518474742 25.5687634315841201
 18.0620260274411244  9.0933633538564909 24.4972525610940082
 20.7949102920068327  2.2806726814036073 37.2662558902180336
  6.3142524774770461  9.8102791345234515 36.6587078822784136
 11.6270945307780202  0.9491173876326073 31.1247291340433492
 24.1525373197013273  7.8101781057063473 30.7428749216058925
  4.4328150832406887  7.4267121180750033 28.6595470119035696
 18.9445878715957257  0.7981405575676804 30.3813351909957028
 21.7625031352570595  8.2646899068706325 24.9097390911271326
  9.5331666640447850  1.2458643726734360 23.9294229747210458
 14.7442655048516666  8.7805190589278279 34.1209590861355991
  0.3396980952770577  0.1083022313737751 35.7439220287721398
  5.2653453811769877  5.0596322978816941 27.5288277798862957
 18.0106864846963930 15.0648007895383085 27.6352010242253314
 21.2249927326893193  6.3279349713355231 22.6160720973180105
  9.0710744998983426 12.9293835940729185 21.9752317401562394
 12.5654698679965708  5.6342587877483332 34.3519133756600041
  0.3899204399699297 12.2758835420287014 34.1438422047464272
  8.0249308817008167  4.9416041971957370 28.1215356454195522
 18.4419293392934520 12.2933403133124433 27.3862939286711615
 23.7544297747007747  5.3363427222362407 21.9099762895329597
 12.1781908930305445 11.8992348108054031 22.2489472201432044
 14.7500124972773996  2.5092728850684334 33.4905975586928335
  3.5200260042898561 11.0758412943877094 34.3203303136741980
  8.4251261258712109  6.8644265894244469 29.9599179034910676
 21.1712075883900077 12.4720407591120299 29.9393453056297467
 25.2417595394915963  6.3866405100718104 25.0714307415340585
 12.3629152881150244 13.5777871119609763 25.1522717106868505
 15.8417124897118295  8.0724320956260325 37.3824253915178417
  3.0824295632995282 15.4641537995221086 36.8303986160374706
  6.5858273691041749  8.8631060335497391 28.0887805710797593
 20.9827952740477350 -0.7420522279804510 27.2671142116810223
 23.0438979925659133  8.9037684765001988 22.2966412814209676
 13.0557802490417547  0.0677893523585165 22.4016990302568608
 16.7073291215218092  7.1412940446886974 34.1733124750155000
  3.8292602921607206 -0.0688568227916131 33.9571264184665011
  5.5723477612180945  4.9986587083699874 31.1660809697308743
 18.2307154225895616 11.5860759935646414 30.1854582979268891
 22.1587337935503434  5.0269246791994089 25.3081392221431578
  9.7335382720930106 11.8980614848825113 24.5700231216314755
 11.2732485090197798  6.4968715524464402 37.7009137136083510
  1.4895470037008016 12.2844785046572422 36.9198040792520175
 24.4982818784203502  4.9677628123445583 29.3168137052444102
 12.7645502390416752 12.5604662769169941 29.5926299282903109
 15.4623820853052614  3.0808930833206882 25.7252227641127824
  2.9945412467070143 12.0434730780116652 24.6847665647642671
  8.8544759121270431  5.6528469900387188 33.7802501703733853
 17.5175373323634354 11.7411330664678051 34.9525891392312289
 22.9339144914029411  2.2924199030745909 28.0546542948299518
 10.7456180091851685 11.1562017810753833 28.9989554295855143
 14.6195735361711847  3.7962550766069585 22.2350224642491341
  2.1894416248489881 10.9628383030032790 21.9922947077610367
  6.6317612090848268  3.4348213116300088 34.4485458060136622
 19.2730299025277638  9.0160288523519547 34.3786405456162285
  1.1893303704201303  1.4907219759671970 27.7990632887010172
 12.1736076608985719  8.3736021603323678 28.6340545701459313
 18.2317775336404289  3.1507146345349231 21.7290232825697629
  4.4318525319410060  8.3804551299581806 21.6756017541693211
  8.7238824518099332  0.1809255594517630 34.6806049156709406
 21.9661313985023767  7.8874662936184174 34.6985765547390699
  0.9843486608365781  2.8302035683685207 31.3289824585770589
 14.3286506576426227 10.4531860701499095 30.9632044424856723
 18.6676859002724242  2.9827989670637822 24.6396664289706528
  6.5705765413499586 10.3079792953398197 23.9948380954778671
 10.1841935236037386  4.1245806463197496 36.4162065958531045
 22.9033546420096208 10.9907651796569503 36.4208439834129720
  1.9234877546281270  3.8938558095646205 28.3236725150864004
 14.3603483365749209 10.0980464224339510 28.1979751525939264
 15.8858247831837716  5.4932930718082496 24.3247247994095730
  4.3177375247745138 12.9850116425992379 22.0780424691633250
 10.2568070174500701  2.9539547218076168 33.3921852895228710
 21.1818020826627738 12.0700354738912363 34.5337082085628921
 24.0238989255857653  0.5316894079178435 30.2827713052207272
 11.7529297758587585  8.6703376216698302 31.7988390401870333
 16.3939303461549954  0.7667186511874570 23.6749872145224707
  3.1453437460859166  8.4631262552458573 24.3116973933757983
  5.8389943256310115  2.2010382692864132 36.6953777803207259
 18.8239565634201504  8.5640638991360944 37.5161202268083684
  0.7480576367981772  0.1869757745776398  0.9374330283640124
 12.9860071310064651  8.5931593650435047 -0.0745702253473332
 16.7940565826707058  0.6377112294611088  6.2374529393965883
  4.5682298106685044  7.7111522757961364  5.8189007349772988
  8.1641324205264514  0.4580805425499427 12.1036930166081618
 20.7431427272689604  7.7423111002017855 12.2548955352897622
 22.9820265594969051 11.5977255169065927  6.2044203446798916
 10.6725721437873791  4.2267577146464852  6.0263830553058337
 14.5633128564156493 11.4638499579897921 12.0534892902480575
  2.2798326823133848  4.4712066494313438 12.2222781351005878
  5.7935359015986183 11.5181749036671395  1.0533376934920040
 17.5399851039908370  3.1963934072017577 -0.4464366241493718
  4.2575854136237705  0.5243604676605738  5.9376975202325060
 16.7785230524585991  7.7959913945489943  6.1406446310661709
 20.9936988366792470  0.4909897370028361 12.3932368773697981
  8.4215563393092019  7.7476723231443696 11.7496265757739469
 13.2200485766498037  1.6166311706626908 -0.2571222431586899
 -0.4942809292110207  7.7489773863601306  2.2510795465792710
 22.9736511515738790  4.1518232169175846  6.4207156889354895
 10.5996685104700479 11.6307903348018939  6.0656889454725746
 14.3029151947066442  4.1803289288067260 12.5027236617179547
  2.5052918178692303 11.4401570246449733 12.0657483950852509
  6.0215956581930801  4.8206257007825446  0.0658186674073520
 18.2770980231524725 10.8455902851025421  0.7916178702002450
  4.6515931759638409  4.0133551767443389 18.9573586363701700
 16.5353649107936107  9.9585841152568477 19.0738602475974055
 21.1909582685450246  2.7377995691596011 31.1581101352545247
  8.2121342582900301 10.0961222633013037 31.1258016701824438
 12.5118605470959672  2.9830984461633574 24.9565018967954551
 25.0807410866568326 10.1002701703361346 24.8486459220601290
  2.2220662117097576  6.3678237494614356 31.1956862262167576
 14.9621676788979521 13.9225126136363127 31.4929263577021423
 19.0188244177587578  6.8310452301288889 25.4420295198981563
  6.2579751727956889 13.8602807486325936 24.7557377608422229
 10.5584502039855650  6.8264724237702019 18.8151900939780568
 23.0532623378658030 13.7043744149041249 18.7716791172512636
  8.3173747296237117  2.7718520743460666 31.0002182520576177
 21.1961795680560172  9.9745435604092911 31.3645057521000901
 25.5512606279372037  3.0746269883990833 25.0922668426064099
 12.6661840090517064 10.1506234697879787 25.7066988293488947
 16.9818081262388745  3.1077425938313268 18.9913750566753166
  3.6637801736407622 10.5365638187787685 18.6552322070177539
  2.2630555636014962 -0.7223030232725816 31.0586516075131165
 14.9577577931473460  6.3364440238817634 31.3923440803423830
 18.8531611782902644 13.8424629432452235 24.9824146782459060
  6.3248379426263046  6.8401231461704564 25.0613437694033863
 10.2083281044991985 13.5048610685287063 19.2152110363155373
 22.3384747464019355  6.7343274812613565 18.8670028330707460
  3.7740541329427502  0.4748771769854543  7.9278943134800626
 16.4361108334722132  7.4333720116381157  8.1861522329946084
 20.5532749144555282  0.5316964250803619 14.3650662967686404
  8.6012786952750329  7.8299698688184707 13.6949195530455778
 12.8386052102568033  0.8712227949906920  1.7509152540509441
  0.9185324364541363  6.1461095003006472  2.3140079753829443
 22.1556747262951674  2.0180119587147884 11.8327087812933627
  9.1387187293238519  9.5464040179249192 11.2256431445394327
 12.5980559738343274  1.4989018704061325 18.7283392980581880
 -0.1038687777887509  7.2202784217229388 17.1416242625440951
  5.3515124121178488  2.2959510160230741  5.3270033834903199
 17.5432456029179136  9.7558726319340767  6.0094002480105813
 21.7235888611695671  5.8870489528781205 11.6157781765604433
  9.3740134929243357 13.3245836718224471 11.6154694977007420
 13.8543679897807301  4.9306471018855147 18.3018312358672723
  2.1300301405829392 13.1944731994906306 17.9720436879687462
  5.4415340999300179  5.9390044745852615  5.1816648696409491
 17.8945671083231908 13.4386766219096838  5.8529243628400662
  6.3306251827162825  0.3074496486439011 11.1255329371633671
 18.7535027376605612  7.3013051014456085 11.3397434059465532
 22.6444077665709109 -1.1610550389757075 16.7707843881538992
 10.1789469661882990  6.2728091761390878 16.8260016261873453
 14.7334672857531483  0.3124382098750824  5.5522729243304658
  2.5064654743158545  7.6245731546481093  5.3745289546107768
  2.2816406447957434  4.4048274252291728  7.9932810051824328
 14.7864163499082775 11.5280887482066561  8.1818286751478517
 18.5771824636946867  4.2337317176041367 14.3674343579732362
  6.4252401099523810 11.4206084554334080 13.6552680092844181
 10.6998963375726373  4.2833666333388036  1.5969870388854099
 23.1704033124988769 11.2371793136577516  1.5072978168688516
 23.0176384848489093  4.4378547209429975  8.4324650282310820
 10.9946410762349540 11.7262145119879460  8.1338960339121886
 14.2241029076557428  4.1632878253263348 14.5894760495309335
  2.4139338059774289 11.9064447939923124 14.1309874855073172
  6.5670470050342269  4.6951924897958488  2.1413811280880672
 18.4075313450776967 11.5909947540241340  2.7133376101918474
  3.3182456266942348 13.2209201661116911 11.0753871724931070
 15.3708834274631982  5.8350329204126590 11.6580444997448982
 19.5109161950688978 11.5967869821197702 17.9279496147136292
  8.1196778428071479  3.0153711308971172 18.6963098454979502
 11.5186775416340499 13.3919010068793440  5.3270013367122466
 24.4987758445620081  5.5472458486958809  5.8969666631655722
  2.8422072434392147  2.5659034340638964 11.6883332385736090
 15.3288656030247790  9.8419588208673172 11.1781232235344099
 20.6676713931083036  2.1889720354009272 17.2005955549914624
  7.5928280468923663 12.0511070237676421 17.2524617661268849
 11.8790543518560145  2.5287365134354074  5.3596988635020244
 23.9702849493189269  9.8702360662953019  5.5979904200195358
  0.2750921833368098  4.5936990156793787 11.6597927117094304
 12.6083770519169498 11.5565619919351619 11.4493354290528178
 16.6164027635412239  2.8753718491010378 16.9778682363208944
  4.0254959271802493 10.3498767689253857 16.7030226707250691
  8.8175359890731801  4.0997536664740286  5.1912186945408179
 21.0515708948209017 11.6560113336866404  5.5924704698173553
 -0.0915316731867121  0.6456729021978312 14.0374020553847636
 12.3713879463701595  7.6054310205762077 13.9195944547000785
 16.8709679697860686  0.9159929882867146  2.0424034876205477
  4.1421365505220331  7.6910456634783291  1.8134921952857299
  8.4022036107267031  0.6232630345001039  7.9246846087449105
 21.1882030621053730  8.1086006979091234  7.9411415462709742
 23.9983289059079752  0.3406576314130187  2.2938494548925621
 12.7909817104773005  7.9817100654839201  1.9077766636672073
 16.7751555512119204  0.5870344885307156  8.2693278768774903
  4.6001122160627954  8.1392729258377869  7.8791607959573904
  7.9824639207104306  0.4987212993145387 14.1061830573440012
 20.3766468267687735  7.5999210076546921 14.2635550257891790
 21.8920210841539635  9.3472537472130082 11.8010149146253553
  9.1187452661322439  2.1668970590951484 11.5179662447397746
 14.2663309944021037  7.0219711429908349 18.1625414807680414
  1.2460920116703498  0.1556702532661668 19.0713752500574678
  5.4517354647306719  9.4829322004391372  5.0683513693635538
 17.4675738795991187  2.4166555428120948  5.4437338440169247
 22.0520591707657339 13.3743478815289762 11.7666883615947988
  9.4363985608680636  6.0539418097565250 10.8740923802639813
 13.9035792344839830 15.0026673860080173 17.3341806183507892
 -1.0022266946084308  7.5036810645761784 15.3909262420158708
  5.2978777850461167 13.5242501692167387  5.2420325696036629
 18.0444905774667603  6.3714928398953417  5.3851644924075117
  2.3972400885262135  0.6741236391224091  4.8932525869250378
 14.8208338995522837  7.7571484621617754  5.1856144533598050
 19.0692986891024781  0.6620408623144750 11.6966050414900931
  6.4222899045743000  7.6199455545114212 11.2418616127310003
 10.4987359305475465 -1.2523532525671210 17.2716445249894548
 21.2917782622596903  6.1851928051609590 17.2624000329291469
  1.9121636289100969 11.2237525794997026  7.7707790946857767
 14.5269401824483975  3.8241130459853898  8.1772528717247397
 18.3830921258374218 11.2842249276963749 13.6271005503766478
  6.1991100447690179  3.8850123027151691 13.9253089823290228
 10.9470928943905275 11.3338665454778571  1.7053679474188017
 23.1246801220202514  3.7879277146900021  1.8428984353922884
 23.0866696220889835 11.4344955322522512  8.2514724937781061
 10.5134222354143230  4.0844799042244144  8.1541567501793786
 14.2725411399886912 11.2762766739972005 14.1308843939741049
  2.4095183109946436  4.6290405698007380 14.2615794340658120
  7.5365100979026494 12.6503902400443380  1.5014906432916537
 19.3770130237330065  4.0702536505772500  2.1660024972562617
 24.0989673536350750 13.3007691811760171  5.6135811002065488
 11.6683571479753851  5.9117918013060278  5.2963218129884568
 15.3592610485860988 13.3307973234347337 11.4893762802194406
  3.4724817665622529  5.9800365911433868 11.1709935202606125
  5.7464243350749218 12.9768764397508960 17.6440939184828522
 20.1866177036778538  2.8353041877874303 19.0398978030353021
 23.9231292274345186  2.3577063424754758  5.7429772860835397
 11.6558389688571005  9.9915801362310503  5.3861234853414794
 15.7827038472632939  2.6898737064028277 11.7584242968752051
  3.6576759427267023  9.9416824154869516 11.5876283707706200
  7.5792261623833905  1.0907355462473212 18.5414354017253444
 20.2582421301382070  9.7378652590628931 17.6659354851650292
  0.6500857544951819 11.0297337398839499 11.3731891720443006
 12.4233928482809972  4.0757475622799788 11.6820960476084128
 16.4892162294490738  9.6451791642885851 17.1274641923580582
  4.9050307923565422  5.0244542705112174 17.1396845204634509
  8.7136909567835303 11.4943300400866875  5.4543179618038300
 21.0756014361075685  4.2516964540087665  5.6925389733149565
 21.1800409210920613  1.0761947295744294  8.0313564748941708
  8.5565781610576934  7.9789485380470611  7.6406281227312061
 12.4143778550872685  0.0265234844790528 14.4193946230648375
 25.5618692645483954  8.5236030010043446 14.2266357604508897
  4.8018954027849450  0.7256797870547758  1.2774810118448028
 17.2351907860980589  6.9932687533271300  1.5890661140574662
  8.4800718674312421  2.5020469286636788 28.9803383677764614
 21.1009406719198580  9.9993062308608778 29.1805437739938895
 25.4423572620478993  3.4807061809127164 23.1652008936341680
 12.9275361742269972 10.0789971194528452 23.7099162434976307
 17.2096212069848882  1.9278125346324999 35.2258381193110708
  4.6914233756764077  8.8488175915782410 35.1366064617409393
  1.3188242933617749  1.3191441669266351 25.5127511577709747
 13.4946154171518291  8.4410707890061047 26.7004688817161124
 17.0302869447477221  1.7366446589031386 20.3550158367251584
  3.4041563766639427  8.6699985173861478 19.3470080298329030
  9.2730106897410778  1.2228527117216832 31.9089807277624686
 22.1295026527488936  8.1580582109135111 32.2184430850349202
  0.8155644213538421 11.8466231235742132 25.6163323789126380
 13.5183132648288797  4.8306100947321937 25.7061259593893148
 18.5390206382057094 11.1828377618182948 19.5904163910784099
  6.6737380797723267  4.0840991122323089 19.7922628041796074
  9.1010691246328346 11.7968480452537658 31.8319639017611387
 22.2083322512178647  4.3833910717739215 31.6335919124326601
 10.5849593998966007  3.0755037231525093 25.9129119936531112
 23.2688204877045592 10.1670953759717140 25.6716854529528149
  3.9650129166180523  5.3495086384441990 20.3201496093138694
 14.8953176325700394 10.8509919439422031 19.8533001398747118
 19.1926216440436512  2.6437255759283800 32.0001494513042033
  6.3412012473773816 10.1141259564173112 31.7919293067408262
  6.2603690039197692 -0.8030708423167847 29.4552994448369034
 18.4694248295349794  6.5769340619412535 29.8034795530367127
 22.7195058780629431 13.9869281554375124 23.0563284448632331
 10.5433819665200197  6.6789907874610623 23.5791144607158536
 15.4443881939077432 13.1506797182878064 35.8437641900221138
  2.3689813435864666  5.5912880069612969 35.7441695877622294
  1.8769899560260235 13.8133717888529723 29.0486807792880519