Li P  S  Cl
 1.0000000000000000
    25.1819793006824639    0.0000000000000000    0.0000000000000015
    -0.0000000000000009   14.5388225279766061    0.0000000000000009
     0.0000000000000000    0.0000000000000000   37.2126966544236950
 Li  P   S   Cl 
 287  48 240  48
Selective dynamics
Cartesian
 -4.8821312336587965  2.3454630593291075  5.9348075532480706   T   T   T
 13.8023767359880623 13.2594557348589888  6.7445259579707511   T   T   T
 19.5743576306241494  2.3694958648314124 14.0175987293207420   T   T   T
  7.6195442325443024 13.7862770249528879 12.4769587655518599   T   T   T
 17.8857407754806275  5.8381850813898462 -8.9125050955018406   T   T   T
 20.0428450792907498  7.3900732664554942  8.6051277818066918   T   T   T
 -0.3204459055760781  9.9253390245191540 16.0221943765164845   T   T   T
 14.4230062810685666  9.7599352944958717  5.9155953402711958   T   T   T
 15.3797467132070480 -1.7208135980260961 20.4487759160059817   T   T   T
  3.7063710803794492  9.7891747786947185 14.4012862802354586   T   T   T
  9.6204441883963909  5.5714122716723065  2.5088774004869068   T   T   T
 29.0277354928081408 11.7841839129482757  0.4177141626103368   T   T   T
  5.3886417419031511 -0.6637722985125288 16.3675861329199748   T   T   T
 13.4679494030291131 10.6489219436008078  9.0742753257636579   T   T   T
 18.6360365131110157  5.9076744822230962 11.8889073227230480   T   T   T
  8.6052078948003992 10.0468921364450985 20.5578913857963848   T   T   T
 14.2949266636332641  5.5223078977411575 -2.5467424604917395   T   T   T
 28.4740043753835366 15.0498872575405791 12.6778065812274630   T   T   T
  4.1090451545700812  5.5133034892156632  8.4858992708528866   T   T   T
 16.9940059261394936 11.6157450608602915  5.9641294839914245   T   T   T
 24.1202625926427174  4.4751482738353268 17.4552280986241257   T   T   T
  9.5735243306009785 11.6967998833347444 11.9658090794336758   T   T   T
 11.6661701465447791  4.0382792460847323 -5.1316420407108509   T   T   T
 26.1837303696482948 12.9266883230548437 -0.2703916743188720   T   T   T
  0.9692943944124621  5.2433010867184517  7.0569596822560099   T   T   T
 15.9941312322819904  9.7136673071958342  8.5998160933041543   T   T   T
 30.4318749048773967 -3.1368686326819022 18.6630330548221934   T   T   T
 10.2161238020702392  7.0098356188780109 22.6758175826161725   T   T   T
  9.9066552275429043  6.1962083913979766  0.0427965557799049   T   T   T
 23.1431992803643993 13.7486394449536888  1.9711327120840740   T   T   T
  1.9416153176108646  2.4353582890538785  5.2252616654123258   T   T   T
 16.2527138457518632 12.9175372469732714  8.7750147186967702   T   T   T
 17.1553405023736616 -1.4791466750123492 13.2435236727418193   T   T   T
 13.6896681513878722 15.7472572698549307 11.1091669742268842   T   T   T
  4.2505448369059433  9.4273506695041966  3.1852122991191005   T   T   T
 25.6301361582697922 11.8008360823092318  2.5864643008005368   T   T   T
 20.0900545283537539 20.2927017531571217 14.7439063886268329   T   T   T
 12.9239325154340818  6.4487685341953389 11.9219624612664781   T   T   T
 19.6860871899006469  9.1292442599788117  3.3008690022311615   T   T   T
  3.7366294744045105  5.1628671345790504  5.2568944779750924   T   T   T
 10.6886914451624637 13.8804521185666658  8.1595339304220129   T   T   T
 23.7977161498208432  7.9163273625716846  5.6419198702965980   T   T   T
 23.5426002494244173 -0.8843619197743325 13.9448653460223486   T   T   T
 11.6489792419970186  6.2117362220566674 14.3338544352528476   T   T   T
 15.6520213192386599 -2.8758813329515243  0.1551521429375708   T   T   T
  1.9842388399466739 10.2475174575894030  5.2445936836404421   T   T   T
  9.8652519933482523  2.2751419435883564  7.9290653627649839   T   T   T
 22.1324249941608713 11.2422534131488057 12.3453825163468967   T   T   T
  0.4739153503437924  2.4660983403513357 13.9656100316123091   T   T   T
 15.8075853986426527  6.2611837432012081 14.6465337977396306   T   T   T
 13.1137359689541224 -5.0838785985718440  0.1487115575539548   T   T   T
  4.5105532078092256  6.5879885981063504  2.6134226478429343   T   T   T
  6.3064720470421225  4.5971515783162813 10.5502486881383142   T   T   T
 23.8886946133384370  7.8380599306371295  8.9997380679517498   T   T   T
 -0.3593235338592439  1.1425497779218372 11.6335270725858333   T   T   T
 11.7342097513454018  9.3249531656473295 13.5373791538147792   T   T   T
 21.6881996607226881 -1.9049731207205904 -2.8535204082902972   T   T   T
  7.6416849429183165  9.6722536212114747 -2.8194289737257430   T   T   T
  7.2644122470521886  0.4388678284341831  8.2458826253053026   T   T   T
 24.2395912272010889  6.7497281676032213 13.6012571732373360   T   T   T
  6.2049554120409587 16.5374136790006716 12.6481470545499075   T   T   T
  5.2230700042739189  6.4800771318593515 20.4909505762420174   T   T   T
 17.8509289645593228 16.4975094286050030  2.4136049083116466   T   T   T
  6.7654884178884522  9.1109594812545041  2.0840929157230863   T   T   T
  8.7367634403895895 16.8337158873474770  5.1017659374457853   T   T   T
 21.8624541733850819  9.6508875401851384  9.0000658040310810   T   T   T
 25.3941666660326533  0.2131299578054250 16.4343244534402153   T   T   T
 13.5085324366955142  7.8006551664704169 16.1552392010770980   T   T   T
 15.9702610003197982 -0.8572583947229614  2.7988157320452154   T   T   T
 -2.7146845162963866 10.2556332559783101  2.5420148753862941   T   T   T
  6.3047596833782800 -4.3881860890959832 10.7425603132023948   T   T   T
 25.7491889312617062  5.7894556554303831 10.8089351355814483   T   T   T
  0.6546971453508594 12.2148407159646766  7.7506118773393835   T   T   T
 15.3992424900248555  2.6703656979046904  5.6796549412127373   T   T   T
 13.6473929580844136 12.9895461981073908 15.0064966772604436   T   T   T
  2.7582318579387790 -1.1268881934297876 18.3403734130729212   T   T   T
  9.2888388005804305  9.3423190493898467 -0.2329492138323078   T   T   T
 23.6960074867928654 -1.4813253483456865 -1.4368996138144208   T   T   T
  2.3241728629996952  9.7315761148473428  8.8848758080750478   T   T   T
 13.0647945460474819  3.3061601776202694  7.6943915182666318   T   T   T
 16.4925020847800923  7.5637892519812615 19.4842471906780759   T   T   T
  2.7402214246036398 -4.5976973363102349 21.2862826183343259   T   T   T
  8.0650000179394059  7.0754064921267110  4.9826668296348000   T   T   T
 21.3242436426313020  5.5904228660667075  7.0094503085393267   T   T   T
  1.1540661771586818 17.1463904645131109  8.3844793649743377   T   T   T
 16.0244693211758147  2.3113790325670807  8.4878562553386487   T   T   T
 20.9138891021956042 10.9175886537912490 14.9377165699085328   T   T   T
  3.0025554964493195 -2.0642277773752209 22.3750886441334593   T   T   T
  6.1773801315646129 14.1976466774041015  1.7639735964864174   T   T   T
 29.5594015172802074  2.3809897825874784  7.5831046542714056   T   T   T
  8.3522854836970168 13.7829051403398459  4.9854377839041870   T   T   T
 14.0623733653257563  6.0293434461683333  6.4940370898380912   T   T   T
 18.4154620336920161  2.0634513763732247 11.6348358705482262   T   T   T
  7.2952006598472305  6.3966404856271017 13.5747345862709778   T   T   T
 10.1636197378000155 13.5301164277228843 -1.7584457512895222   T   T   T
 22.6854086829256687  3.0282968331231936  2.6968028962704551   T   T   T
  5.1785993489372526 12.5410897308237779 13.1618576388962705   T   T   T
 10.9103608405720607  6.6298183606843342  8.5042146782328381   T   T   T
 19.9206968048682000 12.1589668946866460 10.6954589297805249   T   T   T
  5.3072227600125119  4.1897599271232338 14.4483787820963432   T   T   T
 13.0056466617039348 12.0831293943797959  2.1667760689545346   T   T   T
 21.5705612737197825 -0.6316074558812521  4.8707996983372546   T   T   T
  7.3142524630542392  9.6206476153740006 14.2676462197823675   T   T   T
 16.0055929555375727  5.6686767236426983  8.8697198298679254   T   T   T
 19.6487103757398316  9.2506094528746559 13.0416735033200837   T   T   T
  9.5963890830857945  4.1394930438766329 12.0836041798788756   T   T   T
  6.1237292236853396 13.5748898131009241 -2.7447391457963963   T   T   T
 25.4663924081573683  5.1182065696648671  2.1998375461894222   T   T   T
 19.3536409987453126 13.4629072297157535  7.5284130539940408   T   T   T
  8.0478306919030960 10.0597421632089983  6.2206928647530493   T   T   T
 11.1322407781461603 14.6259386566547995 14.2931332167200047   T   T   T
 26.8382118843903683  5.6304236834650698 14.5507010110472876   T   T   T
  3.3067394656340996 13.3036922740107535  8.5341846589680408   T   T   T
 16.5086363478595715  2.4875860687825222 -2.9364724850087689   T   T   T
 21.8857229114747938  4.1718109042405533 11.4363308104772763   T   T   T
 11.3215712795366734  7.8062013926086715  6.1007850612445829   T   T   T
 12.7542773511314138  2.6812105730408775 13.6239878251467275   T   T   T
 27.9421556758793059  8.2267583751203581 11.6172423434670584   T   T   T
  3.7730196061668431 -1.1441969193474761  2.7051929081749519   T   T   T
 14.1630523059343840  8.8693932295969091 -2.8046874657471430   T   T   T
 26.8820478312002322 -1.6489334837577039 14.3874188783810784   T   T   T
 15.0943687014626811  9.3139543246253176 13.1205608158072273   T   T   T
 12.7711681006801232 -1.9537127490868036 12.5634987729669927   T   T   T
  0.2386617386895260  9.7654958407882297 12.5149455570257562   T   T   T
 11.0831188339702287  0.3804577889857954  4.5183451403612320   T   T   T
 20.2173417784291658  7.5755770092310204  0.2922719812305436   T   T   T
 23.6073226217253307  0.9597469861221671  6.3556803561459709   T   T   T
  7.2935976669050016  8.2087391859394110  8.3692728742773426   T   T   T
 15.6594307875787013  1.3830011465502394 13.5881855151414541   T   T   T
 -0.9620104146761314 11.5320496114952462 18.8944261905937658   T   T   T
  5.3143638241121378  8.8059339401961729 -1.1626527381038980   T   T   T
 17.0033067611743931  9.3400657067367909 -2.2197827753999313   T   T   T
 22.4274310394644161 13.0576161263792621  8.5429432617310574   T   T   T
  9.9166727889194561  9.8940972568324490  8.6426276717159833   T   T   T
 11.0959391767916138 15.5326195810051573 18.9082184727764790   T   T   T
  5.4288015287132625  2.0621891729981958 18.5802884891261542   T   T   T
  5.1236849294468847 11.2171856904208056  6.9954068704623404   T   T   T
 15.6745000051561174  0.6007223511691673 -0.2153619043507254   T   T   T
 20.7464004373541115  1.9297168537460865  8.8935435390465649   T   T   T
  8.5303234806290167  5.1968833465859019  7.1583450851414154   T   T   T
 14.0748423351341536  3.9747645057657914 19.1236545843068591   T   T   T
 33.6909194126668083  3.0579849685640963 14.8558171075226824   T   T   T
  2.9873304406495698  1.5019993406662215  2.1879254354833284   T   T   T
 18.9728455696338258 13.0254704673913935 -1.9188208971438683   T   T   T
  9.0903483214603611  2.6974148516457412 32.6336292681598650   T   T   T
 21.4180490740155065  9.7004303761886383 31.7690446859340945   T   T   T
  2.3213901657600151  6.3216996330446262 23.6195061855973520   T   T   T
 12.7611866459078698  8.3447619011459118 25.4850115926728478   T   T   T
 20.5031405932515440  9.7802970215489964 43.7337881262154866   T   T   T
  5.1625768502407601 17.4648721285290058 40.0599485307063645   T   T   T
  9.3836379457989505 -0.1198522290947591 26.1096075024406069   T   T   T
 27.0308547054183350 10.3246595748156160 18.3281931383483148   T   T   T
 -5.5000128339659629 -0.5780651342306068 13.9704039739663308   T   T   T
 15.0515101204028152 12.0332258036640134 23.2945674932226616   T   T   T
 22.8596858279806483  6.7839953242331701 37.0221834287957847   T   T   T
  4.9265945285527248  6.8964704878227767 32.3795226742145843   T   T   T
  8.2306312817438663  4.4875087747663187 29.2719651368117404   T   T   T
 22.2820830781596229 12.7816959872800524 30.1771091214940661   T   T   T
  1.9225412609975399  2.7469833313889409 26.0800120967411679   T   T   T
 15.2181555211715960  8.5902207189935211 23.9388600674865195   T   T   T
 17.7250042290749690 -0.5754725100183338 31.5599216752334542   T   T   T
  1.9052129372646944 13.5194417135828076 34.5301556948926986   T   T   T
  9.4103694861784959  1.4442041010548434 30.4383022009816706   T   T   T
 21.7356704027099710 11.9611646002080825 27.7847941529760973   T   T   T
  4.4683595114850485  3.3001332764655862 24.0406369211427524   T   T   T
 13.4279307745405578 12.4466223833264849 25.9665830055207145   T   T   T
 22.4423445790595224  5.7819859311804480 39.9883107466572909   T   T   T
 10.5130877125281259 10.0574468224598625 40.1611883292216731   T   T   T
 12.6708567069186007  2.1871065842277027 30.0967148583668376   T   T   T
 22.7087904224072403  8.2107427017858683 29.2875600807329199   T   T   T
  0.6202589399722941  5.4133881355873603 24.8477021887002465   T   T   T
 11.7734580052386857 12.3601690690200030 17.8849523896300724   T   T   T
 19.5802084514621555  0.9621340949969187 36.7824606502815641   T   T   T
  2.5657774796319193  8.6597242364931617 37.3106344273865034   T   T   T
  8.0662633460830211  3.7219942109099473 24.2398882499039239   T   T   T
 24.2636566607786719 11.0204200299305484 28.3834520208260166   T   T   T
 -3.8290735636462383  2.9644814429946997 18.3532024119452899   T   T   T
 15.6375088182201072 10.7702622977827005 26.9758730251771759   T   T   T
 18.8197871646617401 -1.5173226099257104 39.6979244992345599   T   T   T
  6.7798692013292072  6.4815087275185892 38.2146476984523389   T   T   T
  7.1382696903956884  9.6089770748329961 23.5377784729268384   T   T   T
 22.3769453022569493 -1.2184857158615205 22.6764363602547370   T   T   T
 28.9290571743265659 10.8549311650757119 34.5270306505640860   T   T   T
 12.6489522479858234  4.9653514485433918 39.4355546134991641   T   T   T
 11.5261995059458755  5.0905127034139159 28.7290020945317117   T   T   T
  5.6252536164663729 -1.3166173332825473 28.4974941918512208   T   T   T
 13.8772905934540862  1.1830955898126103 24.5070153720896755   T   T   T
 20.2988552251363643 16.2865633886583048 23.8977610306615595   T   T   T
 22.9479426851081598  7.9938744442495713 34.2760256899428555   T   T   T
 -1.4894666433833610 -3.5231993098392071 32.3640246829888412   T   T   T
 15.3315518216419573  4.8553505408287636 30.5009277353677319   T   T   T
  1.9004252349916151 14.1871500657157696 29.0775511419203525   T   T   T
  7.2444213211636237 11.9109261338863952 15.3818350838507971   T   T   T
 22.5791867845186829 14.6946708326413962 25.6241316590938908   T   T   T
 -0.5326340299368892  3.6175044203458819 36.4781067658828420   T   T   T
  9.5465118933627906  9.0658633857473454 31.2512945970950327   T   T   T
 17.4728774033828529  6.1299418892601585 32.1214256304156152   T   T   T
  6.7707972020054950 14.5664161264339533 30.3684181883408328   T   T   T
 12.1875925055628898 11.8228491997601743 22.2482869923568174   T   T   T
 20.0208806490640185 19.8230807620765290 24.3672860482260916   T   T   T
  3.2888120258975437  4.9106540784388946 34.5857509369449758   T   T   T
 15.2867275611596352 -2.0291573137558472 33.8935529265243929   T   T   T
 14.8938605375452884  7.2248286184206405 28.4868099618208959   T   T   T
  3.1086293648426411 16.6444732418785293 31.0804329000439701   T   T   T
  6.7887078535191199  6.7860308420520097 23.4298311225803104   T   T   T
 19.6999556725787173 -1.8297798800459297 25.2407165347146254   T   T   T
  0.9022961785665931 16.3136185508537395 34.6724517054866652   T   T   T
 12.8340530879026566  2.3231062684972303 38.0233565657209027   T   T   T
 19.7846407094904322  7.6069040355704320 26.1399643287462986   T   T   T
  1.2613345238397722  4.4306873736375332 21.1436438989377642   T   T   T
 12.4542907526078270  7.1117219946942907 19.7014155123465748   T   T   T
 18.3465679032429989 16.1277583902535646 20.5244338768491907   T   T   T
 21.0161767855690442  4.6088285881357702 36.9036138409816346   T   T   T
 12.1751410583326862 11.4127323392680715 36.3183609014059385   T   T   T
  9.1506895883412813  5.6237313803940578 31.4962758007350132   T   T   T
  3.1222425946383909 13.8468250677472469 31.7902514586319427   T   T   T
  9.3894475682590794 12.0507176096573332 32.2501197918078617   T   T   T
 24.7679498685786612  2.7260140983341095 28.3758148203592029   T   T   T
  0.3316340672127210  9.5681076367732665 22.7499188557903018   T   T   T
 15.4444439154251256  1.5490330365378921 31.8032869071372133   T   T   T
 21.3495483692480050 12.1961912135582118 37.4487754722509720   T   T   T
  2.8690892803448933  8.6179917589304686 31.4589626337808106   T   T   T
 12.0676930681086851  9.9142691304073693 29.2273624459765919   T   T   T
  1.4657257703996120  9.8858732678609691 25.6892574645149807   T   T   T
 13.9405902424747783  4.5200307577028029 26.1304872369148882   T   T   T
 16.2428058606916252  7.8524028701669684 39.7513146144008971   T   T   T
  1.9300049711045721 -1.1522674874332333 42.4638286652163686   T   T   T
  7.8934683971289310  6.7539408915849952 18.9987967836231171   T   T   T
 22.0357157724481425  1.9984409942629386 31.9060636516885303   T   T   T
 -5.9913020888422714 13.5778158199929173 22.1692365849298909   T   T   T
 16.6571746638972513  2.7380289985891300 24.8067849554511071   T   T   T
 15.6258407244571185  3.9492318035576979 37.5519935785145265   T   T   T
  3.1663141595744855  5.0852595326328869 37.5450361177745151   T   T   T
 10.7174968929824885 15.4053896757498485 23.7038343342696969   T   T   T
 23.7033117458362241  5.1896536401089888 28.9689418462764010   T   T   T
  6.4294669984242585 13.5574824928493314 23.9621829656491485   T   T   T
 24.4330031263008109  2.7486528156424792 23.7430117223866510   T   T   T
 24.7501161364979652 10.2205803866847695 36.9965153825905588   T   T   T
 12.0424501308899021  4.0163918609576790 35.8546991121089320   T   T   T
  9.2847019646172111 12.0477252903095717 28.8178716404800497   T   T   T
 21.8768412156437080  4.8355334563522749 31.4872982503871199   T   T   T
  3.1726995014181849  5.7724981521771506 18.1245387464126360   T   T   T
 14.7309459281751600  5.4869236096310026 23.6718362509592524   T   T   T
 20.0217051077898418  8.8536820036162851 35.0117653419481627   T   T   T
  9.3266049626110767  2.4528118591083015 38.0875810666715466   T   T   T
 12.3040200047989376 12.4515596458693913 30.1910675316300718   T   T   T
 20.6596548930369792  2.4215360421433982 29.0083523008996629   T   T   T
  4.6044577860170683 10.9969767009414241 24.9600070032782959   T   T   T
 16.0793261563384888  3.8712454988106977 22.0811138636563733   T   T   T
 17.5774955137401463  4.4898943638340034 44.1625400958301100   T   T   T
  3.5548902380081935  1.4174567624732890 36.1235516914454138   T   T   T
  3.2254582885941629  8.6347933751829018 28.3393643129092752   T   T   T
 14.5815200775400200 -0.6511189332732279 28.6974774987956494   T   T   T
 19.1268414334252554 10.7435235347341447 20.3901041325896699   T   T   T
  8.9327925683623874 -2.3907517994609111 24.4317176398301825   T   T   T
  9.4604316503892925 12.6448673421996354 38.8159938245428293   T   T   T
 22.4397824186755912  0.7938868716419377 34.6596064864056927   T   T   T
  1.7873327853141532  1.3896924263654309 22.8218823324654032   T   T   T
 17.0979745205745317 16.0352326796846363 28.8001975605488276   T   T   T
 22.7669280424654517  7.2317498487907370 25.5224045565205948   T   T   T
  6.8816032590318414 15.5577880866135665 26.4469064194916754   T   T   T
 10.5290195175633663  7.5639196404350981 34.7426857673123521   T   T   T
 20.0662602145323916  4.9799705070735785 34.6501913482164099   T   T   T
  4.7763485805528703  6.0506460140801765 28.2529913479910526   T   T   T
 18.6395225993290268 13.9958500883118475 27.5666672055625455   T   T   T
 19.3148114585866537  7.1442561655562571 22.4269901471163102   T   T   T
  7.8251182411672531 13.3745652991578972 21.3231870061134394   T   T   T
 12.7216491004855161  1.4328558716024704 34.9226480544672171   T   T   T
  4.1190269550368575 16.9092581358212044 28.5283945167529573   T   T   T
  6.5268713879918492  8.4998520391564369 29.9924418860845776   T   T   T
 25.4735451429059978 -3.8306902147962165 30.4114132137230300   T   T   T
 16.9503627064136424 10.5193486222722115 24.9173844799732827   T   T   T
  6.2908193535870485  7.7487359526020514 16.0960422809382493   T   T   T
 16.2821432285554408  9.0716742789826128 31.0251767515211831   T   T   T
  1.1594694016599685  1.3147892055746051 37.3759849691662112   T   T   T
  8.1907825450156189  8.0868134947292489 27.1562168409836282   T   T   T
 16.0476437590998628 -2.4523152591626425 30.6005167715563822   T   T   T
 22.7530839824168325  6.0596886988803123 22.7818362178757745   T   T   T
 12.5169214106927349  3.4974452183047586 23.3003719388566921   T   T   T
 18.8546417437861678  8.0823854821403707 29.6661527488727543   T   T   T
 -0.3215950049091565  3.3459340955824639 31.6772326130135013   T   T   T
  2.2808607298867112  5.3669214747194207 30.1411399045790382   T   T   T
 11.8165727838689865 10.7228716169444631 32.9234850501741789   T   T   T
 21.0101613104760361  9.7111177767814816 23.5743077487402459   T   T   T
  0.7110512491061515 13.0123078352393904 24.3870850263299026   T   T   T
  7.4314157155085034  5.8583774811059781 34.8110592951192501   T   T   T
 26.4327108034516769  9.0612917676907330 34.6386776328057664   T   T   T
  3.2821295031658360 -0.3562298174979370  0.6040695261238835   T   T   T
 13.9404220371945726  6.5613854646517566  0.0870569419748451   T   T   T
 17.3663046590652215  0.4795832391922001  5.7440566785428819   T   T   T
  4.9951555820960296  7.9311227708314238  5.6355042868174392   T   T   T
  9.1423607747360709  0.8032356707030810 11.1284772601242885   T   T   T
 22.0397572806600408  7.5165527899009206 11.4970021851430673   T   T   T
 23.6160077345992434 11.3193754174390051  5.2656852990413716   T   T   T
 11.0586538514185904  4.4969927487269716  5.4651268700308426   T   T   T
 15.3208745121645418 11.9561630314511333 11.3949840792158348   T   T   T
  2.9007925150430927  3.8001209025734499 11.4000970561835384   T   T   T
  7.6523423108867119 11.6140451933079767 -0.3821405231226143   T   T   T
 17.9678342351783868  3.3576853039273233  0.3092543402373970   T   T   T
  5.3552738011741541  0.3786060151170390  5.1072073369836879   T   T   T
 17.4616919259342254  7.8793705849716975  6.0578782998258385   T   T   T
 21.8541312883178378  0.5524162962408447 11.5726609821861626   T   T   T
  9.4257713233550113  8.0144061191678198 11.5343196980131530   T   T   T
 12.3353330733609692 -0.5267616621505555 -0.2733303141066186   T   T   T
  0.7510401969474290  6.3987997432110726 -0.6840261971180654   T   T   T
 23.6610433062956318  4.1394040501042024  5.3383670245776145   T   T   T
 11.3998489538768268 11.4716091294853086  5.5431996689117806   T   T   T
 15.1027048525457879  3.8778374980472687 11.9451157074893448   T   T   T
  2.7440990152284619 11.3403129420728987 11.1834040438463731   T   T   T
  6.7352996817060191  3.4634221068085322  0.0198690010177670   T   T   T
 18.2012217744954938 10.1296853985422146  0.9273837667563564   T   T   T
  5.9818895692297733  4.7207634005143806 17.0841164320012595   T   T   T
 20.2914362735216685 -1.4110366978175495 18.6149126120986281   T   T   T
 24.7534073591904686  7.1211590744589186 31.4935167455739773   T   T   T
 12.2277778049209171 14.5539907903963730 31.8898027918917357   T   T   T
 16.9671109743902377  7.0764950317466733 25.2496521193264769   T   T   T
  3.9006552948024300 14.6426120412503806 25.2497752549900838   T   T   T
  5.9820275335722028 11.0993916343892565 31.6787674277982987   T   T   T
 18.6918209315842745  3.6102477401865110 31.5006608344385910   T   T   T
 22.9685410386962090 10.6981707534179868 25.5415197974391042   T   T   T
 10.5514267085589868  3.8580595825439152 25.7067817050658931   T   T   T
 13.9072554497931389 10.1408296570631826 17.9747108657111099   T   T   T
  0.9385311720693481  2.2501983695613843 18.7594029032880663   T   T   T
 12.8301033570856404  7.1721527461491874 31.5683938726321820   T   T   T
 24.9147951674945034 14.1520443650343672 31.6114308601006400   T   T   T
  4.7728183577144820  8.1043800400773947 25.6641315534870742   T   T   T
 16.4668352681265944 -0.3845770455038166 25.7239090884308261   T   T   T
 19.4958958583085078  5.5074103446180800 19.0467204553476961   T   T   T
  8.8267194558703626 -1.3469507191830914 16.9365943455875900   T   T   T
  5.7497472660787974  3.7586719084949745 31.5909766368787466   T   T   T
 18.5743312967329715 10.9682636632370141 31.9411226401969124   T   T   T
 22.4837220935527498  3.7841465627793460 25.6656849675744567   T   T   T
 10.3293414378648531 10.3363256581281249 25.7187536672860944   T   T   T
 10.7342060660144121  4.2625706782596318 19.4240958635275440   T   T   T
 -1.0419894252857380  8.4557375927385401 19.8899689118849921   T   T   T
  5.0692279872126491  0.1593992254113623  7.1590427165994672   T   T   T
 17.4415356188179445  7.8918658470934346  8.2973416651691299   T   T   T
 21.6104025143739165  0.9253942338402416 13.7480956013786617   T   T   T
  9.6469707606108344  7.9629875231545579 13.6238678216236231   T   T   T
 13.5399736166021487  0.0855658970011299  1.2746951617342999   T   T   T
  1.6784574555752247  6.9000774867205177  1.1370665524207952   T   T   T
 22.8666699550316821  2.0088778456456673 10.8024308052080453   T   T   T
 10.3878533052558737  9.7127124355850896 10.9789248908188366   T   T   T
  9.4685428251230821  2.7572262739687781 18.8899403902772249   T   T   T
 -0.4215893313463384  7.8330076984624633 18.0041116764079554   T   T   T
  6.5443429913142781  2.1558888555391946  4.6665003070895628   T   T   T
 18.3819391128869611  9.5800599048724777  5.4837335129506686   T   T   T
 22.9430146261780408  5.9883003603571305 10.5490460074096859   T   T   T
  9.6552601274211867 13.5261929787956063 10.2992946705223449   T   T   T
 11.6915023389770916  4.4763262632136112 17.6575806665767168   T   T   T
 -0.3267643482033671  6.5598322067651873 21.4343221245003512   T   T   T
  5.9560965761547529  6.2568558607594156  4.8816981827946000   T   T   T
 18.6158462977192869 13.3659446684430598  5.0889600514003828   T   T   T
  7.0348142320437992  0.8893248373568333 10.6742268164825571   T   T   T
 20.0472618541329410  7.6514291607441818 10.9836194595570067   T   T   T
 20.6988160074051493  1.4983760543913995 20.0625520510261453   T   T   T
  6.5931404787561094  9.9393276406225404 16.6989045440711443   T   T   T
 15.5208443423900757  0.2096628411318003  4.9466133491258120   T   T   T
  3.1811451079791211  7.7551221348027388  4.7120567506975712   T   T   T
  2.7740306253723990  3.6037413982673985  6.9185819951086316   T   T   T
 15.1725179569309727 11.5245702521778313  7.5135443104637476   T   T   T
 19.6269325626550568  4.0067458575116497 12.4310413397984139   T   T   T
  4.8632271015368165 11.1179194082367054 16.1211411086450127   T   T   T
 11.0649518643098670  4.2567638347558194  0.8212799268126114   T   T   T
 23.5552798837527604 11.6956762001321550  0.6934140888887680   T   T   T
 23.8594403099482122  3.8754559922137264  7.2797036397418529   T   T   T
 11.2853839592824521 11.6876795807139295  7.6896542044536522   T   T   T
 14.9281280467589639  3.7502750782906076 14.0470836936923131   T   T   T
  2.4296534437332782 11.2385166048634559 13.1437222808432317   T   T   T
  7.1302621557051857  4.5166578494839147  1.9492364916993321   T   T   T
 19.9619240273227376 10.9770011697375871  1.8603920044119693   T   T   T
  3.8131026313684018 13.0038636947380510 10.8035509839422588   T   T   T
 15.8471449041808299  5.5358676261002042 11.3988012533528771   T   T   T
 20.7662019429647557 12.2982131223840021 16.8470998056235288   T   T   T
  4.4065348804164151  5.6031973564363495 16.0581524463688154   T   T   T
 12.4114658786797012 13.0987892785695372  4.6042088613132757   T   T   T
 24.5812895422114295  6.0482381809304693  4.8774920645423681   T   T   T
  4.0043220926510523  2.0080754160146701 10.7169425688352966   T   T   T
 17.3029104527253423 12.7326915228892794 10.8016279715271466   T   T   T
 18.2773668675334022 -1.8946555062991226 18.8307468219026362   T   T   T
  5.2523198192906930  4.5241351294671857 19.0340003151702746   T   T   T
 11.9870982152983405  2.7988484519025754  4.9235577486768891   T   T   T
 24.8627079993510236  9.7532470120137233  4.4752489258288106   T   T   T
  0.9010144115051700  3.4619502084813165 10.6496086056667814   T   T   T
 14.8415730613241070  9.9641419440467160 10.8241666880145608   T   T   T
 12.8335670723306485  1.6895266747410131 19.9613327445180282   T   T   T
 -0.7942436104709318 12.4436566919280764 16.4527600738981121   T   T   T
  9.1351209626765613  4.5701971819604861  4.8042473351625166   T   T   T
 21.7891964792588340 11.1396566367896774  4.6106122965410803   T   T   T
  0.8562085728285543  0.2377142221960239 13.6586652696796289   T   T   T
 13.5345276410131650  7.6094282620443083 13.9856803915189332   T   T   T
 17.4554988914712226 -0.1792863523011494  1.0971128197920001   T   T   T
  4.9354050306623236  8.2290865404450990  1.3147222379219881   T   T   T
  9.3460981786127615  0.2833421437420908  6.6393289374958178   T   T   T
 21.9759393319846836  8.1327840666037829  7.1067662077814129   T   T   T
 26.7480735465783539 -0.2609815654552620  1.7715891491045006   T   T   T
 13.8098651369909557  7.8544365616784555  1.5095165881957506   T   T   T
 17.4254874615667319  0.3453361438237442  7.8955192047184903   T   T   T
  5.0509495407271299  8.0348641279228907  7.7379788925822597   T   T   T
  9.3351734616535129  1.0145035405523204 13.1004527443111893   T   T   T
 21.9342976212554603  7.3306610968260673 13.5288968813664958   T   T   T
 22.9764308840971907  9.3139374947454492 11.0106617290277811   T   T   T
 10.0378860631834428  2.4572638040084613 10.3488415887998269   T   T   T
 15.4265202275359243  8.9950788587864352 17.1052588605280569   T   T   T
 -0.8315148352795541  0.9692900065659427 18.4738774288617016   T   T   T
  6.1704570163921515  9.5243726648359335  4.8655110958094774   T   T   T