Li P  S  Cl
 1.0000000000000000
    25.1819793006824639    0.0000000000000000    0.0000000000000015
    -0.0000000000000009   14.5388225279766061    0.0000000000000009
     0.0000000000000000    0.0000000000000000   37.2126966544236950
 Li  P   S   Cl 
 286  48 240  48
Selective dynamics
Cartesian
  6.9865585469301319  3.2025701234877801 11.0072699878595195   T   T   T
 13.7265191295617708  6.1787078098548589 10.5661458696570083   T   T   T
 18.1079865717977171  3.3709200971243325 16.7855332808434525   T   T   T
  3.8917923523896736 10.9619524706199751 12.7777590542297226   T   T   T
 10.8414051886578893 -0.9693416307075169  0.3917262933324680   T   T   T
 24.6891629226656732  8.8241253506943558 -2.1621296808454140   T   T   T
  1.3596310746115257  2.4178276987604432 15.5593310356485102   T   T   T
 13.1139125877932603  8.4619981676422977 12.2598181069640653   T   T   T
 17.8578043883633057  5.0030589944555119 12.4072712712631432   T   T   T
  7.8691625538901473 13.0457553075685269 13.5209601873382610   T   T   T
  9.9296375659432510  0.8166429323268440  8.3967054130458649   T   T   T
 16.6955020470622557 12.0001110818102497  7.9313486409972693   T   T   T
 10.1782931122657505  2.5129977938350296  5.8315669578240188   T   T   T
 14.7417978648205370 10.8188982248889847 10.6920649373955268   T   T   T
 10.7020031424982349 -1.7082894652119889 21.2201746912351403   T   T   T
  5.0790419350675924 13.5205251204935308 12.1880935729483468   T   T   T
 12.9747925301353870  4.1798075120584377 -3.3611400038302572   T   T   T
 21.7938872165891553 10.5126338876456522  2.4687109017095161   T   T   T
 -0.6789433121605936  1.7848344436451895  9.7511749287324374   T   T   T
 17.2334704263153498  9.9482638760437538  4.0842484962333891   T   T   T
 14.6496155494791509  3.3771501354829483  8.7394646227133848   T   T   T
  4.2806893389835432 10.8159506089505388 18.1581349320839323   T   T   T
 12.7591291902440052 -4.1705438444882690  1.2667291074383535   T   T   T
 24.9906107463827709 11.4732902301756017 -0.4582327098720634   T   T   T
  3.9911297013283282  4.5661449066347375 10.8829094995399664   T   T   T
 20.1167403418435029  7.2028761689751635  8.3685555398572475   T   T   T
 16.8388049464446965  2.2997614732373211 13.3540856344332095   T   T   T
  0.0764699698485767 10.2611681741312584 14.4155966772872048   T   T   T
  0.8603250157737338  8.2675068891492245 -0.1371106193467469   T   T   T
 25.8041004946244925  6.2244730929497356 -2.6918357228001351   T   T   T
  5.0389567437873897  2.8041516930553287  6.5837409333376424   T   T   T
 13.4223603346482676  9.4130279301449349  8.0495863740168225   T   T   T
 19.5477899764110816 -3.0680540623531054 15.6975573474933352   T   T   T
  1.7031901651892558 13.9085513586112981 14.8629917364754718   T   T   T
  9.7796510233573528  3.0591019859631436 -0.4073408070404786   T   T   T
 20.2949482946810562 12.6899885534366241  0.6808057540833606   T   T   T
 24.4834523572434151 12.3302537159417405 12.3367489738567482   T   T   T
  8.9959737441161849  8.9350727235345175 17.9694754334009232   T   T   T
 10.2170107373032337 12.4961341458459092 -2.3576823273633787   T   T   T
 10.3107959202857629  4.5293867646929709  8.7141647932665389   T   T   T
 13.2917673216852332 18.9370512605325025  6.0881558197016394   T   T   T
 21.5679799185526235  4.7238651009589381  6.6831332496126423   T   T   T
 25.4099928556172188  0.0623470973779914 18.2498589927407693   T   T   T
 20.0597715901611977  5.5466160744365558 13.7806947138997504   T   T   T
 13.8588860827844389  1.2875573893371790  4.4106048568244054   T   T   T
  0.5145284762214569 11.4366994792741608  7.8421383988172497   T   T   T
  7.3779609534972277  3.9245816614198916 14.6061761035084441   T   T   T
 25.6754501204486658 13.5655098636849090  9.6425336741910286   T   T   T
 -8.3659626701804815 10.6852358204674545 14.0761000873910831   T   T   T
  9.5323987895147333  6.7194168215109640 20.6839951555847676   T   T   T
 12.3515219196751929  1.5074360530344719  7.1632771883722111   T   T   T
  5.3926178211220002 12.6982882940552440 -2.0079665207295481   T   T   T
  9.7273303833349836  0.6944993246787884 15.2855464539454502   T   T   T
 22.9515068483068703  8.8639942033922381 13.9701834443874748   T   T   T
 -0.5241863295739497  1.7808849041843406 12.9793794741604724   T   T   T
 12.2413604406030156  8.1035838773747155  3.2896602313408931   T   T   T
  8.1616598348297469 -3.2841967221682973  4.1040723299689335   T   T   T
  5.3320548466336373  3.3934280794533938 -1.7759689091930781   T   T   T
  7.0760562057083014  1.9601402151113130  8.5711600106754098   T   T   T
 28.9837397364150178 -3.5131814441414480  9.2389233638647532   T   T   T
  0.2221698781609610 17.2873581848012954 23.3556326853899598   T   T   T
 18.1294799208953421  7.1675837019267066 17.4986459436833321   T   T   T
 15.4007335121012883  4.3302780807022891  2.1507395336514326   T   T   T
  4.9638989154687589 11.6857128212998767  1.9966065970459574   T   T   T
  5.5147700899998497 13.4757053526454023 14.8618866506956682   T   T   T
 19.6223721823939741  1.7694740571373353  5.5451714736656657   T   T   T
 23.2504959317417104 -0.6239714725672774 15.2429118528139931   T   T   T
 11.4875028693599681 16.8094435695748174 18.8781144704516670   T   T   T
 17.5377368483591525  2.6782962553126719 -3.6698325069838487   T   T   T
  0.9811927098616102 11.4945116017312827 -3.4427677968134516   T   T   T
 12.2873184146844103 -1.9918995625450102  7.8418270731255619   T   T   T
 22.9114170756558408  8.5992450076412510  8.4350687269745794   T   T   T
  0.5962496722324919  9.6418382543946706  3.0920324107115249   T   T   T
 16.4578886750811222 -6.5000563165833976  9.1463488769518779   T   T   T
 20.9045402417595270  8.8849087231240258 24.1434568160372365   T   T   T
 10.8574576236662015  7.1390408168527335  7.0668101757656769   T   T   T
 14.6207684083995986 12.2462037596937474  0.1091776344180695   T   T   T
 23.3099882879952531 -7.4829064551646676  0.8059818419314010   T   T   T
 -5.0089346666909949 17.1067126154048168 12.1099572142840994   T   T   T
 20.4634003262609241  6.2446698206790039  4.6443192244250628   T   T   T
 16.8192314702956267 13.6628152501316471 18.2054177557048611   T   T   T
  4.3812114513478058  4.5901032876438332 18.8930633478739693   T   T   T
  3.5944097985956223  8.5786546205012648  2.5976737396336524   T   T   T
 18.4402147915193453  8.1432610711002908 -3.5533446435256009   T   T   T
  6.2436687583069919 12.1731234007846467  7.1050477998830601   T   T   T
 15.0991871647320401  0.0889890421277095  6.7599207799423917   T   T   T
 20.3078012836240305 15.8277475524999343 18.5313142266894531   T   T   T
 12.4627471504765754  0.0208573787822741 15.4566516486551517   T   T   T
 15.3765478229543842  8.2293187640891556 -1.8376514059674383   T   T   T
 20.4329915581428168  8.8009195624564640  5.6406549752220672   T   T   T
  7.7857595114572495 17.9253635640051421  5.5584158504571679   T   T   T
 23.0072813225869197  7.9050895361900286  3.9564881944395909   T   T   T
 20.7503910559727487 10.2749509771010246 19.5750640742081501   T   T   T
 11.0827800297129677 11.3365564929627869 17.4690896678093708   T   T   T
 11.3643517862007144 16.2395180054607806  2.7363106033069009   T   T   T
 24.0773817073964196  7.0247202764790382  7.1165657319897102   T   T   T
  2.1472915194681197  9.5370578029774062  5.9068333619067479   T   T   T
 12.2050785576657574  9.8676607689924225 14.6975481994329087   T   T   T
 14.4449824343006945 11.0776897281310180 17.2045969444206222   T   T   T
  3.3390486145420271 10.9636071048316150 -2.5162099722170845   T   T   T
 20.2344240115730614 -1.8548852233220126  5.3277989747590251   T   T   T
  1.0351565220660015 15.8285130326629648  3.8551166386732145   T   T   T
 17.5438040740895218 -2.5241656684088158 11.9968317109230789   T   T   T
 19.5564425643455095  8.9073686995771251 13.8886124307006806   T   T   T
 -0.7999033507112193  5.9949321681199965 18.5153583430990167   T   T   T
  6.0968812861500252 21.0327808527432794 -2.5700233941509691   T   T   T
 24.2239509429074076  1.1215956719992737 -1.5454216749257554   T   T   T
  9.9824335337398757 21.5691685281467471 15.0321003851749246   T   T   T
  9.5284998367983178  8.5734675436227796  9.5467291412426736   T   T   T
 11.2717530954375444 12.4265233811592548 13.5445497529705516   T   T   T
 26.9678140787487735  8.0199422253253445 14.3427113068550405   T   T   T
  2.9790746637965055  8.4656963053571257 -1.7739835334584526   T   T   T
 19.0441833532959706  2.8166407431635978  0.7460914984325486   T   T   T
 23.9989118740132099  2.2594766302227174 17.1415526180234643   T   T   T
 14.5213926999642418 11.3319887574359015  5.0408660923608908   T   T   T
 13.5131687733254591  0.3517075613008729 12.5038302334253526   T   T   T
 24.9768588434173324  5.1404224781526251  9.9749214864701568   T   T   T
 -1.3635612770444550  6.1619232100953401 12.9348248694349426   T   T   T
 18.6426222991025483 -7.4099948471515589  2.3467049961949256   T   T   T
 22.0620571388867788  1.5737528690687299  7.6722969482008088   T   T   T
  7.4196388959335415  5.8301003893425634 11.2243522005340814   T   T   T
 10.2397145513128880  2.1562264103772404 12.6172077443427746   T   T   T
  1.4174382183156768 11.5700132308440438 17.9760966415550953   T   T   T
  6.3835992194251983  6.0200061589090561  3.2604860817157686   T   T   T
 19.3433305330955605  9.8546321718997003 11.4661460746385071   T   T   T
 29.1416019916965041  2.9764451193723951  2.8624449564128511   T   T   T
  9.2788074635441582 14.2084318607072273  5.4887456745230612   T   T   T
 19.2034496186182153 -13.2236465982680294 14.4231677782414920   T   T   T
  0.9063008778764774  7.9927348324510810 11.2669652017410780   T   T   T
  1.5944930168436180 -1.5380283865056341  2.4116608600864353   T   T   T
 17.9571593630245872  6.1504131702302551 -0.9173154009801071   T   T   T
 23.8552549368135232 18.7655376437152377  3.1136258161959347   T   T   T
  7.4937283488326436  5.6164375531107220  7.2774443479160089   T   T   T
  9.4424975863300293  5.1545074005034444 24.0345685450283213   T   T   T
 -10.3114816510672700 10.7215164535472631 20.8642101939884057   T   T   T
 -2.5875482857381900 13.7065046100099028 -3.2964617769654323   T   T   T
 16.1915802877503623 10.0497255271477535  0.9299941402594010   T   T   T
 19.7127020664461270 -0.9265299484256498 12.3856425595170698   T   T   T
  6.7760990924308295 11.1577479349369320 10.8966058667000638   T   T   T
  3.4950856933836159  5.0747389286767906 13.4433059835689352   T   T   T
 27.8433383078131200  5.0484902903956108  7.5392219839157226   T   T   T
 11.9160083492729854 -1.4543552189866280  3.5909913897621499   T   T   T
 16.8653458888198671 14.9953776674075936 -5.6022459340469251   T   T   T
  8.2367417598493802  4.4583789638905884 30.6074271435865377   T   T   T
 21.8378004888920429 10.1776267040013231 31.6376868320665352   T   T   T
 -6.1296893453877912  0.4913057534815610 23.0551638989327756   T   T   T
  8.5090276173316699 13.9364154683641583 18.6994432534426238   T   T   T
 20.4732973114941501  1.3636961473858029 35.3851916309425434   T   T   T
  5.6157070211061395  7.8554578322583009 37.4505690957868040   T   T   T
  9.3950848048653839  1.5764088036081203 31.7017563853519846   T   T   T
 25.2931206155356350 11.7115521085643692 28.9285486462582604   T   T   T
  6.0130208226078761  6.3887442234164853 14.0146023528875432   T   T   T
 14.6343290993128843  7.2143733930427878 23.1755334900402090   T   T   T
 15.2273809093915524  0.2257360397286659 34.5699884061558294   T   T   T
  8.6555752685574401 15.5092043251141263 37.7726660156922378   T   T   T
 21.5905298091569193  4.2953635813583864 22.5062426786778751   T   T   T
 19.8307554271026802  5.1511192364245897 24.6740938334248483   T   T   T
  4.8275820439701063  2.6373224983704033 12.9026757655483699   T   T   T
 16.7727915983293343  8.8492988105348083 22.2403232179538044   T   T   T
 23.3705145101482543 -0.9398523265829205 38.0536539376863061   T   T   T
  3.0199191708396973  4.0486734477995041 32.2280851355151725   T   T   T
 11.9297708122876625  7.9121223724556824 33.2418406499828052   T   T   T
 22.7144537598306755  8.1402978213723092 27.5831962137365174   T   T   T
  3.1783883130489956  3.7294428503084252 22.7665267739021715   T   T   T
 12.6460886545294500  9.6906141750230130 21.9489018642060429   T   T   T
 21.3815352114975425  0.8374955488233859 30.2564317564424243   T   T   T
  6.6646940728826563  9.8315492782763894 34.6009798223249447   T   T   T
  7.5147459323817607  8.5430875345665847 21.7048121931764442   T   T   T
 22.3778956237924405  6.1748986646411659 34.9496572557866898   T   T   T
 -4.2310201300650521  5.7628420294692848 17.9486833259939438   T   T   T
 18.4462626127099227  7.6938406969502520 27.7254177602186118   T   T   T
 24.6271542769332754  2.4815809630763974 31.2884236593056499   T   T   T
  6.8114148375659793 12.6944091851631953 37.3141187583446055   T   T   T
 12.2002427022640170  2.7756335220235409 27.9585039016938737   T   T   T
 23.9440353759957532  8.2866724127630800 31.0826231048033073   T   T   T
  4.4786624888656110  2.9313986763651014 24.9170379261852339   T   T   T
  7.3244941095370812 12.2613960306814587 26.2400324728018290   T   T   T
 16.9531976998774567 -0.3603665622288063 39.1596056810435726   T   T   T
  1.2833759749565503  1.1115017965175713 26.1956098398653587   T   T   T
 15.3687535538446820  4.6584974823678564 21.9111853267299885   T   T   T
 22.1414622936218279  0.5019733720827093 21.7013764785185330   T   T   T
 22.4475854598740057 15.0661524764733752 40.9944846674892887   T   T   T
 14.5262536219623097  5.0001384548761161 35.6172002079146068   T   T   T
 14.1266854934196822  6.1203300623633208 32.9695789536388872   T   T   T
  2.4870494021426106 -2.5485175365173465 30.2589359354771652   T   T   T
 14.2088122807064021 18.9167258720961335 25.8869253308139555   T   T   T
 25.5784816234161809 18.0549581407400979 19.3522201835174528   T   T   T
 20.5695134255442724  9.2220917177802999 34.7610316923710343   T   T   T
 12.1686064533651184  0.6617325170404468 35.2570581398391880   T   T   T
 10.8867414589458420 11.3726538655864093 31.4098032510590599   T   T   T
  6.0741789946246350 14.8562477937055384 29.1619924504012928   T   T   T
  6.5110752158651755  5.6853946163276685 22.1270157045062241   T   T   T
 21.6865878080700796 11.9921910475658784 22.2802013846407156   T   T   T
  1.3425012237601044  6.1492243345084976 41.0873839124123208   T   T   T
  8.0591934950425177  7.9876054754235559 42.3554272799725311   T   T   T
 23.4965459734642863  5.9469570581203746 24.6191449447747956   T   T   T
 12.2746770955618647 16.7808681277728518 31.2669742225999059   T   T   T
  7.2119614250895392  8.2854568185330137 24.4745649597838764   T   T   T
 23.4004254956311968 13.7937661293418952 24.5452838099944195   T   T   T
 -2.1445585370333871 -1.1935421407386309 44.7423046819607464   T   T   T
 20.0919446523792757  3.9931415551487355 34.5921582326187433   T   T   T
 17.7627155866487740  4.7096608059680376 27.4415382599303932   T   T   T
  9.5282209739599129 14.8403147802944115 22.8887992894680394   T   T   T
 14.9539758556896629 16.5256296776466876 18.5160528807410394   T   T   T
 16.7004408458039535  1.7533929653629190 23.6571870903530659   T   T   T
 -2.0320535918817511  0.7637757866735941 28.2841665655480661   T   T   T
 17.2258191135928342 -2.5203826295221385 35.9804809827045347   T   T   T
 19.0558060940347431 12.1839777170266377 29.1249230064887712   T   T   T
  5.0689537625484444 -2.4110685518667463 29.0069684420310416   T   T   T
  8.8317240197452769  8.2233224916011469 28.1265615433726595   T   T   T
 24.4979261887990063 17.9971093046597836 28.8684926557793879   T   T   T
 27.5437051580567456 -0.6828387649712064 44.3348021027694585   T   T   T
 12.7332662966839845  7.2905237424404401 36.8885543791915751   T   T   T
 18.4368197460656233  6.8282226165798017 30.5744366076548744   T   T   T
  2.5210153309649863 14.7669128197105533 28.7754195404614386   T   T   T
 13.1088107958775577 10.8405339060886963 28.8003878821083319   T   T   T
 15.5274701672388602  4.3342508412398049 29.5969545945492811   T   T   T
  0.7344717494931881  8.1867741893497374 24.1175399734807137   T   T   T
 14.7726624721418514 12.4824810612275972 23.8194778936047484   T   T   T
 16.2383884862229166 17.0302747595006672 36.9029236954647786   T   T   T
  9.1205392426570135  8.7703854659459175 38.1519888419099260   T   T   T
  8.7100768898456558 15.4746339385425795 26.0250822689052939   T   T   T
 19.4741964824615934 -7.9296109000740653 21.8348807670850462   T   T   T
  1.3108351231813404 11.9083357733042288 25.2280582710326300   T   T   T
  8.2559514273034811  4.2107447863664982 17.7646086182707599   T   T   T
 13.8021286004272792 12.3833622347954222 33.5435011178844462   T   T   T
  6.0226021704985309  0.4866553278596795 34.8360947979413282   T   T   T
  5.1159281594357662  6.8217701875523078 28.5283608546429726   T   T   T
 26.3488688867988614  3.7006701273195235 25.8173542849931117   T   T   T
 11.0833066198532713 14.0872001237653244 11.1922557172850361   T   T   T
 14.3170746205132211  0.9408603920281212 25.9778530237219698   T   T   T
 21.8918911056503873  3.6907847380492962 27.5937071828455238   T   T   T
  3.1824776245861930 -2.7326760141362301 41.9994472931364982   T   T   T
  9.4722739583343110 11.7203897840980442 28.0780864882921044   T   T   T
 21.7656722025928673  3.6647785957613155 31.2838041182703925   T   T   T
  3.6432686304788153  8.6013196034827910 24.4579378508640062   T   T   T
 11.4014529969115923  7.7747244665722066 23.6731103721270948   T   T   T
 17.9280458045282032  0.2504550035779196 35.7677073824753506   T   T   T
 10.4439957643364298  7.6471689678967234 35.9442712577571228   T   T   T
  7.8773702445788958 11.7805218629266708 30.9172200141925408   T   T   T
 27.8945178866715580  0.0805621498386996 23.8655389402150320   T   T   T
 -0.2312216784877973  8.0797606959053390 20.5469229551954733   T   T   T
 16.6867984347940563 -0.8798851860056903 20.9890436453971034   T   T   T
 21.5197785350938418 10.9550685712499831 28.4242533337619143   T   T   T
  8.7873283818292709  1.3080811163836392 34.5243442659254072   T   T   T
  7.1690643562604297  7.9423532847266642 30.5267481115466843   T   T   T
 21.5415831344022237 -7.1310602633370808 30.3364241302207134   T   T   T
 -4.9697436509065085 14.3998124150970508 26.1528884594455526   T   T   T
 10.2154903102887182  0.5775240475067666 29.1133233785924972   T   T   T
 18.5771569210536640 12.2787921202191139 33.4597576216208381   T   T   T
 -4.3078582636264144 -7.0452810192659419 37.1066207015621217   T   T   T
  2.5429975657993489  8.2765777785897789 30.0448209412555549   T   T   T
 15.8852729424475072 -2.6080220519971564 30.6347882475362248   T   T   T
 23.1011827269837937  8.0718085422510022 22.5303289066185606   T   T   T
  6.9369810020863047 -2.6958280758351836 19.6191581635421173   T   T   T
 13.9119231122080720 15.0880311636521149 37.0667820004181436   T   T   T
 25.0079527721161767  4.9203524745773812 37.3440648409316935   T   T   T
 14.4723884824752211  9.1419868351667049 25.7768582421246144   T   T   T
 12.9004707968020682 15.0336245727653441 22.3860183039767371   T   T   T
 12.3174745277314095 19.4974150536581590 21.4053890396467104   T   T   T
 12.7763586699046670 10.7281014655201208 35.8241262532312135   T   T   T
 12.5528933465502899  3.1383664218360932 37.1292328384007959   T   T   T
  7.0184220700851707 12.2652048347882872 23.1351582798102164   T   T   T
 11.1945611965375598  8.1033098991394841 30.1903719829087294   T   T   T
 27.1469272776316970  9.0914940572617216 26.5793154386914274   T   T   T
  6.8845259059769530 10.5251834225929919 15.0233793652612633   T   T   T
 15.3880892484052403  7.8075174668232776 29.5147343723336348   T   T   T
  2.7462875290848618 10.4705356568098065 37.6544942455999916   T   T   T
  4.0387191301578058  3.7204459690625717 29.8782811398272123   T   T   T
 25.6655597964157138 -3.3050773816805115 22.5801951999076778   T   T   T
 19.2708786731169255 11.5271355573637386 24.1540405022218820   T   T   T
  2.4844468304035243  5.1701754601021852 27.8457207869122136   T   T   T
  8.3264677662660791  6.1114531322145744 37.2274548410698145   T   T   T
  3.7328039488448259  5.5497593527694145 37.3362520463348488   T   T   T
  3.9756299710721104  7.2678212085214122 32.4319638068112681   T   T   T
 15.6189513725053235  0.8267879396344918 28.6379770615161497   T   T   T
 29.3834387761543780 -3.2140644402987326 24.2222419519617240   T   T   T
 11.0402663988910845 -2.0686746069481408 25.1785042792675959   T   T   T
 18.9147844516299557  0.0060544713158634 28.9350592571661416   T   T   T
  5.5099083058669898 -0.7924903011632486 31.9808760023198140   T   T   T
  2.9979553095833342 14.9675325895518370 32.8742989619814097   T   T   T
 16.5141066283595208 11.4741202191391221 27.7948637413806310   T   T   T
 14.4445294689632249  4.7391883868633746 15.0426911265011789   T   T   T
  6.8082251110629448 14.9354382002692905 23.2156205804447389   T   T   T
 10.2799379013335965  4.4318601919550042 27.9638987172869129   T   T   T
 21.7608036030205767 11.8943641374182185 35.8875840928514265   T   T   T
  1.2941423989610821  1.7860999982849177  1.1849936729330581   T   T   T
 14.2491324928080374  8.5860487460607171  5.6562461222514075   T   T   T
 17.2199522012204014 -0.8866415607698435  5.1463315820137012   T   T   T
  4.0786815285198967  5.8879769258426071  5.3352610670021079   T   T   T
  7.7412341117286916  0.4633021543781691 11.4912427266389123   T   T   T
 20.4947453264975579  7.0264913508486000 11.3082829167789871   T   T   T
 23.8414627621464064 10.5963130166069490  5.5606254125660861   T   T   T
  9.4635774695260402  5.3741313007670577  3.4595123365937503   T   T   T
 13.8445214180574947 11.0931391621627427 13.3553553681522903   T   T   T
  1.2977748448772686  3.9100208149389899 12.2263962447656187   T   T   T
  6.3437799298910891 13.4940505190905515  4.1261935119704649   T   T   T
 21.2551781744738548  3.5878888812874918  2.7830692752482888   T   T   T
  4.9268874209130695  0.2633436598286376  5.1298317250529699   T   T   T
 17.5640435878450987  7.8145291240958299  6.5821921111413140   T   T   T
 22.6218631441023348  0.0956223992210011 11.2524443656632922   T   T   T
  9.0626931179495482  9.0063829829016111 13.3268292696935085   T   T   T
 11.5201033226584553  5.7040653389212350  2.5113293376899790   T   T   T
 -4.4452057418689890  5.2174131635935517  1.3041274661595361   T   T   T
 24.8200870187319538  3.6508886287521709  6.9456717707150482   T   T   T
 10.5610358258509081 10.5125147986524805  6.0145565747281697   T   T   T
 13.9605561800482967  3.8693352424205969 12.0885940718113094   T   T   T
  1.8910882598506995 11.4327432274076219 11.2525739825778892   T   T   T
  6.4154137081274722  3.3941747083607909  0.6976855847037678   T   T   T
 18.9167815966457766  9.6307500793825795 -0.1385881061268603   T   T   T
  6.7429942914783583  6.5932241012725923 18.8953491893623777   T   T   T
 22.3639516513515488  3.1529980907499255 19.5679552919935986   T   T   T
 24.9082931406140844  5.7941548521577895 31.3095325126310549   T   T   T
 12.6817571949881440 13.4839640493426955 30.4895493047581532   T   T   T
 16.7073327449220344  6.5424008019557096 24.6555864672278169   T   T   T
  4.7231401102992621 13.6363115356642748 26.0666889845823135   T   T   T
  5.3523943908311864  9.8029912199179208 32.0293132959916278   T   T   T
 18.7585530347846401  2.7625539082285786 30.7637476927506341   T   T   T
 23.6297828821261504  9.9936685004932304 25.4113164883906002   T   T   T
 11.0202977301824045  2.6223966835780628 25.0571588242239756   T   T   T
 17.5780682086833053 10.4009825711347759 18.5845013964705217   T   T   T
  0.3288036090752717  8.1496277929006151 17.1010596395790309   T   T   T
 12.2831696688042094  5.9847912268826455 30.8707210340950056   T   T   T
 24.8395717525588040 13.6251545342922640 31.1777300252927567   T   T   T
  4.1971413154487438  6.1082302969979922 25.1722745709579279   T   T   T
 17.1784143967504477 -1.1880784874344539 25.4452176386280655   T   T   T
 23.8398530562432001 11.1757393413395523 19.1498515768255189   T   T   T
  9.2721164833239644  2.4800181198830584 20.3901834244583142   T   T   T
  6.3584122274805130  2.3925060750396820 31.8240647892190154   T   T   T
 18.9305022527020625  9.7478308287649931 30.9323562749146816   T   T   T
 22.9214355459274870  2.6097000820810643 25.2920154928643797   T   T   T
 10.5438484021905179  9.5795604238004586 25.6606076433549610   T   T   T
 16.4665915416769053  5.4651339131957313 18.5358430499576556   T   T   T
  3.1181600050684559 13.6557660432371062 18.7985616633588997   T   T   T
  4.9966780744850716 -0.0496313017368717  7.1789232774984439   T   T   T
 18.4811309411581135  7.7829040659994506  4.6091129526575898   T   T   T
 22.0432263718023194 -1.6211085724582210 10.5868104466454600   T   T   T
  7.7254853061941215  7.8748446464131963 14.4907311450471639   T   T   T
 12.7364819264103897  4.1696703901444554  3.1180100026410780   T   T   T
 -6.4002860521681297  5.0918877647014407  1.2093383054832454   T   T   T
 24.6893687074424903 -0.0506783950144351 11.4369957252255254   T   T   T
  9.5392485711257251 10.9255853339241416 14.2536651715615825   T   T   T
 14.8689223554312555 -0.0740283107480265 19.7789506521586809   T   T   T
 -0.8901982425992330 12.3067887626838957 17.5154370028309998   T   T   T
  5.9054768900541212  1.9057224566410318  4.3935309276998886   T   T   T
 18.0773459945323864  6.2088110295609091  7.8039052441295818   T   T   T
 20.4434625149061659  5.2067985784638022 10.3391792842245192   T   T   T
  8.6426035328295150 13.2271475247666963 10.9883647200181578   T   T   T
 10.5474727795667267  8.9848267239569548 20.4145342614185772   T   T   T
 -2.1788804943201336 19.5321530909445826 20.2451230129587998   T   T   T
  3.7788763950900690  6.4143740926644233  3.3517285901306337   T   T   T
 17.5325504400458598 11.6296303450882981  5.6025303001445375   T   T   T
  5.9640377060457190  0.9668555350368039 10.6903965015565277   T   T   T
 18.5811362398973543  7.5393006681381065 12.2091760474167117   T   T   T
 23.7354542746024606  1.6316487581592842 19.5826243164776805   T   T   T
 11.6014969471194149  8.1739554967307804 18.8379743733513401   T   T   T
 18.5103738105892361  0.0360066351276492  4.0258239527568032   T   T   T
  6.2237746177526798  6.0619615868486028  5.4862706762294380   T   T   T
  8.3603823679368059  1.9000974220443356  6.9366766486775857   T   T   T
 14.3375166715032041  8.3462949394247783 10.1189082452364492   T   T   T
 18.7824107056394070  3.5676700507816719 13.9049411657591584   T   T   T
  5.9677445066550714 11.7803527111760165 13.2594695423805646   T   T   T
 11.1794718295407893  1.3375381598111378  0.3095686943531912   T   T   T
 18.2393815370442383 10.1297816068188418 -2.1191478542773110   T   T   T
 26.4236492278309285  3.6000377912416455  8.5573271564557505   T   T   T
 10.1548340745010375  9.1744445083909305  4.4256268447725793   T   T   T
 13.1722905683721283  5.6494202456741425 12.9470699202512094   T   T   T
  1.6693633723617707 12.0629584157828713 13.0806247447988913   T   T   T
  6.3827033402313935  5.2719329637311265 -0.3357836168811792   T   T   T
 21.0726442132104950  9.8394037029416062 -0.1317299447686719   T   T   T
  3.0588484611528561 12.8873839701425705 10.3602235218541949   T   T   T
 12.8219020057306086  2.5529258759966935 11.0820887600182232   T   T   T
 19.4091092001098460 14.3804000804621523 16.2029142689995211   T   T   T
  1.8242877371416570  9.4580313331965247 16.6255430326245524   T   T   T
 10.8592212281094831  9.6661726947203714  7.8825061514557229   T   T   T
 21.3543660455926982  7.0954307852157603  2.2084678380146734   T   T   T
 -0.7228986058622227  4.1133180322746838 11.7450832664098215   T   T   T
 14.5954474871096433  9.2064959815492298 13.7374732333041916   T   T   T
 17.9552130332447817  4.3571000472005883 19.5882736516937612   T   T   T
  8.5405788472171249  6.7871456543238669 18.0518681335223512   T   T   T
 10.9188094272373384  5.1589038312423554  0.4922455622314492   T   T   T
 25.1505829315332221  8.4502335977451786  5.2592323874651017   T   T   T
  1.1174706038032067  4.2971508867240242 14.2367101581510589   T   T   T
 12.4642949685050564 10.7820363570621378 11.8487231354127367   T   T   T
 19.4814846199021545  5.8811296528846420 19.6701775889997528   T   T   T
  8.7687531052365326 12.1490759634803318 20.8000526535704111   T   T   T
  8.9208406810442646  3.3396478000367806  3.1233278360396652   T   T   T
 21.9172422535150346 10.4560253593262686  4.7726787654850487   T   T   T
 -0.0099073235050158  0.5353394719560425 15.5321181424073718   T   T   T
 11.0079139993975303  9.0726869124868852 16.9272687144460008   T   T   T
 16.1986911844659147 -0.6716744145604598 -0.4548871119764433   T   T   T
  2.9861478906139713  7.7546399778657920  0.3685716116521179   T   T   T
 11.5076677012702593  0.8177666961979536  4.8023118317020517   T   T   T
 21.7817525863818346  7.1005425295771154  6.8206474158711039   T   T   T
 26.5632656245577508  3.3002378226608844  2.6911950028414924   T   T   T
 14.5796169650286647  9.4491743610080086  3.4283287476396844   T   T   T
 15.3547280095723782 -0.7849126495849654  4.5110974483888091   T   T   T
  3.3289039044344189  7.2785186859915791  6.6745804842702237   T   T   T
  8.0227044034479693  0.9251112047496588 13.4945133053536228   T   T   T
 21.7321998147871440  6.9859651959287064 12.9592954121506185   T   T   T
 21.0920096095058653  8.6179363015015547 10.2646517297426936   T   T   T
  9.1689521037743855  1.8556048902445694 10.4775935937266063   T   T   T
  7.0792095093081207 10.9492373175022610 17.3438643930787073   T   T   T
  2.6088109661988823  3.8974032203369835 20.1945607543918690   T   T   T
  3.1786798307634254  4.0636318681021208  5.5730467659730651   T   T   T
 17.4997066015005771 -0.6163871471017927  7.2297766147696301   T   T   T