Li P  S  Cl
 1.0000000000000000
    20.5609999999999999    0.0000000000000000    0.0000000000000013
     0.0000000000000033   20.5609999999999999    0.0000000000000013
     0.0000000000000000    0.0000000000000000   20.5609999999999999
 Li  P   S   Cl 
 190  32 160  32
Selective dynamics
Cartesian
  4.8248284731202107  2.3931209523128341  1.8310903586940037   T   T   T
  0.1102078820241465  7.6116240506436910  6.6117970222709701   T   T   T
  8.6549684296125626  7.1759148826053094  4.8243700431863372   T   T   T
  9.4339754872773121  1.5287287270631200  8.0862470219947546   T   T   T
  2.2707051342702704  6.8629765781082854  5.1586879179226175   T   T   T
  2.5016988526650206  0.5451061243388323  3.5508421814583606   T   T   T
  6.3381080445363684  0.8870738373524469  6.8213967681521828   T   T   T
  7.2546267192283098  9.9218278536790443  3.1363939082407088   T   T   T
  8.4445400273651501  2.9171786708868126  5.4152223945988807   T   T   T
  5.7423000191858522  8.0068118917291002  2.7076761077631204   T   T   T
  0.2093444915635096  3.3569775079653263  2.7758906602733369   T   T   T
  3.3117444808187262  6.0200447004396160  8.4700688613778077   T   T   T
 10.1042453423177889  8.1913297368010554  2.0159219148557384   T   T   T
  9.4343461678518263 -2.4725845380791167 15.0912676896001763   T   T   T
  2.9490557298945284  2.8302584007221467  4.8257568472072352   T   T   T
  1.4271964352817845  8.7470767593201817  9.5461631967224818   T   T   T
  7.8473055211862919  2.4612432224843985 10.1142449252919899   T   T   T
  3.5036028121576437  4.7670326683615487  1.7359416032662487   T   T   T
  5.3563637613256887  8.1558861236550513  6.3524788070418241   T   T   T
 -3.0304055782928185  1.9049993595277119 -5.1933709212705468   T   T   T
  5.0873312628643612 -3.0293283171029834  1.7534712392523164   T   T   T
  2.7680111241759513 10.0434903877739110  7.5625555379444425   T   T   T
  6.3572701555521132  4.9087751158225572  7.7993901193824788   T   T   T
  8.1619810513374382  7.8855261425192449 -0.0706549546745013   T   T   T
  0.3753741008135456  3.0065976626297699 14.7134189906583934   T   T   T
 -0.2208445567713787  8.3133782025347447 18.6576810902184747   T   T   T
  7.8501456772708460  9.9842237910545997 12.5647278224055619   T   T   T
  9.3812612336357226  4.1848380508255776 17.2981206904429072   T   T   T
  1.9637502410886376 10.0344184665784368 19.1232645559913053   T   T   T
  1.4326596362584680  1.8652092804040985 11.0329925824848640   T   T   T
  5.4269034954553330  3.2752845055141937 18.3633039647109442   T   T   T
  4.7912467606442624  7.7437995947538214 12.2047735650894396   T   T   T
 10.5051687709401183 -1.6791455099764516 18.4670122167969382   T   T   T
  9.8195946605321875  6.7479153658772351 13.0214577889021381   T   T   T
  4.1479210353717928  2.8142911982712788 14.6997735952311945   T   T   T
  1.7395809702127840  1.9636763526106675 20.9108089668346935   T   T   T
  7.1912335006903012  5.4432813512950577 12.6865274045608132   T   T   T
  7.3419691372706728  4.7339111604056052 18.9015587522063697   T   T   T
  2.9801157264825120  0.7529335152403024 13.6517143999192303   T   T   T
  1.5839421390617496  5.5519714709791455 17.8022338016582466   T   T   T
  8.5607465114960934  2.0507422893033329 19.8025329689336402   T   T   T
  7.7045407598927040  7.8709622241020263 15.0695033549929498   T   T   T
  4.7897985729893708  8.0022979279179136 17.1055200191713652   T   T   T
  2.6619931787277502  5.3925438621473969 12.0766972132852697   T   T   T
  4.1302971395843500  3.2035062389728868 11.4050718622664000   T   T   T
  2.2798451812598537  8.4178392552981212 15.8531318929537406   T   T   T
  7.0177949498591827  2.1126004139259864 15.7686095665669335   T   T   T
  7.4166751606489179  7.6233430675619953 10.5505564981578210   T   T   T
  3.4593376433454690 10.4662546738182503  3.0704792505283764   T   T   T
  1.6762178394260943 19.0722988250386223 10.0746173681097169   T   T   T
  7.5301477574861844 17.6205320591355203  4.7482718696635207   T   T   T
  8.4340770592235792 14.8839912736381255  6.6294354971050513   T   T   T
  4.4450913401958170 16.9435168976962629  8.0135448490132788   T   T   T
  0.6763922520760520 12.0977076404355657  1.8172256287821802   T   T   T
 10.3019802995027074 12.2177588110068100  7.9139816011183628   T   T   T
  6.6073921641644713 20.1581305493857741  2.9429638591639709   T   T   T
  8.4871147178045216 18.4748471724506231 10.3758016237961090   T   T   T
  7.8691108035430313 19.4599313030352974  0.0086224672821533   T   T   T
  5.0569994596197425 13.2614077891029520  2.3983566744854961   T   T   T
  3.5466757128041615 20.3902393970419240  7.5547352483081340   T   T   T
 10.1672372173633541 17.6208387949757750  2.6722152612823908   T   T   T
  5.6125577787451224 12.5835183401462505  6.8198661030456700   T   T   T
  2.7429464506843191 15.0954874661525835  2.3980532381549864   T   T   T
  0.1439486973700083 17.7248672641495304  7.4048710707575633   T   T   T
  7.3247901832283375 12.1680099797816510  5.1093950807566921   T   T   T
  6.9507951880240624 13.9713184733586893 10.1176987357060533   T   T   T
  1.9047216782128098 16.0354290297457851  6.2479994790931608   T   T   T
  1.8320238935298039 13.1665848508767152  4.8823533147702758   T   T   T
  7.3912095480945759  4.7180440365432581  1.7514197800212175   T   T   T
  3.2425447359752844 18.8670238765192622  5.5310920929912957   T   T   T
  8.0671213931918047 10.8501455320252820  8.4802251373298336   T   T   T
  7.6183305648047588 15.8573193072144019  2.0445706547727696   T   T   T
  2.1014683842139052 13.8564200845464729 14.7291243891287245   T   T   T
  3.0932580989233993 16.2157318400606556 19.0674984591957752   T   T   T
  7.2384083469403944 16.1276581128730783 12.8246887936639187   T   T   T
  8.1175314062217883 13.7751364575609152 19.6589070409861648   T   T   T
  0.3379844030590509 18.7404831634483102 19.1744617832778559   T   T   T
  2.3707533303369908 12.0516556065037008 10.3264068362675161   T   T   T
  9.9448075990341547 12.1500990495825594 17.4835951529500733   T   T   T
  8.1321763006899417 20.9767362074486101 12.6736241318232707   T   T   T
  7.0101940569089143 12.2258200180657877 15.6656662689401944   T   T   T
  5.9412418373224973 19.0115520790203121 13.9797630013825955   T   T   T
  3.1351096573866690 15.6973257926462555 12.1776248740676483   T   T   T
  2.8640574650022934 13.4973825568144417 20.9207988266225229   T   T   T
  2.6922474379305936 18.4419571297680633 15.4810644044223515   T   T   T
  8.4530971913080535 14.6667095109280279 16.7681287562819534   T   T   T
  4.8826114858466791 13.6678659841277419 12.1805172944781308   T   T   T
  1.3008729586089516 16.0863242174171006 17.4503649349681638   T   T   T
  5.2804148360935423 13.1195619598648925 17.9499129647398874   T   T   T
  3.3295954620601895 20.3380317187727826 17.7729173341974445   T   T   T
  0.1582706533137305 12.9104032345627981 12.6568762523154064   T   T   T
  2.9842927087263376 11.0329347870113263 13.0149657040421030   T   T   T
  4.9646170514170542 18.2013767877899539 17.3933380379895581   T   T   T
  6.9274064909223991 10.3782182545686776 17.7795556231096654   T   T   T
  5.8944256573001477 17.9243934429877356 10.9832345415930792   T   T   T
 14.3049339201463610  3.9669116957202064  2.0566850799932874   T   T   T
 13.5807868127544271  7.2666028139471290  5.5715245511334350   T   T   T
 17.7561877966356221  6.7929417369910263  0.1578793783308604   T   T   T
 20.3749704304929722  3.2485338597033868  6.9950161229104824   T   T   T
 12.5641545571695037 10.0457758347739610  8.1789115145449056   T   T   T
 14.1595697046194733  0.4945343590249650  3.1172135550666153   T   T   T
 17.1023843182651163  4.7287229136167115  8.4172489991029611   T   T   T
 18.4655279775284242  5.6332444431550686  3.0190737353227921   T   T   T
 19.1308718475504236  0.7340749188190436  7.8193633598459549   T   T   T
 17.4928234418799704  9.4680128313865470  4.0057018551830286   T   T   T
 12.8415624094569960  2.0361106864793204 -0.2374043750149508   T   T   T
 14.0016166650265372  5.0378611666164472  7.8437630289855163   T   T   T
 15.9128060713449013  6.9277162379148276  2.4720033671344539   T   T   T
 18.2198542721785586  2.2377539247335241 10.1180810284655660   T   T   T
 12.0264928281818957  2.8178839561179325  4.6873576835083011   T   T   T
 10.2671485851111086  8.3354674022251594  8.7184206444338166   T   T   T
 15.9817495245246661  2.4566962649497648  7.9254978747063776   T   T   T
 10.9310908231362092  5.6672806941695439  6.9636422323410780   T   T   T
 10.8984291265218225  3.8505499772173994  2.4777680458807838   T   T   T
 10.4911776678191071  0.3953971098300302  1.9058953044804532   T   T   T
 13.3276302596300535  7.4649606330555933  9.6421622228785306   T   T   T
 17.4540126504342936  2.1685702507707747  5.1596944257806943   T   T   T
 18.4913558677871208  9.8420409121977119  1.1564593836277108   T   T   T
 12.7999212690864628  0.2261347702838390 13.1904561082756757   T   T   T
 11.4268594160352635  9.5323177215548576 18.5083161517940979   T   T   T
 18.1187134311217406  7.7279505028442035 15.2197081488947266   T   T   T
 16.7645272256153604  0.4788294873711452 17.7884491360379187   T   T   T
 13.4538817044592989  5.8335686175518413 19.7047805937868787   T   T   T
 15.0499217329828134  3.2159315802708015 12.6168475476606083   T   T   T
 24.0825071705670197  7.3247030318517563 19.9559591066602025   T   T   T
 19.7250229309362766  9.7282555592541193 12.4530797525538901   T   T   T
 19.8010748854903582  0.9979896914431884 18.1024138008195621   T   T   T
 17.8803622496230048  7.6499879177609529 10.6495054899878951   T   T   T
 14.0792422026060891  2.3656998766709347 15.2227734869614046   T   T   T
 12.8999028008333010  8.0509112663756230 15.7956676731784000   T   T   T
 15.5196552587225725  7.7700847564485072 12.9044472319633279   T   T   T
 19.6013333776371681  4.2979140743654822 17.3194318280540287   T   T   T
 11.2948472576603596  2.6538122271477951 14.7243271898897365   T   T   T
 15.2234414832122766  8.2382160184795552 17.9594663024277565   T   T   T
 18.1906457817447560  1.4209468632438220 19.9373590792717721   T   T   T
 19.2518781193313941  5.9709464443388720 13.1814928103349605   T   T   T
 12.4000285846386635  8.2208598467670466 20.4042404160169113   T   T   T
 12.3997453768374886  4.9260818458108480 12.9491337466438541   T   T   T
 11.2823620250777648  1.9686159152474982 11.0958022337384641   T   T   T
 11.7892038123684753  5.6620125927609264 17.5154990909068147   T   T   T
 15.9719772792685450  3.2681369774214404 18.2754510629532021   T   T   T
 17.4631620001277952 10.2428205877879872 13.9860494198462302   T   T   T
 13.1343814632260134 12.6864964735436399  0.2466042637914892   T   T   T
 12.3894094501557159 17.6297175601469860  5.2277062404153662   T   T   T
 17.9466460596839283 18.2078930410512498  4.6952953379643247   T   T   T
 17.4332024900541498 15.1681430555528234  8.2569368445386271   T   T   T
 10.5976705598461560 17.6072812708589410  7.6721881076407321   T   T   T
 13.2896254079959935  9.9956228861996799  2.9521893617936321   T   T   T
 16.4963732205742275 12.9083033666621567  9.9351118428352496   T   T   T
 18.3750367554246878 20.1788844975984389  2.0220896197343401   T   T   T
 15.7786633938199508 12.0477533280249975  7.0808194555503210   T   T   T
 17.7636446329619346 15.7323904950742399  2.1562346733481546   T   T   T
 12.4164403915770105 13.2631120996763912  4.6580053654406131   T   T   T
 12.6354681944759442 20.0330374616852183  8.1962107915335096   T   T   T
 15.4948664153782669 17.5009477543066012  2.0799173781833100   T   T   T
 18.4769707225356896 13.0909437683560448  5.3825868842539153   T   T   T
 20.5790792239809690  7.8710826053751779  2.6610686428620065   T   T   T
 13.4845378087680903 17.4911409885573477  9.8532129492306080   T   T   T
 20.2182731895994294 12.6397338801159336  8.7114682314164131   T   T   T
 17.5719773175798650 17.7271811286728251 -0.0325862773307345   T   T   T
 15.2163466778885699 18.6786979777228481  7.0753360615150305   T   T   T
 11.0358814142882036 11.8470731739981190  2.5053292335956656   T   T   T
 15.5012679625084839 12.0768803084415506  3.5943220757595187   T   T   T
 12.6954164053208043 15.5278527603114469  7.4667123697241635   T   T   T
 17.8453186730789781 10.7823961809506432  8.0002578247130209   T   T   T
 20.1151437627168690 16.9596977784150340  2.9461261842746826   T   T   T
 13.1867769305119342 13.1706491585986747 10.3918762473714530   T   T   T
 14.8527663926351661 18.3352031010887870 16.6837044908566412   T   T   T
 17.7137005219586285 20.2860313068644871 13.6149430427438354   T   T   T
 17.5499173804834783 12.6421222429032394 15.5281115405858809   T   T   T
 12.0743355656343176 17.7250028261290353 15.4877894420836384   T   T   T
 15.2882561863575788 13.4287869515049092 12.5918750853376995   T   T   T
 15.8534939432671251 13.1291177264774124 18.8393801118427788   T   T   T
 19.9068601821058735 17.0571850666795299 13.1135397150394439   T   T   T
 17.6239628629072982 10.7765727718058866 17.7299041124679775   T   T   T
 15.4784697997834559 17.8897554392326015 12.9928551336399423   T   T   T
 13.9267095452543721 11.9616164593770762 15.0545914067949980   T   T   T
 13.6205581499391837 17.7761599689700347 20.0004954199914877   T   T   T
 18.4043421502107378 17.4587472670339992 15.1016806029005597   T   T   T
 18.0858172734764224 12.8642265586360747 20.2765969557033259   T   T   T
 10.7829035306506267 12.4811369715517326 12.4500851970627053   T   T   T
 13.6086731208781320 14.7389603718652094 22.8494338232624656   T   T   T
 20.5907866566018569 12.9243307023044629 18.1736773362389457   T   T   T
 17.2681205007480756 16.1710254744742272 11.5736390631711821   T   T   T
 12.3028648747669838 15.7448257352054757 17.7151609122452385   T   T   T
 12.3161091147800104 14.7419820005925626 13.3333036587408298   T   T   T
 12.5078921931369589 10.2968535552925360 12.7239392940832534   T   T   T
 13.1859486085057007 20.1640833895138201 17.5486814717590391   T   T   T
 18.8396873199090749 15.1054677078779882 17.6973436235578063   T   T   T
 18.4588982615689972 18.8395477337970405 10.7787375449703990   T   T   T
 -0.1772179284401780 -0.0865329622800681  5.1007327021719373   T   T   T
  4.9941869592600971  0.0108965821892984  0.2622478770270011   T   T   T
  0.1435709088564773  5.2561560928474513 -0.1189436451262796   T   T   T
  5.2985376265333706  5.2350892478334847  4.9596209078490832   T   T   T
  0.1230414329110275 -0.0431592958131442 15.1059066200789029   T   T   T
  5.2024346203959064 -0.0150909183156222 10.4927842035130272   T   T   T
 -0.1171879668532473  5.5058307170579441  9.7294827377974809   T   T   T
  5.1012262059503692  5.4371395768346202 15.7840308994742937   T   T   T
  0.0528137307750779 10.6794897357105398  5.1654001895926029   T   T   T
  5.0808676958492933 10.2314131881410599  0.1132589580002365   T   T   T
  0.1103297319169299 15.4962567317290496  0.2282914816698715   T   T   T
  5.3118642202253143 15.6622105621213912  5.2738850444429559   T   T   T
  0.0428628576404302 10.4639888635884777 15.3975916334912224   T   T   T
  5.0893129357526723 10.5828547183700756 10.0828530356235113   T   T   T
 -0.1270179864390015 15.4780653902138532 10.1919456374548378   T   T   T
  5.2521657566676492 15.7335694605728627 15.5358997534629975   T   T   T
 10.1772506320297165 -0.1449064995347460  5.1848778101776292   T   T   T
 15.3590406791691194 -0.2201766194866657  0.1153036864711505   T   T   T
 10.3653019003261555  4.8730799762176140 -0.0728287769810355   T   T   T
 15.2900451830916904  4.9207896130418476  4.8994958253287093   T   T   T
 10.1349170314905113  0.0468592220728692 15.8302163557460425   T   T   T
 15.4595723227468955 -0.1708930294699195 10.5008401031759053   T   T   T
  9.9789231256941076  5.0206153770601496 10.2904266259083563   T   T   T
 15.2280521110159111  5.3121837586244363 15.6662785747119884   T   T   T
 10.3370713382077888 10.0892216751070638  5.1251584705662694   T   T   T
 15.4882175109810216 10.2175495181272140 -0.0029353526082356   T   T   T
 10.2907866131695851 15.4009189661951762 -0.1336066892998087   T   T   T
 15.2543950935694586 15.2198784729474941  5.1612150849521816   T   T   T
 10.5245403091999066  9.9856606252996656 15.1975316668982554   T   T   T
 15.5290126562768851 10.0434919759744581 10.3030926921249542   T   T   T
 10.4500881488023314 15.3829463074487851 10.3985492647793514   T   T   T
 15.4273704490671655 15.3256940558227335 15.7503578806737341   T   T   T
  0.9621170397959934  1.0576402504996780  6.3988626083594546   T   T   T
  1.4523702991738070  9.2115918040632732  4.3212168974999567   T   T   T
  9.4191778946522664  8.6689062815002718  6.2871784373686062   T   T   T
  9.0934276643542606  0.9873796588541096  3.8616569234404481   T   T   T
  6.7571281728477102  0.9573613795026246  1.0818122914728767   T   T   T
  3.6877693187419318  1.1362714673220089  9.5059344253614935   T   T   T
  6.2422144180850694  9.3205958161780522  9.0329819820542667   T   T   T
  3.8684580509488686  8.9069721039028682  1.1790859524021455   T   T   T
  1.3730160445598838  6.4418252067360990  1.0759578723778322   T   T   T
  9.0804025270778261  3.7359364160709401  0.8356664663929748   T   T   T
  8.8681969045741766  6.3253749261224170  9.0085586761597245   T   T   T
  1.0273991960477875  4.3194820160772576  8.5270400937310402   T   T   T
  6.5976541525199570  6.4016261251214752  6.1674310629094791   T   T   T
  6.1907863362019535  3.8036013927778951  3.7109022888745975   T   T   T
  4.0489360356363857  4.2466440676824169  6.2573464725162875   T   T   T
  4.2998062669921762  6.4153813203750225  3.6894233868667397   T   T   T
  2.4522656919128210  2.7304476678892526  2.3098329453039490   T   T   T
  2.6591575953123203  7.9799672443436513  7.2503261182751437   T   T   T
  7.8828091877148720  7.7343141739624661  2.4639418073509010   T   T   T
  7.5123691577818166  2.7729481502646993  7.5445317139989188   T   T   T
  1.2304333596798331  1.2689364130196099 16.3126075209815298   T   T   T
  1.1979589470036132  9.4182291665265350 13.9356046025670093   T   T   T
  9.4112964015030549  8.8590730961568234 16.4090844450377418   T   T   T
  8.8912132344454538  1.4661719994210756 14.7557792422650884   T   T   T
  6.1132690771963203  1.4519154139667718 11.6533667479112246   T   T   T
  3.9804173238095233  1.2678292686504784 19.6090142917977062   T   T   T
  6.1329089171125544  8.6873750598837329 19.4754394681592018   T   T   T
  3.5915136265393972  9.8448918522787796 11.0857923604283073   T   T   T
  1.1504875621487904  6.9299139918316675 10.6826170035806260   T   T   T
  8.8561217534829364  4.0389687373519703 11.9621583597072068   T   T   T
  9.2454636832474080  6.0443888808165047 19.2262993908446376   T   T   T
  1.3476743363833179  3.8390917504521695 19.3468799680612378   T   T   T
  6.7015169823176510  6.2672320252834544 16.8663374928666343   T   T   T
  5.9651755707673075  4.0309833696613850 14.3787776333661217   T   T   T
  3.6657998559314549  4.5269736791444428 16.7661224619413858   T   T   T
  4.1502853637827339  6.8518453221510880 14.5433045575201643   T   T   T
  2.4657874140529463  2.8927596060018250 12.9705048511713983   T   T   T
  2.1267233407415289  8.0537227479740157 17.9652905702242123   T   T   T
  7.5275787447278075  7.6351062353122652 12.6283227084520959   T   T   T
  7.7061227219715978  2.7988016835276319 17.8982514589551016   T   T   T
  1.1865494325616812 11.8679841695211010  6.4521417069196625   T   T   T
  1.0158763027054571 19.0932738115980101  3.9460082535498198   T   T   T
  8.9311182521311796 19.4172129173171868  6.4422165552051212   T   T   T
  9.2362549672130516 11.2396623922268031  3.9335528601240775   T   T   T
  6.1630025508884083 11.3233312291211039  1.4427902171614386   T   T   T
  4.2104915716080811 11.9393705722109313  8.7366052482084857   T   T   T
  6.0752124669784386 19.2929964286538222  9.1677283644838230   T   T   T
  3.8232746444491723 19.8708694465345559  1.8829782476453882   T   T   T
  1.3072728791339010 16.6647928517980617  1.4253937366197691   T   T   T
  9.2257409334276055 14.3618332672413427  1.2786479670460091   T   T   T
  9.2282475739835661 16.4402889297357788  9.1176285008222262   T   T   T
  1.0997061781326380 14.3868270224822492  8.9246416385374605   T   T   T
  6.5305267589771701 16.6587257497307206  6.5628059904039855   T   T   T
  6.7207602965857776 14.6296830612374684  4.1909457848377896   T   T   T
  4.0362328180140326 14.4213610821402103  6.2323446635966144   T   T   T
  4.1092756888056705 16.9646133809667248  4.0924353184018933   T   T   T
  2.7104168630277123 12.8501967978134335  2.7333320672352519   T   T   T
  2.2241882450007773 18.2732999358810773  7.5708172402806779   T   T   T
  7.4492422122322930 18.0736507494329004  2.4301764607925218   T   T   T
  7.7771948180355190 12.7931934276728470  7.3732556198270141   T   T   T
  1.3737707385943876 11.2490457498573129 16.5982874147605770   T   T   T
  1.4046172706338540 19.6373379503224967 13.7514951726611212   T   T   T
  8.9498667432067709 19.5279986365269380 16.9740344246729080   T   T   T
  9.2901345976876932 11.2743084181672444 13.9727614924146550   T   T   T
  6.1145974479605254 11.7075781734944524 11.4998775861016735   T   T   T
  3.9135933501654376 11.4028311649667149 19.4046904301308061   T   T   T
  5.6541472370639543 18.8325336816225786 19.8535860516657010   T   T   T
  3.9637553029357733 19.4023695656291935 11.6381208365009954   T   T   T
  1.0073755540552023 16.8045959027608802 11.3763652727147750   T   T   T
  9.4074441827870370 14.2021500332224644 11.7737092883640404   T   T   T
  8.7997635114941968 16.2191266423343663 19.1987712367705328   T   T   T
  1.3334191049641679 14.5070618839057097 19.4350721652353400   T   T   T
  6.6922024053845446 16.7817348296150257 16.4932044207774666   T   T   T
  6.2439189055617010 14.4685454554558959 14.0980384680876636   T   T   T
  3.9450984423826614 14.8639979108669706 16.7703277286545784   T   T   T
  4.2576736844012553 16.9633053542078756 14.2609245459155556   T   T   T
  2.4039766056707421 13.2138833994710581 12.4249723762397295   T   T   T
  2.6308504081365069 18.0177877790691880 17.5748616865127332   T   T   T
  7.7554539765530306 18.4800581245801325 12.7098081316120073   T   T   T
  7.4426986948252649 12.7477570880632634 17.7724395282465508   T   T   T
 11.1482993806231274  1.2266272514911154  6.3413683580480535   T   T   T
 11.4201475549625098  8.7715571876366134  3.8850463171781100   T   T   T
 19.1068615266673305  9.6492271746442793  6.1501757009034463   T   T   T
 19.5263684975948948  1.2315817826585154  3.6829509494801598   T   T   T
 16.6634782175227798  0.8749494341773270  1.1620299446720437   T   T   T
 14.3627670105948564  1.4023144998011257  9.2433768396845846   T   T   T
 16.7092477944478404  8.8455236971229638  9.0682491930598310   T   T   T
 14.6309467729413161  8.8694098775359560  1.0989077521415247   T   T   T
 11.4855274091402055  6.0566203916817640  1.1738168461497458   T   T   T
 19.2604250144890514  3.9989119500313559  0.9125776938214750   T   T   T
 19.1426617613049785  6.6686934916360148  8.5672612239701458   T   T   T
 11.0651677585005590  3.4983849150001634  9.3823415469100375   T   T   T
 16.3757018204098017  6.0704886517628482  6.2867929026266509   T   T   T
 16.6197248622854445  3.8372716444430717  3.6015373995649496   T   T   T
 13.8118298554710126  3.8109191309108312  6.1603769220002391   T   T   T
 14.1267534524136238  6.0157394874168215  3.6740950495620890   T   T   T
 12.4585786483877445  2.3146461734427417  2.4508301445719320   T   T   T
 12.4746956959138711  7.5908700918013450  7.6737300388201453   T   T   T
 18.1498602971730705  7.9859763736933509  2.3955177157948522   T   T   T
 18.2365705559854874  2.8701581987054978  7.4471756492513057   T   T   T
 11.1875157899888489  1.3568411319944036 16.9910623703900541   T   T   T
 11.5334321783522089  8.5918742229499330 13.9716717557294032   T   T   T
 19.3310588493052151  9.2059007564197639 16.4551087856745255   T   T   T
 19.4523407011490548  1.0420671476151633 13.8997323052136341   T   T   T
 16.5984808581303085  1.0993586211944744 11.7582484365768742   T   T   T
 14.5279032763191882  1.0689405354542647 19.3149158169523432   T   T   T
 16.9377043297989047  9.1644697210298496 19.4459675853488889   T   T   T
 14.1632908479768229  9.0458624818373821 11.3516360941563388   T   T   T
 11.5231677409229967  6.1280167928590021 11.2812870093365358   T   T   T
 19.5531415900835270  4.5457940172788724 11.2726020615344229   T   T   T
 19.6835034350212723  6.3203084848806652 19.0803182670625446   T   T   T
 11.4876455178087582  3.7964777745342153 19.2616509683667090   T   T   T
 16.4048729805429332  6.5232523387063948 16.7667566109479083   T   T   T
 16.4184249136118652  3.9885284226174260 14.4562248607410773   T   T   T
 14.2082810203410688  4.2277910740605016 17.0228475515562323   T   T   T
 14.1322923251696224  6.4938905816649113 14.3666612033159034   T   T   T
 12.9324570980051803  2.5911779181813213 12.9834053657030886   T   T   T
 12.8356310277584615  7.7875333130068176 18.1372873996467732   T   T   T
 18.0803132532510915  7.9862104549353523 13.0889903683842519   T   T   T
 17.9882148607743204  2.3747291131917025 17.6840100440529611   T   T   T
 11.5419490966438865 11.3000902284816647  6.2364680352330373   T   T   T
 11.3270819530871165 19.1767240434878019  3.9308015816870352   T   T   T
 18.9143589810090447 19.4538726647911773  6.1761545923088681   T   T   T
 19.7884808370381435 11.7310526359810954  3.6234396882520428   T   T   T
 16.6215210133395601 11.3790366561847858  1.2531118483070192   T   T   T
 14.4233610277719517 11.5243580568626012  9.1785049683465072   T   T   T
 16.8157751863491214 19.3845995893279763  9.2374323401316367   T   T   T
 13.9815316081809087 19.4703954267401969  1.4255593562311115   T   T   T
 11.4189572473153635 16.6611633916309998  0.9627044627126758   T   T   T
 19.3111783145031168 14.2833971760039677  1.0815488525043919   T   T   T
 19.2919030163526770 16.9017813738193468  9.2092215101832338   T   T   T
 11.6193820025698660 14.1585308594347890  9.0137840485468228   T   T   T
 16.4821489479810737 16.5087793082224721  6.2718827199988301   T   T   T
 16.6003486240483866 14.1110000640180235  4.0551044457900556   T   T   T
 14.0649020103052091 13.8649530468441871  6.1839674448619135   T   T   T
 14.0335731468421336 16.3323709640645731  3.9200854485455641   T   T   T
 13.2214258221162702 12.4228130221088779  2.5132983950221890   T   T   T
 13.0972866228673617 17.8947601211597487  7.7507790117295734   T   T   T
 18.0801496770057213 17.8835474292533192  2.4204585367629710   T   T   T
 17.7080194807284528 12.8240880327644113  7.8779337006110310   T   T   T
 11.6662381142371387 11.1043270794472342 16.4251877023081647   T   T   T
 11.2224859008002866 19.5352294931839836 14.4285724207680435   T   T   T
 19.6583034169580770 19.1001626869310783 16.2654157863927935   T   T   T
 19.2975713675631511 11.6774108883673708 14.1705081942896385   T   T   T
 16.7487826368067516 11.0802112475885703 11.6463985742648113   T   T   T
 14.4353089044679095 11.4811510279657387 19.2604153090397077   T   T   T
 16.2265423758586138 19.0272444667335634 19.3289278958719493   T   T   T
 14.1382478496435677 19.2519199185868146 11.4958341759472802   T   T   T
 11.5929028378093175 16.6990088040206714 11.4888056151481592   T   T   T
 19.1208171954281809 14.4066187930512299 11.2549865260173974   T   T   T
 19.5187976415606244 16.7047123026372120 19.4419227582752683   T   T   T
 11.4048682879336631 14.0144186330634462 19.3004367453093479   T   T   T
 16.6741860122228474 16.5648918346856178 16.7916786030611718   T   T   T
 16.6475388551621961 14.2386618661926398 14.3635886472529180   T   T   T
 14.4005345472498707 14.0025489132169270 16.8842782830746003   T   T   T
 14.2525277100833367 16.6735205868206364 14.4811085522504293   T   T   T
 13.1491893232826538 12.5042579010391375 12.6289811772432383   T   T   T
 12.7090480556110954 17.9787895066394441 17.8453081172474626   T   T   T
 17.8718015459448907 17.9850106069896256 12.7659645335626202   T   T   T
 18.1476381598325958 12.9508470644108424 18.1069687843831417   T   T   T
 -0.5940991075701485  0.0640708074502849 -0.2648167287811518   T   T   T
  5.4737514883118852  4.8839268771532831  0.0251551019958425   T   T   T
  4.3288416615241783  0.4598038667125156  5.5396879058522401   T   T   T
  0.1098967490619424  5.4657750549533990  4.4217011290233836   T   T   T
 -0.4891155572172602  0.3481622256822496  9.9591438225707734   T   T   T
  5.1478946845983682  5.5132196186403100 10.5711387676914086   T   T   T
  4.7073540455590530  0.3683656795707116 15.4787023435493367   T   T   T
 -0.2399252186680099  5.4158400177932382 15.1846128030944492   T   T   T
 -0.0112762608842821 10.8871221931295850 -0.3070431783473417   T   T   T
  4.1498277850817527 15.3750027901788862  0.8579781368383923   T   T   T
  5.5235334702308236 10.1004503406517987  4.8068192583845510   T   T   T
  0.0929870113865863 15.7454690743269570  4.7209852250605708   T   T   T
  0.4928917959233915 11.0038855620264791 10.1384212978621306   T   T   T
  5.6744896169547525 15.6543124824048849 10.9307223279243662   T   T   T
  6.0099825355018748 10.0816876017004446 15.8028856492843897   T   T   T
  0.2054809282919018 15.0560236188934837 15.4773304930338451   T   T   T
 10.0097820556293762 -0.0864354997919284 -0.1627462819192280   T   T   T
 15.7475190439002226  5.1139609655719971  0.0703887134265659   T   T   T
 15.5003456364528827  0.2729599943999421  5.1145096667978853   T   T   T
 10.2605177387407096  4.6857857160668157  5.0331827333333496   T   T   T
  9.9013122942564955  0.3470523340107903  9.9608579456970610   T   T   T
 15.1876722192722333  5.0854114707764886  9.8420645931559800   T   T   T
 15.4534825100906765  0.3270027952702009 15.7855448752119312   T   T   T
 10.6616091374066357  5.0827835481468364 15.2469822648097750   T   T   T