Li P  S  Cl
 1.0000000000000000
    20.5609999999999999    0.0000000000000000    0.0000000000000013
     0.0000000000000033   20.5609999999999999    0.0000000000000013
     0.0000000000000000    0.0000000000000000   20.5609999999999999
 Li  P   S   Cl 
 191  32 160  32
Selective dynamics
Cartesian
  0.1582214855160284  2.6631584429703441  2.5822912281452912   T   T   T
  3.0021446485278163  5.1477014951745996  8.1732499605533988   T   T   T
  6.4541790879614034 10.3062267332336859  3.0745222611407281   T   T   T
  7.8963423334157810  4.9737117216883897  7.5098043465200446   T   T   T
  2.9263842211094659  7.5302537681836146 10.2433481485765263   T   T   T
  2.1363405624940897  4.7755216662145612  2.6096009540235365   T   T   T
  5.4199742569511313  2.7923198443588908  6.8501888541386551   T   T   T
  8.0782621183423302  7.9467445104735761  0.1631946571527838   T   T   T
 10.2915496051460629  2.3770646958138482  7.8279678056110766   T   T   T
  9.5195032176112679  6.2558581935419566  2.7502031655795811   T   T   T
  2.2243972100333189  0.9661800569144623  0.7509241138906101   T   T   T
  0.7146500558261945  6.9331791562805600  5.9715201432413192   T   T   T
  5.8304039343719936  7.2597183277936290  1.8069157389744237   T   T   T
  8.2851545451732100  1.6289945324953174  9.4787026298960395   T   T   T
  4.3053023054893798  1.9932216784887240  4.0942474513031399   T   T   T
  0.1680712414247727  8.2651601244117803  8.6216531562043652   T   T   T
  7.8635678878921960  2.8286431200159234  5.2575232498094033   T   T   T
  9.8648866227607073  9.6113065874282722  2.3048710460301720   T   T   T
  4.7105213925497127  7.8627567830107656  7.7100237157714817   T   T   T
  4.7023988729995363  3.4770596190619871  1.5470273332209556   T   T   T
  1.8006008113057390  3.2267577576014359  4.8772984648402273   T   T   T
  3.1248685022036224  8.3654689898079120  5.3875213630589807   T   T   T
  7.5390080898144580  0.3609173569860606  6.7819426929598352   T   T   T
  7.9288095696136311  7.6680378258171125  4.8988813482354088   T   T   T
  4.5272116776784275  2.2228091237627208 13.9782992013163661   T   T   T
  2.4950999559487022  5.9310174232865354 16.2124517674794149   T   T   T
  5.1524327448314837  7.8505673499535735 12.9559523738257152   T   T   T
  8.0958793465324419  2.2177747327265527 19.9694660492316700   T   T   T
  3.8628957490713085  8.4664838945139529 15.7285992510945043   T   T   T
  1.2263950517376556  2.2194263615779199 10.6369553473660048   T   T   T
  7.4733032688681016  1.3942872549700345 15.7043478183848801   T   T   T
  7.7286046404079860  8.0280597839306171 15.5671309586878976   T   T   T
  9.7203435404875673  0.9011030334370773 18.2922920388537307   T   T   T
  7.3287350082665599  6.8094737725248935 10.6820352589226761   T   T   T
  3.2161405591198422  5.1443817120448134 12.1392062693511900   T   T   T
  4.8399105579746893  7.6237863411162152 18.4429530662728993   T   T   T
  7.3261836909200007 10.2895384788279145 13.2767734896842544   T   T   T
  9.6319231900362059  3.6167110683489918 16.9967744614491565   T   T   T
  5.0568478102810994  2.9034708396777145 10.9905643425764517   T   T   T
  2.5174439215648712  5.6880446046342561 19.3516673545470397   T   T   T
  7.1430319284687549  4.9209218635724303 18.4113645786579241   T   T   T
  9.9629242406307963  8.9027496029176323 12.2957998818364853   T   T   T
  1.9801579440189991  9.6355973904383969 18.5820050804729817   T   T   T
  2.1134608654380886  0.2554933938676673 12.5158657733196961   T   T   T
  0.9187340614652459  2.9274843786444373 13.8516420351831808   T   T   T
  0.1174251849715021  7.3534420770011986 17.3996871376195372   T   T   T
  5.2751504449717190  2.2382104849313866 17.3224710712772705   T   T   T
  8.0636447863282168  5.3253883249976024 13.4135709016555094   T   T   T
  2.0942405809540783 10.2894622604404891  1.7924308201088512   T   T   T
  1.8203770328001443 15.7741880998505106  7.4923183650058167   T   T   T
  7.1749392034226096 16.7057474105938155  0.7665111749649162   T   T   T
  6.3042243524650292 15.1504594293421384  7.9483809442462592   T   T   T
  0.2819176666190971 18.6098244312851975  8.3631226382088251   T   T   T
  1.9281720042485748 14.5546096330044961  3.2242671957880442   T   T   T
  4.7848724854527136 12.3119631213066629  7.4768262154796128   T   T   T
  7.2111563382621329 20.5559772714798754  2.2288646369103988   T   T   T
  8.4257194572109420 10.7712843880455083  8.0721016208675724   T   T   T
  5.4937016966350027 18.0228350671337623  1.8331091136080047   T   T   T
  4.4093577175218641 13.5203708486896463  1.9044931939973910   T   T   T
  1.5788067842069271 17.3698875783593607  5.2370507940301181   T   T   T
 10.1865405076128575 18.6833293550816464  1.8439337452526798   T   T   T
  7.2365725141774115 13.2967891779245928 10.1042040844920908   T   T   T
 -0.0297800314281777 12.3055369757739435  1.8438883218826767   T   T   T
  4.3723530876092083 18.9285012135950481  6.8807059369016823   T   T   T
  7.3876047481283820 12.3208443748707506  5.1739034899655358   T   T   T
  8.0590547069846412 15.6353965594582647  3.5980659964951931   T   T   T
  3.0297237767773364 17.5031430475175043  9.6020726942926959   T   T   T
  2.3462954018439532 12.5990410153787948 -0.2499952660079717   T   T   T
  2.7386540068906888 11.6920576055154637  4.5156829026583383   T   T   T
  2.1323042329523507 20.5977236177359231  8.2289973584033085   T   T   T
  9.4394140616546007 14.3861960825144770  7.3687960347654711   T   T   T
  7.3782217543823210 18.4145292986140348  4.7969565409309087   T   T   T
  2.4628870789474786 11.0925253772010439 11.6920556715441943   T   T   T
  3.0806551163378271 17.5850831361722868 20.9402078436599908   T   T   T
  9.4167698697400528 19.5207971264497857 12.9082803519225546   T   T   T
  5.7951168268319444 11.9018955538332474 17.3019090280547516   T   T   T
  3.4722549972527141 15.3300901206540026 19.0351316224536831   T   T   T
  4.8012841888030025 13.0982787303492785 12.1827200783414096   T   T   T
  8.6975041938766413 10.8790203724969885 18.9178523824427174   T   T   T
  6.1112159323203787 19.7852575314976349 13.0399441564220311   T   T   T
  8.3056324528862167 12.9837385748073668 20.3301814899717286   T   T   T
  5.1345661466315118 16.2864672551744789 12.8477683110479184   T   T   T
  2.7653576549865337 14.4942409305204301 11.0931373481121049   T   T   T
  0.9734672447551338 18.4683524334086755 20.0607285556617541   T   T   T
  7.9490589836487517 19.2625318932146641 10.4120730789108240   T   T   T
  8.0395733186111649 13.4544335415987160 15.8917174734831477   T   T   T
  2.6088457510593965 14.2593517000125747 15.3325369224199015   T   T   T
  2.2574884386571177 19.1093834746561981 16.7420120999295534   T   T   T
  7.9067025023307549 14.9356264035657365 18.8898972491997625   T   T   T
  0.6917988506334016 16.3533879801490940 17.3918028939603033   T   T   T
  3.3506066991122863 10.8174628890622202 14.2155123166129229   T   T   T
  0.5902896706161188 14.0615004919372417 13.1911580206693042   T   T   T
  4.5892082363767219 17.8729442331899264 17.9753939883376006   T   T   T
 10.4008674373538010 13.6388520875282246 17.7544628139388081   T   T   T
  7.9526868037551290 17.7408031763246470 14.9087896643261075   T   T   T
 12.6671941346861168  1.0442092805931904  0.3312346715216811   T   T   T
 12.9451423652552116  7.4033876544225485 10.1517137498954817   T   T   T
 19.9419907335673301  7.5124076400164741  2.4180852372975528   T   T   T
 18.6879156451332236  0.7552926785838138  8.3007784201227093   T   T   T
 10.2620647771435500  8.0396164471271661  8.5482550522277165   T   T   T
 13.4943416595983496  0.7338689510421602  4.2934689685435599   T   T   T
 16.4426662780446762  0.6499394754024373  7.0295959904600762   T   T   T
 18.0473068179495684  7.1037865921301444  4.7644672182015588   T   T   T
 18.3574670859950544  2.7977119297741035 10.1731218352007531   T   T   T
 15.4012890295856408  7.1540001457032183  2.4476828501341870   T   T   T
 11.9652155197423777  3.1828272668796433  4.7668403667592028   T   T   T
 14.5484981452378470  7.8225000684545583  7.0476227584132012   T   T   T
 16.6966090453653919  9.9967249893635870  2.7255236099451676   T   T   T
 20.0433316609324663  3.3778005575618715  6.8530012617217251   T   T   T
 12.6482626990921503  4.4226592720845206  0.6719239121504905   T   T   T
 12.2325199269001992 10.0919386795168204  7.9504711906976748   T   T   T
 17.9688815764374823  2.8193299374100498  5.0274195031770637   T   T   T
 17.1136718798266045  4.8373760395590466  2.0345395380537004   T   T   T
 12.1859530608983704  6.8505471684893395  5.3868486116464647   T   T   T
 14.7867972408084860  3.1289459941401492  1.6830762105737989   T   T   T
 10.3788171631273709  2.5797091871874476  2.2559767735373799   T   T   T
 12.3638108994713747  5.1467103056182468  7.8311530935554616   T   T   T
 16.0682355929577128  4.0881389448907788  8.3170105171376001   T   T   T
 17.9885680249000117  5.0886718052943278 -2.7071662394063023   T   T   T
 15.1317904907363072  4.2630859199359055 12.3888262816865993   T   T   T
 12.5371297135929058 10.3155364564735574 18.3883539226795776   T   T   T
 17.6256308544810167 10.0523809556774317 13.2214581969179736   T   T   T
 18.7632906851169707  2.4536178948650327 20.2134103014134254   T   T   T
 12.3789460885630582  5.8857042807409403 17.1231501700502449   T   T   T
 13.6980760351545570  3.0559809215253844 10.4211486143581045   T   T   T
 19.0905338429781253  0.8228985648552545 18.0267994145129151   T   T   T
 19.1623227632629778  6.0122261574993940 13.6002250033664378   T   T   T
 17.6808933778596753  7.8206352424643670 20.9595248335634281   T   T   T
 20.5089959133729067  8.4995417117808429 11.8313315040884568   T   T   T
 12.7053531890135751  2.8290560577217376 15.2603376345841379   T   T   T
 12.5835715818439784  8.0426514821527455 20.1683395803853713   T   T   T
 17.1737903533977843  7.1457623654294142 10.6525829452481489   T   T   T
 16.2992837987830015  2.2654778118786898 19.4179522407235083   T   T   T
 12.0947504937750061  5.1910449195022510 13.5722468836670291   T   T   T
 15.4453974744320757  7.8835159517517113 17.9153664762008873   T   T   T
 16.5794660972400720  1.9025425343129452 15.8331080666701620   T   T   T
 15.3233336969358778  8.2564073801247755 13.1838843731443855   T   T   T
 10.8335202628223897  7.8421119315108019 18.2439739237759895   T   T   T
 10.4301987965986243  3.0523997851379967 13.2808978567673961   T   T   T
 13.4258227050049079  0.7291620421290033 13.0623139854150345   T   T   T
 13.4486084942591262  9.7082774535080247 15.8159119452931520   T   T   T
 20.2220835056482997  3.0622483635618907 17.0771181161990668   T   T   T
 17.6487293427276484  8.0360309306458628 15.1460553020981479   T   T   T
 13.8432651986534943 10.9289476255444384  2.8839127684301467   T   T   T
 13.5336244774522054 15.3935318087555153  8.4078254415051124   T   T   T
 17.6043569302465670 20.4856300300982284  2.5982292469566590   T   T   T
 20.7993011901370153 11.7997777719102306  8.4227475236389946   T   T   T
 15.5929188598551480 16.9872745112382830  8.4201189499060582   T   T   T
 12.9142546867215628 12.2436544018441182  5.1960816896594206   T   T   T
 18.5657635752086136 14.4678294701949319  8.6181364391225461   T   T   T
 15.7623352644648680 17.7151280218684946  2.0607678902582358   T   T   T
 15.7762559451708810 11.3127914878603377  7.3383102473708846   T   T   T
 17.4572161462262798 18.5227595017932956  5.2036958878328461   T   T   T
 11.9606117053981080 15.1350201037967889  3.2459650198097920   T   T   T
 13.9575313511490098 17.8084617289591876  5.6070272122194122   T   T   T
 18.7306360056710872 15.8760740204128972  3.2267270036710300   T   T   T
 19.1244680203407782 13.0476008926157938  5.7222814484461351   T   T   T
 15.0456063602702717 13.9301808468510746  2.3952763193361286   T   T   T
 10.9920943567996652 17.5265305045590338  6.6961655177858210   T   T   T
 18.6045118862971961 10.3108257823375666  8.5623052044469201   T   T   T
 18.5198784421802642 18.2131400594934476  0.7222210903345443   T   T   T
 11.3718963051461710 18.0604013628951421  9.5086672290196432   T   T   T
 10.4926071961997245 13.1798559056787017  4.0572800287622828   T   T   T
 12.0719584282850398 12.0853636245445895  0.7465904351413150   T   T   T
 13.9474648601359110 19.4741285615727833  9.0248289407964002   T   T   T
 16.1912122153594780 13.1497233763240313  9.1936067971052378   T   T   T
 20.0535213602137432 18.7445426780177087  2.4084384308974722   T   T   T
  8.2027913524518343 15.8150685222515079 12.5663665114843432   T   T   T
 12.8271899745416054 17.5190682790418748 15.4608843515460208   T   T   T
 17.7253744474276758 20.3122810392493349 12.9015564949088759   T   T   T
 15.8726175427164335 13.1669144561300548 18.3706722604699166   T   T   T
 13.4404574841541251 20.2802069097379842 16.6527882928831872   T   T   T
 15.3173472815381331 12.2949557697926419 12.9104020405221416   T   T   T
 20.2867498635673016 12.8030231557000480 17.7639125553447030   T   T   T
 17.2383110801250723 18.8828602492693065 15.3001018938007949   T   T   T
 17.4206167378931411 11.2191350087404018 16.5369768165497106   T   T   T
 15.6928510199050066 17.8927060364843413 12.8119059081898019   T   T   T
 10.4503084643841628 13.7574142209568393 13.2238700512810432   T   T   T
 15.1713180297708607 16.8395991198719273 18.3718363056768652   T   T   T
 18.2846414329416689 18.3299325791895598 10.5729761485597162   T   T   T
 18.6107468345292304 13.8117221998341400 15.7674586479681622   T   T   T
 12.7919844657956840 14.5198386158348924 11.2829768435234179   T   T   T
 10.6346100078594183 17.3292295556837459 17.4299493372722907   T   T   T
 18.4037536174612129 11.3973757061201031 19.9357036423784137   T   T   T
 18.2691969851082234 15.6174493642637735 13.1741639027593180   T   T   T
 12.5499593644295864 19.0847690986597058 19.6177440591686079   T   T   T
 12.1814947590636358 11.1345203466856919 11.1129073482723530   T   T   T
 12.8308421182927290 13.1991763605662857 15.0090169552984563   T   T   T
 12.9681547214318371 15.7455539004381393 19.8028856421285440   T   T   T
 17.8797859775090302 14.8862559442432367 19.6448327059136503   T   T   T
 20.2163647744760269 18.0076091776062341 14.1001524561981011   T   T   T
 -0.0182425487993890  0.0686086694565585  5.1235650850997727   T   T   T
  5.0372786708411077  0.1844340045378207 -0.2638409366832693   T   T   T
 -0.1166495216564915  4.9860839468332463  0.1124733631759367   T   T   T
  4.8868219296790221  5.4270677718834115  5.0400278360023885   T   T   T
  0.1115017257611215 -0.2204123988471209 15.2251293316712388   T   T   T
  5.1766146422993655  0.0308574095942073  9.6673474263100463   T   T   T
 -0.2800612981409220  5.4759244920089216 10.4079485262309337   T   T   T
  5.0636226066381944  5.2013048789433229 15.3180484572750668   T   T   T
 -0.1449733856506675 10.0952654664096197  4.9791124544812195   T   T   T
  5.2491181156646656 10.2540729491922047  0.0460403883996003   T   T   T
 -0.1034976033274051 15.7953293314432219 -0.0877118624893168   T   T   T
  5.0417532513705261 15.4487708676555755  4.9635393423482874   T   T   T
 -0.0528089131989153 10.5155827459011846 15.5276180736449536   T   T   T
  5.2145099911774411 10.2172413529431942 10.4352450638383658   T   T   T
  0.0022528521942769 15.5439555345043665 10.6276589970846942   T   T   T
  5.1906383887107959 15.4875731723532351 15.4722154628458490   T   T   T
 10.5042716844424913 -0.2884433443428191  4.8883996131535286   T   T   T
 15.3613615142592526 -0.4068821597155720 -0.0963495172410474   T   T   T
 10.0805780238352032  4.9867656372160996 -0.0984865250300621   T   T   T
 14.8704435220813096  4.9272444946050875  5.2092967377568575   T   T   T
 10.4482900139575126 -0.0985438285640603 15.2784174120028915   T   T   T
 15.6621941923193901  0.4515314211005658 10.1967316842178146   T   T   T
 10.2493332738337610  5.0783340581871022 10.5268561277933017   T   T   T
 15.1646961435729040  5.1269999313024659 15.7228795233684941   T   T   T
 10.1527686396374826 10.0886248910270222  5.0927895997408976   T   T   T
 15.3634548206247725 10.5092363001513576 -0.1897768800778931   T   T   T
 10.3428071225364135 15.5839931286096682  0.1161037669761636   T   T   T
 15.6640126844480800 15.2151862097009172  5.2241311785633453   T   T   T
 10.5140842432198998 10.3124841895392354 15.4066095243720476   T   T   T
 15.2197483081329370 10.0417387710787036 10.2690488692245765   T   T   T
 10.3725064331115107 15.2398139502833700 10.0221270776908380   T   T   T
 15.6942815968359710 15.4513924126838393 15.4701327875150092   T   T   T
  1.1353828873199556  1.4850663930007968  6.0456325721455819   T   T   T
  0.9939109533111526  8.8167072986366790  3.7803500208088572   T   T   T
  8.8204829709998105  9.1445526396374319  6.3610813400592443   T   T   T
  9.4346436392199511  0.9367023717855750  3.5930794650277673   T   T   T
  6.2217243524262100  1.6485819960071495  0.6444745905674907   T   T   T
  4.1582738451970886  1.5243673833481062  8.7684510763146175   T   T   T
  6.4164801237380837  8.9791746428350390  9.4884375761180575   T   T   T
  4.3251926321143195  9.0824011176032027  1.3530697361381057   T   T   T
  1.1033901799234840  6.1979523149265301  1.1799522795152884   T   T   T
  8.7037279294191361  4.0288130480705817  1.1988813562094340   T   T   T
  9.0200617859461154  6.2506256999577170  9.2286820043037263   T   T   T
  0.7311483806267930  4.1727451680602368  9.1643112046021216   T   T   T
  6.1160803479895351  6.2701938381684874  6.4219041421651140   T   T   T
  6.0302953696432846  3.9454824029742550  4.0696359686776349   T   T   T
  3.6097426793465410  4.1374489842609306  6.2273157951139080   T   T   T
  4.0991912776114496  6.6366442456838195  3.7528435576051646   T   T   T
  2.3875510303647389  2.5153803399404322  2.7204956121816624   T   T   T
  2.5501284784375366  7.3794800344820066  7.7166810247452622   T   T   T
  8.1676364539899247  8.1060034976992537  2.6049081026405907   T   T   T
  8.0133122075346321  2.5884205562219318  7.4734635530764777   T   T   T
  1.3128298363947779  1.0336581455715612 16.3307940296587262   T   T   T
  1.3018989330882054  9.2422465469524955 14.5793359567506720   T   T   T
  9.3980003970129129  9.2715343801696530 16.7390167724463268   T   T   T
  9.4445166705171530  1.1068330514071967 13.9121446288700508   T   T   T
  6.4564518836615372  0.8858084467211423 11.1116619819083393   T   T   T
  3.8772756596012412  1.2558918021257213 18.9482882000784798   T   T   T
  6.5935040034874453  9.2415518011947810 19.3408527661361944   T   T   T
  3.9248008383570649  9.3361906497052765 11.7301412560235825   T   T   T
  1.1210020326872006  6.4664176385293537 11.6320695682531223   T   T   T
  9.0158729832412146  3.8432405128303655 11.6333364521706404   T   T   T
  8.9090474038132239  6.2567284284840152 19.3370377212579641   T   T   T
  1.1021256245738791  3.7440153345004337 19.5456692321102281   T   T   T
  6.2879610405264810  6.2982563728513083 16.5852016453132975   T   T   T
  6.3086780616510012  3.9284128192945418 14.1893808635695606   T   T   T
  3.7949440373757550  3.9383808859361826 16.3158200301217491   T   T   T
  3.6981695690628928  6.4184352263609554 14.2295156291787208   T   T   T
  2.8042594801567713  2.4908040111524641 12.2974537314185977   T   T   T
  2.4611075939440945  7.4725121215934029 17.8918741169043471   T   T   T
  7.7482482732597022  7.8406701169523565 12.8210243336510441   T   T   T
  7.7890045222284217  2.4343612958826886 17.6429471844534547   T   T   T
  1.0037085510499615 11.2459696453282270  6.0926700154713380   T   T   T
  1.0254841029138635 19.3683598477066710  3.9770705803644866   T   T   T
  9.1932055974617501 19.0909102117267366  6.0728172675970749   T   T   T
  9.0190787576881508 11.2981483724037428  3.8401475983945859   T   T   T
  6.2686742576367411 11.6672925048892626  1.1703689715977517   T   T   T
  3.8523041051475575 11.2205960668715488  9.2908514197896341   T   T   T
  6.2015488386240927 19.2730713803230458  8.4135304276286487   T   T   T
  3.9232532769958088 19.6801521491529954  1.2124682783952088   T   T   T
  1.1598601375042910 16.9128531237041813  1.1664887966009203   T   T   T
  8.7651751710914940 14.5637178668480232  1.2611794655367941   T   T   T
  9.2615930249714715 16.4267835364992507  8.8163763682855176   T   T   T
  1.1825646443588509 14.3285566860522202  9.3117389106774962   T   T   T
  6.1395610588485514 16.9011266085865515  5.9396785207619196   T   T   T
  6.1628429525468649 14.0294596654514763  3.8750499754093104   T   T   T
  4.0411953981935449 14.5831396236751267  6.4413383246779423   T   T   T
  3.8388524427762323 16.4825630950930417  3.7016195414170978   T   T   T
  2.1455268125020770 12.5297512442600798  2.2640526983655689   T   T   T
  2.3726814610846696 18.0458745091983204  7.4980786056321778   T   T   T
  7.8265710270538227 18.3268116214330021  2.4981662302441219   T   T   T
  7.4618689982506199 12.8263945356358811  7.6543266470857727   T   T   T
  1.4793418699614242 11.4901799942150777 16.6810462910754467   T   T   T
  1.5057642407302438 19.2863974286612603 14.2903522068930631   T   T   T
  9.1010097485318031 19.2529026708423743 16.3968990560421304   T   T   T
  9.2061293890537605 11.5317851478515241 14.5211184090429750   T   T   T
  6.4832420269587674 11.4356698122810929 11.4593210792455995   T   T   T
  3.9013885626563067 10.9393505806465487 19.1200896942622265   T   T   T
  6.3859987103259455 19.3189534638608151 19.5385105629760716   T   T   T
  3.8192051851043356 19.4262840604558846 10.6025611715869896   T   T   T
  1.1402213041391633 16.4580809951293219 12.0395717558791180   T   T   T
  9.0568293452062179 14.0826203256574924 11.1660598982578065   T   T   T
  9.3353296462387103 16.8465602807493582 19.5110276324021257   T   T   T
  1.0035938504988438 14.4705199792868466 19.2494097307865886   T   T   T
  6.3464441310150397 16.5846722537259126 16.6392018315916772   T   T   T
  6.3839570244777120 14.5741062645533610 14.0726002167763582   T   T   T
  4.5671684511231136 14.0582911337541052 16.8624635719462290   T   T   T
  3.5631811338347927 16.3779623339816354 14.6560752398073504   T   T   T
  2.6856857586298113 12.9792010012452046 13.0300195138707497   T   T   T
  2.6397788921866860 17.8048097691169431 18.5747414239237898   T   T   T
  7.5834146953475265 18.0929235337987677 12.6364392826853464   T   T   T
  8.1339336566786731 12.8210665800153887 17.9802205594948958   T   T   T
 11.9402697406920009  0.7998490813808079  6.2965800360330162   T   T   T
 11.3495385631947858  8.7499714419337220  3.9921336436669992   T   T   T
 19.4610116045196548  8.8148894652358578  6.5084513643269819   T   T   T
 19.4016648977460306  1.1929092366613554  3.7892737720469953   T   T   T
 16.6571008109750167  0.9839622801967115  0.8302417525848650   T   T   T
 14.5034819775491410  1.4000071027281171  8.7161171663660699   T   T   T
 16.2719985752638934  8.8850732258646854  9.0432050382604992   T   T   T
 14.2559592626341960  9.2275857556292831  1.2995510562453343   T   T   T
 11.3130302732946326  6.3264440791294305  0.9978351505417348   T   T   T
 19.1486688711738964  3.9570240432189494  1.2422319937260402   T   T   T
 19.1311316212131928  6.8754644871058064  9.2503399514007079   T   T   T
 11.2970355616565019  3.8309861687029083  9.3469311126076580   T   T   T
 16.1651019409589836  6.0929367411818856  6.3306154715434912   T   T   T
 16.0822502437301438  3.7183117995758646  4.0125102218696140   T   T   T
 13.7197351159107530  3.6460247120051199  6.4489679250387999   T   T   T
 13.6513407695314317  5.7486995654765316  3.8155441507573777   T   T   T
 12.6787702893054455  2.7763608451537412  2.4380604579514538   T   T   T
 12.4042359113793381  7.6717340421616234  7.7443307144235902   T   T   T
 17.6410763734364622  7.7251060751963649  2.6885527664135855   T   T   T
 17.6126547626772592  2.6281673634917748  7.5288304191677069   T   T   T
 11.5853606379689857  1.3649567362376309 16.6278663102766444   T   T   T
 11.5575874085757100  9.2048662277947262 14.1645289490103927   T   T   T
 19.5247820474093956  9.2342127842476476 16.6856777670789072   T   T   T
 19.4443833020825281  1.0837769615883686 14.1180549230870067   T   T   T
 16.6364877025368472  1.6347438926042637 11.5590454263046993   T   T   T
 14.2001655336335446  0.6924841418751454 19.1922164877488370   T   T   T
 16.5682355843806803  9.2895483868228261 19.3466271207101244   T   T   T
 13.8624391839270018  9.0718598826316441 11.6110458285060432   T   T   T
 11.3116969292203411  6.4242860010400822 11.5911214200778332   T   T   T
 19.3083894230819482  4.2844217663644022 11.7844919196292039   T   T   T
 19.1504468295189270  6.3707190229206727 19.6407674365810792   T   T   T
 11.0965110745961759  3.7381795398893507 19.2989418502808050   T   T   T
 16.5832702567582899  6.5620262444987869 16.6160580295512332   T   T   T
 16.0149792698796816  3.9088705240289596 14.4532941095142462   T   T   T
 14.1247663245589674  4.1478206255706667 17.1393844072261246   T   T   T
 13.9884389961845841  6.3177412453352630 14.6784406375504179   T   T   T
 12.6268275333213627  2.9432123898973832 13.0008640184738287   T   T   T
 12.9630843530293038  8.1633640807506893 17.8294120019898443   T   T   T
 17.8269384105532041  7.6957986752263743 12.8956002177486138   T   T   T
 18.0012317352311797  2.7888513748480031 18.1242377497367499   T   T   T
 11.0411958467882734 11.3941464428502908  6.4697450344212806   T   T   T
 11.6325794167022600 18.8171036208546454  3.9512380679464307   T   T   T
 19.3750148475212498 19.6604873739495787  6.4009650087692576   T   T   T
 19.1956831330444118 11.2318483658985180  3.7890361085581126   T   T   T
 16.7093885083918394 11.6319523895105927  1.0369079255262368   T   T   T
 14.2530977818460478 11.5614000991553585  9.2359703713225141   T   T   T
 16.8991419347314391 19.7232665343403042  9.1661779776274646   T   T   T
 14.0865717563634902 19.4575770477937198  1.4850334592993772   T   T   T
 11.6059411499806160 16.6608952529208167  1.2926866416663911   T   T   T
 19.3921603250501420 14.5504158121563822  1.0968273324087126   T   T   T
 19.4083688437574722 16.7181616986763757  9.2818967050249110   T   T   T
 11.5412426310551641 13.8795292281820188  9.2168241341256376   T   T   T
 16.5180472919582400 16.6275224609937737  6.3659661813585897   T   T   T
 17.0417206535163928 14.0604030597957372  4.1572726914006912   T   T   T
 14.5817434792317879 13.9817927228441867  6.3022451167598010   T   T   T
 14.4375757307336592 16.1642000330879156  3.5912926733545216   T   T   T
 12.8485387382554226 12.8512162626510520  2.8839129449585328   T   T   T
 13.1109414515006613 17.6774881415582428  7.7695060465830750   T   T   T
 17.8768313034139013 17.8861178188233367  2.8865857736380023   T   T   T
 18.0959293939979133 12.4045426825018357  7.9248132730300611   T   T   T
 11.7886673385146690 11.6409767787708578 16.6114485809800243   T   T   T
 11.9023052131690896 19.4230143503704369 14.1997612985795740   T   T   T
 19.5827810016598391 19.0360529307581672 16.3120861440259617   T   T   T
 19.3910073710234414 11.8752096592661580 14.5356755170708318   T   T   T
 16.5583730360428873 11.0303147464274858 11.3962102348181631   T   T   T
 14.1413210097888360 11.8509481234610430 19.4458544374632467   T   T   T
 16.6260106266577523 18.6627936892936859 19.6516378442874426   T   T   T
 14.3870533778674492 19.7844474412875542 11.4431808129026589   T   T   T
 11.3883985717612326 16.5693874508985601 11.2636925127777641   T   T   T
 19.2262627847794931 14.2774298185676844 11.5178124626221674   T   T   T
 19.2480403976367498 16.9586763534419092 19.2883028543556421   T   T   T
 11.3345983763102218 13.9986440729539972 19.9556985219864700   T   T   T
 16.8066482149160450 16.8707867696462941 16.6421226302598697   T   T   T
 16.7773521414307893 14.1578067748075007 14.1844844040430260   T   T   T
 14.3435375240173908 14.4866365344434183 16.7286356179360638   T   T   T
 14.3729539573283880 16.3942258979638780 14.2260412732157544   T   T   T
 12.8743534323897677 12.8864339102767502 12.9238189237151477   T   T   T
 12.6520050244537305 17.8543628264821947 17.8402512806236544   T   T   T
 17.8971695653058518 18.0394391522172768 12.8117055407139269   T   T   T
 18.1341133982571634 13.0462661639420752 17.9624479735163689   T   T   T
 -0.2207808255153646 -0.0803581799598243  0.0434562829060336   T   T   T
  4.7676770874004362  4.9796774422579455 -0.2921634313197040   T   T   T
  5.6712448659240406  0.5720877929792875  5.3959718145581226   T   T   T
  0.2262839930557788  4.7394691705647674  4.7303759058523651   T   T   T
  0.2490308422594626  0.4905997356138815  9.8873405525265206   T   T   T
  4.6616795798445176  5.5380668250913638 10.2727018252362718   T   T   T
  5.6918375884853489  0.4206328310066565 14.7677224435857326   T   T   T
  0.1206055996994032  4.9750124723052851 15.8963145765026574   T   T   T
  0.1846442429894088 10.9537305836242158 -0.4256008396506812   T   T   T
  4.8609724884206384 15.5452332428058551  0.4338172067796435   T   T   T
  4.3257079024190368 10.1540176019019412  4.9013933153090070   T   T   T
  0.2276767935720888 15.3775896738335298  4.8139661728892875   T   T   T
  0.2307012322476055 10.1079483955777114  9.8642515156457637   T   T   T
  5.0919773403026154 14.9292569438647149 10.9522769796096089   T   T   T
  5.4188776789307775 10.0466572575521678 15.6290409469150404   T   T   T
  0.3529346963391820 15.0383741617133797 15.2572648961051271   T   T   T
 10.5031799349018051 -0.4087493748469034 -0.2479621331381205   T   T   T
 15.5575758256677599  4.6290568760195372  0.0891360843335308   T   T   T
 15.9810833478742982 -0.0318531493082343  4.9032081164138850   T   T   T
  9.8818091816542832  4.8790483734591392  4.6770213610232965   T   T   T
 10.0420669089064205 -0.3356277999941500 10.4267591461639739   T   T   T
 15.4639820058849029  4.8663215773467101 10.4036953858134673   T   T   T
 15.5142852452189040  0.1631894750291192 15.1674717840615312   T   T   T