Li P  S  Cl
 1.0000000000000000
    20.5609999999999999    0.0000000000000000    0.0000000000000013
     0.0000000000000033   20.5609999999999999    0.0000000000000013
     0.0000000000000000    0.0000000000000000   20.5609999999999999
 Li  P   S   Cl 
 190  32 160  32
Selective dynamics
Cartesian
 -0.3117087115877000  3.5464833185818425  3.4884621602994090   T   T   T
  1.8138915449715580  5.4479674736693759  7.2772121952930391   T   T   T
  7.6044274565247054  7.1928520161205372  0.0660634877949211   T   T   T
  7.1984302696451588  2.1873629186757864  5.1381683773452904   T   T   T
  2.4047758716310939 10.1755235196749432  7.6958833904868751   T   T   T
  1.8479193008159169  3.0430547384146314  5.4504436205575386   T   T   T
 10.1035630952385080  2.1201261090723231  7.9850065744133110   T   T   T
  8.0910885080341881  6.6749256169506115  4.6672063519409672   T   T   T
  8.5826131369028928  4.8395963842509566  6.8624886058665977   T   T   T
  5.3245510675678833  6.9329343519162068  2.2208955724724144   T   T   T
  0.8086651565547377  0.6359898742953090  3.0214195652708571   T   T   T
  4.6670582561783789  7.3325132869074725  7.8873406443651595   T   T   T
  8.3912841851909157  4.8728272007360571  2.6161233890636679   T   T   T
  7.6277940448178825  0.6152995209410711  7.7425201061707671   T   T   T
  2.3307342111058378  2.2659414599508367  0.7402750089602782   T   T   T
 -0.0854573722495800  7.8192187386290533  7.8412777425559410   T   T   T
  7.6192385113301384  2.7494780125182090 10.1387947331800774   T   T   T
 10.2639721178527434  7.6434302494464514  1.8546593463899030   T   T   T
  2.1948869492255527  7.4221877569536048  5.3665470625570695   T   T   T
  2.1458859337243164  5.0760571855089376  2.8371361524101726   T   T   T
  4.6538137537383966  1.7064833535417847  3.4691175562839871   T   T   T
  1.8752141408313123  8.1484811259171721 10.1616505445348118   T   T   T
  5.8933861274303023  4.0970131541112078  8.2008282055051236   T   T   T
  7.5770662837467864  9.5690774742033611  3.0492003617923134   T   T   T
  3.0769433462332976  2.6873555415567747 15.1692867848746467   T   T   T
  2.6736928792143706  7.8478356404754139 15.5637395133975112   T   T   T
  6.2952756560338203  7.3193177165538890 10.7165341707491919   T   T   T
  8.5340557141643298  1.8685184286738814 20.0218925707831197   T   T   T
  0.7292127362674360  8.0711500546137778 20.0639242870009014   T   T   T
  2.7603002264979350  0.5436567064620395 12.4532558325918465   T   T   T
  5.2133762757576321  2.3086075666908927 17.6055569492949964   T   T   T
  7.6906728207371717  9.2009407940717338 14.5291461750143309   T   T   T
  7.9839642505203452  4.5329139758051102 15.9030793879400125   T   T   T
  8.6577258521125700 10.0007527175486146 11.7791086714773581   T   T   T
  4.7579198441005977  4.5765343541829235 12.5276001128430092   T   T   T
  4.8441541378505422  8.2613364904958999 17.4206135356924001   T   T   T
  9.7595005016584970  7.1426902862967712 13.7666914928133384   T   T   T
  9.7302985460303688  2.7199647287951221 17.4830520684910447   T   T   T
 -0.0334820388122611  2.2938529318008896 12.7293073071153096   T   T   T
  3.7194456625919639  7.3527524944678930 20.1480043085030651   T   T   T
  6.5782774004053808  4.7748508414279485 18.6363027370291867   T   T   T
  5.3664732396915102  8.7519796395227534 13.3428299650022826   T   T   T
  1.6279455329564720  5.6455685786394945 17.7470546441541686   T   T   T
  2.2988290665659346  2.9685263690303061 10.6208076394420861   T   T   T
  1.6111160261673150  5.4320043076393878 13.5697924294350045   T   T   T
  2.2179627925978105 10.2290893989940415 18.5114766848879029   T   T   T
  7.2577360856415458  0.7411796755739967 16.4033176912409893   T   T   T
  7.2988794243163877  5.5546336016005498 12.6617279376161580   T   T   T
  3.0562583681834741 12.2622976937879589  4.7159420185465040   T   T   T
  1.7466735995093579 15.9948863561718699  7.3395407712371563   T   T   T
  8.2160766069432771 15.4439612071059535  3.0201244387877120   T   T   T
  5.5309895182012756 12.6498617478981128  5.6051889412249158   T   T   T
  2.4119624187969020 18.8771498040853416  5.5689426599964786   T   T   T
  0.4990837431769451 13.3935207619349530  3.0793543398661232   T   T   T
  7.2836863465449175 10.6499877982914839  7.1716552825500761   T   T   T
  6.5494326763601558 17.1064515849039296  0.8848712025423547   T   T   T
  5.9057426383225797 13.7764390426976355  8.6920441101230512   T   T   T
  5.1372429847856012 18.5227578364901646  3.1987669418716886   T   T   T
  2.5565377876390563 13.0653451855679243  0.3819295520180165   T   T   T
  4.4785153986784376 16.8686823486955078  8.0511359798719226   T   T   T
  7.7626416311740378 18.0027758829203606  4.8260068559089317   T   T   T
  9.0543880953951401 13.2937105757898397  9.4292298264770498   T   T   T
  5.0211726494045932 11.5975673545044096  2.6189127090965374   T   T   T
  4.3274407687721395 20.1957031661194009  7.5301136933584623   T   T   T
  7.9729329318137099 15.1802522716647861  6.7765116145975082   T   T   T
  9.3865847040530426 17.7123321850640139  1.4972271436253448   T   T   T
  2.7484435343317877 18.1452605191172651 10.3198211953952512   T   T   T
  3.4151048937526536 15.1134361137303088  2.4914664410559300   T   T   T
  1.1939686918720180 10.5662543329152605  2.3763970583810359   T   T   T
 -0.0205494172260293 18.9271949840577918  8.3875526065280965   T   T   T
  9.6056928515451290 13.0555268865468719  5.4964449316420687   T   T   T
  7.6172285921106404 20.4962292612599981  2.0226931998954565   T   T   T
  3.8104107410733308 15.0289813098930320 12.2473805154893363   T   T   T
  5.3338205911764671 18.7541215845024425 18.0253801317167834   T   T   T
  6.6743696588659205 17.8466598961913689 10.6189591698829613   T   T   T
  5.7824398035650866 12.1134212125644130 17.3326941859896131   T   T   T
  4.0013762096821068 16.0936094270804517 18.5023275499526392   T   T   T
  0.0826402219927787 13.2377604771406343 13.0253760213573671   T   T   T
 10.2384771574392062 12.2657448598294874 18.3006656080831220   T   T   T
  7.8807843807511899 17.8824815226797043 15.1482372917709274   T   T   T
  8.4615776278385226 12.8479497729143510 15.3902579860537330   T   T   T
  9.8019394369562480 18.1050274499601542 12.5440642755604195   T   T   T
  2.4567568928002301 12.5337256239465784 10.6359177199428601   T   T   T
  3.4661869643910168 18.9842831072303824 15.5768527264193359   T   T   T
  6.5088388775196426 19.8860486378503083 13.0223900491807765   T   T   T
  6.8220638049891225 13.2476713301677815 19.8161111464471702   T   T   T
  2.2121631212569381 10.7599805977828051 12.7902557750562593   T   T   T
  1.0666298906054030 16.8311813475627403 18.1092993590721072   T   T   T
  8.2986152592633413 10.4974656494073528 18.4471363551622893   T   T   T
  2.4774063778088431 20.5379950767933863 17.9756369181380435   T   T   T
  4.8765125872534076 12.6378220297307085 13.1022188885355728   T   T   T
  2.3549578194873089 13.4932302771527155 15.1253000339830503   T   T   T
  3.5318412141108668 17.8782873475965332 20.5060837113629510   T   T   T
  8.5602042863153009 15.1079617145473257 17.4898844649303093   T   T   T
  7.0978966299697204 15.8262680391853383 12.4834882245420218   T   T   T
 10.6702970564601713  2.3485434359589088  2.5421744240536488   T   T   T
 12.8725557889968609  7.4604952283574448 10.2078583336984980   T   T   T
 16.7670239981788427  5.6379968301517716  2.3450806286520955   T   T   T
 17.6610587824838916  5.1741075652523474  7.6626450227280056   T   T   T
 13.2561470548464655  7.8950805627644653  5.3745768607674558   T   T   T
 12.7724669112119606  0.3021685516039992  0.4086962834990032   T   T   T
 15.4574575513942154  3.1098738657132041  8.0203275186013556   T   T   T
 18.9230005893736930  1.5245446601921850  0.2141942556027313   T   T   T
 16.8278544873713898  1.6661119430027989  5.1693202486229115   T   T   T
 18.0392490278749236  7.6090606621206325  0.6001274825034875   T   T   T
 12.5908979230742606  4.1725570086317090  3.8831802430682738   T   T   T
 10.5628635200343499  8.1836376825870172  8.2461502865744141   T   T   T
 18.5734066004496228  9.9169436919852796  2.2709560009210894   T   T   T
 16.7212389551906639  0.2516036537616863  7.3721312539778872   T   T   T
 15.2213274549244844  2.9374173150524650  2.3467724290191136   T   T   T
 15.0884074902863787  7.9656997069833615  7.6975941722241270   T   T   T
 19.7901554253089600  1.6773934526672800  8.0895802746294674   T   T   T
 12.1040434116219515  5.4067821042894435  7.2509430234196222   T   T   T
 13.1823409077019900  3.7963211064797577  0.6267243954306928   T   T   T
 13.3506639819826578  0.7192459825888663  4.2009752070343236   T   T   T
 12.4808637687690211 10.0439231889394129  8.4573569348290096   T   T   T
 17.4428275362649785  2.6983900989555507  9.9870988386871762   T   T   T
 17.9131878233485580  7.7141709071530418  5.0679690910252999   T   T   T
 13.4578790106455930  4.0931820448330072 10.7547318509212921   T   T   T
 12.8554308451230899 10.0193974144437252 18.2400902084409680   T   T   T
 18.1326464338138891  5.4424669807318846 13.5331261963338640   T   T   T
 18.1763229935247423  4.7150063913407187 17.7898120635402748   T   T   T
 13.0316296531230336  8.1145633934331567 15.9335213739719492   T   T   T
 10.5475021218134497  2.3520338838816315 12.8746683612812713   T   T   T
 16.3856187532441382  1.5937781625424738 16.2702327472980279   T   T   T
 16.8924244793322558  7.2366589699925763 10.6537774607844202   T   T   T
 20.3853457097021931  6.6945418294527812 23.6626735455275288   T   T   T
 16.3197027437153181  7.3690389771528020 14.2237379220544664   T   T   T
 12.0399458186972783  1.8609782975792439 10.2570887895265948   T   T   T
 14.3742859305084707  6.5387329272138146 19.7348172346144857   T   T   T
 20.1149863639713402  8.7040173369661460 11.9638051433538433   T   T   T
 18.5995692515221762 -0.2210281905097769 18.2815223867252712   T   T   T
 12.8445033516361988  0.6768897143731731 14.2804062327523873   T   T   T
 10.8080150848551995  8.0207967666487896 18.4430520666609539   T   T   T
 20.1374693836571694  2.1898130467448631 17.6519085682890875   T   T   T
 19.1284017653114375  7.9520745802872783 14.7163065469451215   T   T   T
 12.3134369365577534  5.3975205628370153 17.3165274045978670   T   T   T
 15.2068670919399942  2.8805183451078320 12.7011985444621853   T   T   T
 12.3793583857398097  4.3546389114934483 13.6874650082809151   T   T   T
 15.4726898356439406  8.3848465641149819 17.3135142184880557   T   T   T
 15.3750388521238701  3.1929902063417881 18.6966344466991039   T   T   T
 17.6030935349242554  9.9008496682056055 13.1452405398146013   T   T   T
 13.6948455176025021 10.5312314028115050  1.7154490116714072   T   T   T
 12.3648806095074306 18.2919771170776571  5.4949526644957993   T   T   T
 20.0261123293943726 18.4296602803219685  1.9367462317425337   T   T   T
 15.4753191380416180 14.6341799341545720  8.0572061896789418   T   T   T
 10.1392632976576778 18.9604909953245411  8.5472872591060636   T   T   T
 10.5452290686837173 12.2951231951302269  2.0571459565756220   T   T   T
 18.3919434031478701 15.2536136918134559  7.4183595880036508   T   T   T
 17.8769080416083028 19.9903871415359689  2.6253544941866367   T   T   T
 19.1840721946571122 11.1302550117448771  8.5004684538523847   T   T   T
 17.6915199415767432 17.2690224001607504  0.3850309107310861   T   T   T
 15.1346130798575036 12.4463526833419902  3.7240454074734912   T   T   T
 13.5042637838073194 17.6734320538169669 10.2012600864580403   T   T   T
 15.7326807400441222 16.7444579460289091  2.4115699499808572   T   T   T
 17.6653848529207238 13.1475558929865191 10.0168965772553626   T   T   T
 13.1054328118101964 11.5618652909560726  4.8960301912077373   T   T   T
 15.3645229286135354 18.2076573127985029  7.5733234283347803   T   T   T
 17.8573779935481198 13.0813290903610859  5.3112238807515801   T   T   T
 18.9701141028520865 17.4734105626189589  4.7111805263151050   T   T   T
 13.5627775403865094 20.2934355376350197  7.6991339177972300   T   T   T
 13.4031898286075712 13.6823290052500184  0.4102791952702901   T   T   T
 12.3844801334674415 15.0028785323595102  3.5281302246257984   T   T   T
 12.6464027963482639 15.7626278125322141  7.4354762205940901   T   T   T
 15.6731990678582385 11.4567335202901166  7.0396154289544075   T   T   T
 18.3896767884421308 15.3747255766313042  3.3628984528722867   T   T   T
 12.5037303532597353 10.3411866752894728 11.8264229462398447   T   T   T
 15.0591048253533408 18.2951752480973369 16.6632348214781558   T   T   T
 18.7184541149306085 16.4394899520827877 13.8421496620902680   T   T   T
 15.9065382339521513 12.5381526561959511 17.8401941443357615   T   T   T
 12.8840168052421937 20.8550960935730032 17.9304494032355706   T   T   T
 11.3067375066507338 13.2325091344912948 14.8925213126982126   T   T   T
 18.3477978915875468 10.8442681702288510 17.9075229594276806   T   T   T
 17.4523148209391721 19.9214748222051412 14.3465010055646154   T   T   T
 17.9635236693350464 13.1866650986702076 20.3095132280542039   T   T   T
 20.3268716749559175 18.7535626760017635 12.3467115319499658   T   T   T
 14.6839828765712372 13.1118409538523899 11.1605561901642485   T   T   T
 13.9037685707819882 17.1303235683375306 20.2715720892781377   T   T   T
 18.3955202058689551 20.3129195111745204 10.6188703855516060   T   T   T
 20.3264894401716276 13.3651260477662746 17.9257770961702434   T   T   T
 14.8009334178473253 12.6388921417217208 14.3857435330134944   T   T   T
 10.4683719188001749 18.7955138532249535 18.6470985076527356   T   T   T
 18.4664225765105527 15.5590141927475685 17.2319665039176790   T   T   T
 17.8296567881379744 16.3580636464241067 11.1089875224833552   T   T   T
 13.1094864027362945 15.7679056783521041 17.8599235243744836   T   T   T
 12.6902716566309444 15.1652209880963387 12.6561458909424598   T   T   T
 11.1991872315374579 12.9752296982823285 11.4424653907443687   T   T   T
 11.9239066778794456 17.3713663044345097 15.7175866199564691   T   T   T
 18.3692248826315776 12.6823955516940092 15.5896674676556994   T   T   T
 15.3262060931777171 18.1332028476703755 12.9521579812403136   T   T   T
 -0.5419972523459875 -0.0029882415717208  5.3687249994605626   T   T   T
  5.0049042396946000  0.1457058291677536  0.1180442765488230   T   T   T
 -0.0569376096501052  4.9252507534838204  0.1472671523312918   T   T   T
  5.1871262227972768  4.8956818976539962  5.2523058967410208   T   T   T
  0.2516790581437072  0.1401300066883907 15.2944100189125773   T   T   T
  5.2605691701136363  0.2167073784150269 10.5027733943739232   T   T   T
 -0.3039979501829613  5.2308600422518561 10.3441388192065862   T   T   T
  5.1100309131512898  5.2735727636021856 15.3554729600061197   T   T   T
  0.1827530958084448 10.5511010781517296  5.1792706922244021   T   T   T
  5.3872474032162279 10.1008742855095779  0.0917837457549155   T   T   T
  0.0585021779915671 15.2715156807647912  0.2321370921081980   T   T   T
  4.9502300544430886 15.5856993563203829  5.0569864309020414   T   T   T
  0.0906631809163345 10.4022268751097418 15.5092432846718644   T   T   T
  5.0654199632059758 10.5689968957186160 10.0197124640081014   T   T   T
  0.1093336634098728 15.5232195273340228 10.4145630834155867   T   T   T
  5.1923993097641752 15.5172411668174579 15.5771219107765528   T   T   T
 10.3714818480227660 -0.1861041114197276  5.0761120151530843   T   T   T
 15.6435347409306829 -0.2863623542547624  0.0826034635923672   T   T   T
 10.4304604180435714  4.9367224290405272 -0.1853188603798525   T   T   T
 15.2394341547678600  5.2343255530658048  5.1632617647858536   T   T   T
 10.0200460316427584 -0.1481337163263878 15.5681483935100680   T   T   T
 15.4956052324055413 -0.0695187498362931 10.6284557794724748   T   T   T
 10.3112888693562379  5.2256933884958743 10.2170016214308728   T   T   T
 15.5477780185479801  4.9392033716768493 15.3930352410334983   T   T   T
 10.2575698491237137  9.7943315475504704  5.0655662217354349   T   T   T
 15.8047847885452182 10.2253013822405681 -0.2478731340043906   T   T   T
 10.4312849631908211 15.5636747714417805 -0.1924298030008693   T   T   T
 15.1173673629265259 15.6401796976065235  5.3698051955349966   T   T   T
 10.4875287770207350 10.0515908114708363 15.2082563752553668   T   T   T
 15.3929992409914220 10.1595899317195446 10.2529665672177721   T   T   T
 10.1236767564968257 15.6355663352250271 10.4259331564870124   T   T   T
 15.5249333614192366 15.6028076738533610 15.0633083045093041   T   T   T
  0.8356296857939101  0.9793766801675152  6.3922390566514284   T   T   T
  1.3404778123557668  9.1035200505528433  4.0044585660129908   T   T   T
  9.0061584940092896  8.4576726829356588  6.1829506311836724   T   T   T
  9.1152244188778155  1.0446703454304027  3.8824298501039323   T   T   T
  6.2504795478540069  1.4669779371734430  1.1580789856764389   T   T   T
  3.8982508448966913  1.4915121698385216  9.4721608949746301   T   T   T
  6.2209774257766837  9.1877137341109982  8.9530779245349326   T   T   T
  4.2713304772056926  8.9601311483325503  1.3472534236214175   T   T   T
  1.3115442270176390  6.2305663318882125  1.0199648398803001   T   T   T
  9.3524248149241807  3.6083844856741520  0.9482008247897483   T   T   T
  9.3492557181556730  6.4036013196192725  8.7888394145549018   T   T   T
  0.7947209405407097  4.2222594435491763  9.0161767260069894   T   T   T
  6.5695658253897173  6.0057503223266258  6.3744776450980600   T   T   T
  6.2362775462440636  3.8521727950827933  3.6875829381924103   T   T   T
  4.1291369531784445  3.7957549736129708  6.5275945317051640   T   T   T
  3.9207985611490446  6.3519334589633969  4.3576804863479603   T   T   T
  1.8545873713488035  2.7439523763029858  3.0839685608847396   T   T   T
  2.3122622794440342  7.9197631177006826  7.6372235577191914   T   T   T
  8.0147213850072401  7.3567889884911875  2.4499427410037731   T   T   T
  7.6519633267103666  2.7262823044310855  7.5377520729219363   T   T   T
  1.2961239396148247  1.4718069040742254 16.3153295590183127   T   T   T
  1.3459545144476857  9.2511797307998620 14.2563798094387693   T   T   T
  9.1642662747134782  9.1432204975314377 16.4299795261671591   T   T   T
  8.8777144172951470  0.9373718948982436 14.2238987595790061   T   T   T
  6.2859797987762365  1.5587885968844302 11.5850300490855318   T   T   T
  4.0190136050612706  0.9658269801312788 19.1908123814653955   T   T   T
  6.3389854585195318  8.9103449197695959 19.0609803252046675   T   T   T
  4.0397375790451777  9.6076202621982283 11.4662830613307776   T   T   T
  0.6745997645348409  6.5982874557980900 11.6327659378689319   T   T   T
  9.1158365102237191  4.0970959276078736 11.4069654984175379   T   T   T
  9.1572384213143057  5.8582374653830733 19.1068057079673252   T   T   T
  1.0599320767415970  3.5692230117167667 19.5645451894238214   T   T   T
  6.5928603618135027  6.3296980425628391 16.4693021598011988   T   T   T
  6.2799879507170697  3.9509863996711547 14.1855350905550459   T   T   T
  3.9811198104901169  4.2450486589889538 16.8178922604863992   T   T   T
  3.9486284796400088  6.4212912077594835 13.8726670371472451   T   T   T
  2.3514121078546912  3.1100759867000134 12.9202215472823330   T   T   T
  2.6468999440953267  7.7663776906645072 17.9802413061561808   T   T   T
  7.9822412922583972  7.8592397179257683 12.6702278265417903   T   T   T
  7.5361989984324813  2.8493736035346435 17.8626850783829241   T   T   T
  1.1846727006187445 11.6774524279719341  6.5444361702020242   T   T   T
  0.3723636869311483 19.1184042092973101  4.1442007516205708   T   T   T
  9.0991482846861054 19.3014483738224172  6.2615324862113075   T   T   T
  9.0429275349672977 11.0462088080736844  4.0027899565777805   T   T   T
  6.8099763859304154 11.2092216305400996  1.0081666587969196   T   T   T
  4.0778583820912999 11.8091736073746603  8.7694491224697124   T   T   T
  6.2862463999333817 19.6257323233261474  9.1042799539451682   T   T   T
  3.6756243742177968 20.0848338206019932  1.6710016376260028   T   T   T
  1.4071629732764752 16.4531653419316228  1.3374034194587685   T   T   T
  9.2585992981192273 14.1375339844882433  0.8482914900755061   T   T   T
  8.8368545583143590 16.8720203748963371  9.4292675493042424   T   T   T
  1.4263847641770104 14.5478292573986838  9.2159200981693008   T   T   T
  6.2401902981626494 16.3906060044011852  6.4410936589332808   T   T   T
  6.0218316568639034 14.4298125032343929  3.8899090546337902   T   T   T
  3.7080193323721571 14.4198163472413619  6.1804276441756896   T   T   T
  3.6715605250147378 17.0331135192338010  4.2706998725553023   T   T   T
  2.6392626145172340 12.8205680165996281  2.6632897721251276   T   T   T
  2.5584981851024189 18.3401451035810368  7.8469724879220681   T   T   T
  7.3657317600284626 18.0161876128237139  2.5004439596844339   T   T   T
  7.6021794388968384 13.0238574695181750  7.2605860656759926   T   T   T
  1.1568773372485164 11.7300726886590834 16.6882531550752198   T   T   T
  1.6004522439810025 19.7428548086879232 13.9742000712018086   T   T   T
  8.8709651120459956 19.3404379749383963 16.7474031591507178   T   T   T
  9.3541779286546252 11.2596203061441802 13.8928693531155432   T   T   T
  6.5127242644131282 11.7649793956509487 10.8998775875040099   T   T   T
  4.0586538227221842 11.4551557702420705 19.5905344772897401   T   T   T
  6.1155322515108734 18.9915248489962991 20.1514822724844507   T   T   T
  4.2447705501435520 19.4709547510343342 11.7441501614079638   T   T   T
  1.1896216550064336 16.7421597234567940 11.6836757492660297   T   T   T
  9.1233084568343035 14.3604867000819354 11.6640588834113572   T   T   T
  9.1308296236316231 16.7698038983450388 19.3499886702436541   T   T   T
  1.0512969590245496 14.3338827069598516 19.3118104316044708   T   T   T
  6.4174153916998957 16.5743601325463956 16.6892832588622220   T   T   T
  6.3276133388835154 14.3084946189768427 14.2733425721774267   T   T   T
  4.0524886670028488 14.3088877674862935 16.8130494945046678   T   T   T
  4.0133327173825259 16.7207029841014290 14.3646114857701566   T   T   T
  2.4946052475382801 13.0920048738259069 12.9798691022801087   T   T   T
  3.0508710575738927 18.1377307026035339 17.9931063122584511   T   T   T
  7.7724489238804981 18.0082172423523375 12.9241654164661384   T   T   T
  7.9771538826663884 12.8550512071337000 17.6128117993559776   T   T   T
 11.5994347537791374  1.0231065432589812  6.2262097812618089   T   T   T
 11.5173718964366429  8.8416571195926501  3.7782043954790745   T   T   T
 19.3502034303041484  9.3901079140823747  6.2504128818025135   T   T   T
 18.9030838701072881  1.0583384761323460  4.0896960745586703   T   T   T
 16.8411113972086142  0.8768224880662283  1.3149457406492691   T   T   T
 14.4418350380627736  1.1535106933844059  9.2353611124918817   T   T   T
 16.6983862379669432  9.0616177144475660  9.0442798498767534   T   T   T
 14.8982584209019269  8.7381664692998520  0.7219219914096259   T   T   T
 11.6722081853923925  6.0219387818760541  1.0645909180590711   T   T   T
 19.1216683115272303  4.0544153953091566  1.2969749942922029   T   T   T
 18.8704512731487881  6.3001627065978099  9.2391665395271101   T   T   T
 11.5398251224478710  3.7662028443866773  9.1307903933407175   T   T   T
 16.3689211201921054  6.6188115090833222  6.1938831952975244   T   T   T
 16.5242892575938356  4.0344926340239216  4.1551378213440584   T   T   T
 14.0600643212036740  4.1624413880959130  6.4739519982207705   T   T   T
 13.8602142117781906  6.2652884966765372  4.0128220858563663   T   T   T
 13.0065748780657042  2.1235145859487861  2.3445009500471894   T   T   T
 12.8299865293202977  7.6271249292110239  7.7818586429635470   T   T   T
 18.1462800491080145  7.6460212035732686  2.7965279784902086   T   T   T
 17.7413200885958915  2.3740179241027155  7.5646641756052730   T   T   T
 11.2493647310300631  1.1833255044880222 16.5797479942481338   T   T   T
 11.6619267241282856  8.7299092419682900 14.0951245676534676   T   T   T
 19.5261052735855998  9.1675552017702415 16.7032780665527980   T   T   T
 19.3102857783560680  1.2026489961313696 14.2444798847199081   T   T   T
 16.8832591693543819  1.0375281861010071 11.7549132545429469   T   T   T
 14.4746830808317632  1.2744160358849426 19.5229630658025819   T   T   T
 16.9428743277786253  9.1724026948658093 18.9537499950574073   T   T   T
 14.1386213921855166  8.9319681921289327 11.4204529613282215   T   T   T
 11.5721271558441856  5.9730377199161140 11.6271797036187134   T   T   T
 19.2909533392310308  4.0972325798332365 11.6935365955125938   T   T   T
 19.5385313691194753  6.1840507108128300 19.4538376181830550   T   T   T
 11.5741979294327244  3.6592904266499966 19.3383493311504537   T   T   T
 16.5742409863126738  6.2735984519584305 16.5216474985173392   T   T   T
 16.9780411698487583  3.4980327993551552 14.6534149699850929   T   T   T
 14.1797972079981225  3.8769423905492606 16.5351618140633683   T   T   T
 14.6685126368595888  5.8085195444705233 13.8636726361668217   T   T   T
 12.8475439579476838  2.5370460715207903 12.4499009991147656   T   T   T
 13.1215270369162340  7.7527030659275082 18.0117876282381211   T   T   T
 17.9708909130900309  7.7679287101000565 12.7160051059736219   T   T   T
 17.9453474382204661  2.0260414502056081 18.3368296427278530   T   T   T
 11.3490590303948018 11.1326262964701410  6.4180801075325391   T   T   T
 11.3480365828065768 19.2191746970364292  3.7585885599546431   T   T   T
 18.9179177528878100 19.5796128819585888  6.8287753107529374   T   T   T
 19.6605810787571045 11.7255354770108582  3.8485568650875597   T   T   T
 16.7722488147368409 11.4082684178125806  1.1282811639835122   T   T   T
 14.3096397642239257 11.3811201486016831  9.1222890223841144   T   T   T
 16.6313069327204062 19.2360131716459080  9.2832050076083021   T   T   T
 14.3007236080503368 19.2533967281420004  1.2217816109144681   T   T   T
 11.6373493778948340 16.4274857005753532  1.2251783539560113   T   T   T
 19.3148964849459404 14.1605915222282643  1.3653804464065711   T   T   T
 19.3385009065277700 16.7985462921631878  9.2269469257334613   T   T   T
 11.2168914536263458 14.4837545643954311  9.2033739661874208   T   T   T
 16.4458241044660340 16.4599203609665565  6.7956254010589054   T   T   T
 16.3085390258883933 14.5728027975121517  4.1285419168773894   T   T   T
 13.7537810948246122 14.2770714928322064  6.1836155374881203   T   T   T
 14.0103680965080795 16.9544168732585092  4.3029937370520761   T   T   T
 13.0536690469865686 12.5262548752193172  2.6866186599012636   T   T   T
 12.9978990780151715 18.0657787761840041  7.8180757440758804   T   T   T
 17.8626454763367875 17.6327528348047196  2.7036573567303708   T   T   T
 17.6449467990925015 12.7748447831801872  7.6834606844439435   T   T   T
 11.8547510262985227 11.2229567918905158 16.2784462339372489   T   T   T
 11.3577151608022593 19.3551631372787298 14.4926721429664909   T   T   T
 20.3513401449688445 19.3707960972903876 16.6821505241394803   T   T   T
 19.4684924029418553 11.3258935074669758 14.0399339457794845   T   T   T
 16.6008670836871062 11.4125326933309470 11.4117324746926130   T   T   T
 14.4628218313560062 11.7448004502023586 19.6517827958700124   T   T   T
 16.7582816329724551 18.9070790880056876 19.5612843543712422   T   T   T
 14.1130427845444100 19.5493299281644966 11.8442195111395208   T   T   T
 11.4098481878059452 16.8336636100755044 11.6627668369049804   T   T   T
 19.4468750799472403 14.2980602472904099 11.4196706411849807   T   T   T
 19.3917299968387198 16.4941380313551136 19.6744447496364927   T   T   T
 11.6810588851065535 14.3467389039824553 19.1726283700142268   T   T   T
 16.8664664299812657 16.9225284463259555 16.0956741814060109   T   T   T
 16.4814127617783512 14.4485437333738069 13.5451715003517101   T   T   T
 14.5389347019215798 14.2056878784012426 16.2661505032640292   T   T   T
 13.9308157521825731 16.6160754113093816 14.1919342338065952   T   T   T
 13.0002868260635935 12.7360599157997907 12.7179186201536254   T   T   T
 12.9988955119622460 17.9598336917965042 17.8230638545108313   T   T   T
 18.1780391277593907 18.2820541414705175 12.7649682655296495   T   T   T
 18.0100509181664989 13.1206424848186973 17.8275793034734598   T   T   T
  0.2905688468501273 -0.1095592256721514  0.7663892968084995   T   T   T
  5.2033546523030232  5.4100568099173270  0.1777081906478150   T   T   T
  4.5926350209363020  0.4262700765358224  5.3942390771848086   T   T   T
  0.2794486367866984  5.4743254529916276  4.9843033810258879   T   T   T
  0.3580477093616003  0.1950208237820671 10.1546918735917213   T   T   T
  5.1588152936119833  5.5603706380252413 10.5714104328554281   T   T   T
  5.0582990585999017  0.2471446191049020 16.0285144110074036   T   T   T
 -0.2545863902039061  5.7798419781039811 14.8877147515555244   T   T   T
  0.0457373961183697 10.3965100103629933 -0.0903476912534289   T   T   T
  4.6708676582267694 15.2292881647176390 -0.0491591048799961   T   T   T
  5.2995258570044514 10.5707969835855824  5.0057561329494433   T   T   T
 -0.6649550436208692 15.4918359322470529  5.5409864968206310   T   T   T
  0.4356955572305067 10.4195377334813291 10.3159353363114956   T   T   T
  5.0819353824524347 15.7817221003721482 10.4696743674523365   T   T   T
  5.2813819248391889  9.7872366477570214 15.6205182030454832   T   T   T
 -0.2655005545184623 15.0421344347109720 15.5569181257500020   T   T   T
 10.4576795637279663 -0.3659374610564129  0.0754995183840193   T   T   T
 15.3539067290732572  4.5569114463513554  0.3963860078136919   T   T   T
 15.0544337094859486 -0.0442080345768252  5.3420660504279400   T   T   T
 10.1544957042548027  4.5984351688363416  5.0532149730852636   T   T   T
  9.9781540516535170  0.4143834099762151  9.4498632372352240   T   T   T
 15.6993916193758825  4.4884967876665485  9.9426127254417942   T   T   T
 15.2751076951800773 -0.1950962622171689 15.1672790932907056   T   T   T
 10.3056553730354388  4.7223562250803184 15.3306417955948877   T   T   T