Li P  S  Cl
 1.0000000000000000
    20.5609999999999999    0.0000000000000000    0.0000000000000013
     0.0000000000000033   20.5609999999999999    0.0000000000000013
     0.0000000000000000    0.0000000000000000   20.5609999999999999
 Li  P   S   Cl 
 192  32 160  32
Selective dynamics
Cartesian
  3.0588094061393263  2.1920922097814386  4.7587478320661338   T   T   T
  2.4965246262295686  5.6773763780036024  7.2231756130416480   T   T   T
  9.9693969850025539  7.4286970456844870  2.4382253680290265   T   T   T
  5.2802117129616732  3.0818600991335949  8.0981677088504167   T   T   T
  0.6653378986248253  8.2581246611107932  6.9584418556129082   T   T   T
  0.3012132208176086  2.3920704451818948  2.5940726133239433   T   T   T
  7.8706041228838695  4.8508033542414548  8.3071239112274888   T   T   T
  7.5161723875934863  7.6391048349151083  4.9664376486072452   T   T   T
  7.5375715520127580  2.6549533006559605  5.5648497278979283   T   T   T
  7.8965346668713376 10.1641648693316728  2.5020589361892296   T   T   T
  2.2875906149295901  5.0012625001313875  3.3418141210277339   T   T   T
  5.0690678882167202  7.4459628512115472  8.4980168188126797   T   T   T
  5.5073414640343117  7.3169863097321119  1.9916246614808955   T   T   T
  9.3193592376945507  2.2980471180794293  9.7357627887651272   T   T   T
  2.4633017009460882  2.8433330441432352  0.2154297675943634   T   T   T
  3.0007109997056158  7.8897797546869972  5.2962552117847022   T   T   T
 10.2322618508595742  3.2262287601428326  6.9378452603450640   T   T   T
  7.7683351478507996  8.0874453536888975  0.1748610794099834   T   T   T
  2.3296360370305664  8.8448777078080099  9.7891345049605558   T   T   T
  4.9679161510181187  3.1293071103613532  2.4090888123158249   T   T   T
  2.9623944601357466  0.2356001274139999  2.7835580829476725   T   T   T
  3.5224752131333488 10.0610881504334646  7.2710762186975257   T   T   T
  8.0990235855533736  0.4394392989495721  7.9078025067532574   T   T   T
  7.3145602129905880  5.1832071380449740  2.1913640306387481   T   T   T
  3.4295549883139143  5.0535759027324278 11.8109513424936416   T   T   T
  2.5559409259405435  9.9307630284302419 17.4909063037409283   T   T   T
  8.4541519177195728  8.7609507623831711 10.8151151920751190   T   T   T
  8.4200302668128160  0.4209047929044131 18.4335470911727981   T   T   T
  0.2844023707453339  8.0337140776223190 18.4525301813754403   T   T   T
  1.2995194973822444  2.6291146484385592 10.9829339419927479   T   T   T
 10.2332249199561662  2.3171022164372994 17.9809875500534488   T   T   T
  7.5615688967247152  9.8110197432011876 13.7922951280124462   T   T   T
  7.7219748354924391  3.1901103745134836 20.2782077891990511   T   T   T
  7.2250946481755429  5.7203399459253701 11.7443014757978936   T   T   T
  4.9132724078926628  2.8321788143301134 12.1565444896604919   T   T   T
  2.8986323705119186  7.5852406864876478 20.1293408313805777   T   T   T
  5.4889287410433072  8.1054933759740191 13.7943216602686558   T   T   T
  7.9810855192365118  4.8852855806371132 17.5312570286878966   T   T   T
  2.4308630150006838  0.1172684894188312 12.4765102072241252   T   T   T
  3.2915436531142865  5.2057815448544469 18.6712499772730212   T   T   T
  5.3106654230874044  1.5472887491147289 17.6773813927340129   T   T   T
  8.2580166359241876  6.7261554635981335 14.8381829478639027   T   T   T
  4.7200808029042163  7.8411461291712516 17.6367409973051821   T   T   T
  3.1496298937727114  2.2946072173130929 15.1071463676996967   T   T   T
  1.2603933769483580  4.7118180198961310 13.3178549821560832   T   T   T
  1.8224938737470999  6.6400117352396961 15.8702549303312548   T   T   T
  7.8801235680329347  2.7015808244226394 15.6278003217413666   T   T   T
 10.1814516040708209  7.7170394659595720 12.8483215198633314   T   T   T
  3.2904589989203092 15.3529123821320113  1.6421140507882896   T   T   T
  1.6649914276577780 18.6226083087802472  9.8914617412331580   T   T   T
  7.5255339034437032 15.6216490616546420  2.0047818727725399   T   T   T
  7.0165478236923153 10.6117564903425290  7.1049461965187843   T   T   T
  0.0354336166178684 17.5149806492727436  7.0191512593447394   T   T   T
  0.5779318548311149 13.8371977998852689  3.2715403071917528   T   T   T
  7.9832727333314457 11.8794497388052616  9.9113436087619853   T   T   T
 10.0423806297573570 17.6132182318976902  2.8928430751569598   T   T   T
  5.8152913000018049 13.2164783061089857  9.5416504166705973   T   T   T
  7.4388397607250889 17.9582333826713025 -0.0247552561371696   T   T   T
  1.8391223126392007 12.2390642437315744  0.0922693679645812   T   T   T
  2.4152043042310458 15.3787466550916392  7.3247108729209849   T   T   T
  8.5149148780551016 20.5900718190594816  1.6740025627428274   T   T   T
  6.6966283643153819 13.2686171857959767  5.5396581332256032   T   T   T
  2.6005390865179856 10.0634207523082750  2.6371157791144557   T   T   T
  4.6018180030077120 17.3233357337840275  8.6037283912271132   T   T   T
  9.9155940770279720 13.1128895349637702  7.4591978077091392   T   T   T
  5.5073776192503230 18.7383450744947204  3.2852297114141145   T   T   T
  3.2857687113809670 20.1092221325659075  6.8817512844537099   T   T   T
  4.5928136241177553 12.4950110856282830  2.0952218773407094   T   T   T
  3.0585402270728821 12.0606369833851428  4.5905645898370215   T   T   T
  2.6793930207747416 18.1391904360640375  5.1156449280343814   T   T   T
  7.4274851520928999 15.5701520678766254  7.6127509986481892   T   T   T
  8.3844849360011526 18.7178045656240641  4.7453327540481895   T   T   T
  2.2986676069398451 12.5937292885646297 10.6606591688802883   T   T   T
 -0.0195925240097870 18.3724142292179486 18.4071649002394189   T   T   T
  7.1523487447810705 18.3739582578753584 15.1364114576667426   T   T   T
  6.7898109647922800 10.7995555398201226 17.2033776835714640   T   T   T
  2.5757893657847752 20.0759517073263432 19.6640357582420400   T   T   T
  2.7716164522025455 10.4626406353359567 13.5741436233710804   T   T   T
  7.7956692462172805 15.1578540377676951 18.1450505377077462   T   T   T
  8.1691526396146337 20.3201499857231696 11.9385176208816954   T   T   T
  5.4039585890247483 13.5582046069439333 18.5159574634279913   T   T   T
  9.8238106730784445 17.6630717065040095 12.9816733334147969   T   T   T
  5.1574219665944296 12.1499579941396796 13.8704971480800410   T   T   T
  2.3785083133617686 20.0577906135942108 16.5879676130241513   T   T   T
  7.5250914617092564 17.9520096811881125 10.4891898585805468   T   T   T
  8.1728032335692564 13.0660663260354397 15.3731175257134645   T   T   T
  1.8246432732869964 13.2683554562837323 14.9092074497614764   T   T   T
  4.3829717578873364 18.3459181662209261 17.5189873600108292   T   T   T
  8.5003814667196558 12.0927150786756616 19.9391826053913306   T   T   T
  7.0199382624446667 15.5738871864674007 11.9494194983550539   T   T   T
  1.6197315261599086 17.3291370875254458 15.6080661094965638   T   T   T
  2.8086896688537921 15.1670026632613784 12.3967885581963522   T   T   T
  0.2308042730290935 12.0926426152669926 12.2739445997719852   T   T   T
  2.7078608307994232 15.9443338096714591 19.2249866262197031   T   T   T
 10.0127189961648000 13.2623322467468103 17.3841497992973579   T   T   T
  5.2784475063258878 17.9928406477438756 12.8750664811654865   T   T   T
 10.7780296690202437  3.0308351678783310  3.4755113026410940   T   T   T
 15.3165990813212520  7.8865673348900751  7.7408652388549708   T   T   T
 20.3413982742389514  8.1968310832050015  2.2245086576519597   T   T   T
 19.5646770925862761  0.6158438961862731  7.7507597865980520   T   T   T
 13.3265479316076672  9.7380343948900840  6.9668163610553755   T   T   T
 12.2714604848926125  1.3299101947501961  0.5492463347883153   T   T   T
 18.3649767591501281  2.6667150500072747  5.2045323515683792   T   T   T
 17.8008619106596555  6.1219469928262971  0.8939533484894204   T   T   T
 18.0741148296096945  1.9963186661588550 10.1296913538452102   T   T   T
 15.7130987039626735  7.4581881003131372  2.6132805607335001   T   T   T
 13.0009541645385234  4.7617202519301802  2.4493639612527609   T   T   T
 13.3781292536764802  7.4288635831679786 10.1860247676126701   T   T   T
 17.5613777512998865  8.3849436687045671  5.0511131108960940   T   T   T
 19.6403109157842977  4.3471450405176073  7.3130895557027253   T   T   T
 15.2534919139095688  2.4015007163346733  2.4937458857435710   T   T   T
 10.5734322771594922  9.2669917379054372  8.2407094003805330   T   T   T
 16.4320750660190846  0.7843248304629821  7.4001592316394245   T   T   T
 18.4827689649579447  5.9959273529601003  4.2757241013939424   T   T   T
 13.5518047954386329  5.4455096822927302  7.9215538990394503   T   T   T
 13.8726388809481929  2.2725848706573819  4.9517191671285898   T   T   T
 13.2633119797517605  0.0948353094907680  3.3346927235782990   T   T   T
 11.3226737480368680  7.0709378357744201  6.1091007080751476   T   T   T
 16.3494298230529758  4.2059118670935725  8.6032171766727732   T   T   T
 18.1055100601373979  9.9313100978050173  1.8125878055280678   T   T   T
 12.2510649509253078  0.1109679136159738 12.2461329888898280   T   T   T
 12.7228236003962358  8.1662219106973719 20.3291633029428667   T   T   T
 16.0178396231541207  7.7451948607693630 13.3939687998298265   T   T   T
 16.1007291908684529  2.5108518963566451 19.6593021451521359   T   T   T
 13.4467063304379160  8.7157191290534026 15.5956614300377527   T   T   T
 13.4512385177777798  2.3502909156656986 14.9820529989767603   T   T   T
 18.4099918147846680  0.2946785959848666 18.1584294056470625   T   T   T
 17.9426249612912301 10.1980279235176727 12.8030155300075883   T   T   T
 20.1461295613763873  2.1057774683659609 19.4040236380985398   T   T   T
 19.9262366973266367  8.1574800058618173 11.2460351055962917   T   T   T
 13.1989954506861906  2.7378864911201788 10.4215809752344750   T   T   T
 13.3249559238924142  5.5920092282643834 17.9372274953323121   T   T   T
 18.1926157420224861  5.2006394150801185 12.3394769135998281   T   T   T
 20.0964667003753128  3.5980542076114226 17.0517340470193588   T   T   T
 15.3284174096377388  2.1623435145998293 13.1446750776758208   T   T   T
 10.7042458501023265  7.4351028001929809 17.4647112668241107   T   T   T
 17.8185767856436001  5.1026529277355914 18.1787834772912618   T   T   T
 19.0141545546723449  7.4002692674354114 15.0780686306601002   T   T   T
 15.2730715759520788  7.3718925555255881 18.9139533280354080   T   T   T
 13.8120486576849277  4.6825982946580442 12.6378094845359001   T   T   T
 10.9229832318569962  3.6427640451759049 13.5667967007597099   T   T   T
 13.9556298052675984  9.9132867691338138 18.0770191707152676   T   T   T
 17.6610330340761372  2.2611777937115614 15.8625870653957683   T   T   T
 17.3863241673335409  7.4536830861722398 10.5505454595934900   T   T   T
 12.3577678671655971 12.7799270278795802  5.2519268618742299   T   T   T
 12.6164730066903825 17.6108765622813124  5.2569717904138535   T   T   T
 17.8434654628013014 15.5564408039763489  3.1130803679462589   T   T   T
 17.6865461678009694 11.5232804000608962  5.5166227713957756   T   T   T
 12.1374876854379963 15.5050362762760727  7.2884650637543942   T   T   T
 14.1756150261883747 14.1711972655707239  1.9016540571002587   T   T   T
 20.4761815103478391 13.2899155700742249  6.9495728677986985   T   T   T
 20.2763747219252544 17.3874574691769936  2.8185395410417482   T   T   T
 18.8290495149270889 10.6406336110191830  8.6542581167103219   T   T   T
 17.8446000860363583 17.5798138547433247  0.2832695418495877   T   T   T
 14.7107747408918730 11.5845540377612117  3.2196419356883244   T   T   T
 11.1017626943862293 18.2751231647802399  9.0603918460599235   T   T   T
 17.8769166141944353 20.2642092285054574  2.2940909067889561   T   T   T
 17.8732493813453885 13.2161260218968142  9.9713053660067086   T   T   T
 12.1255522267853166 12.1836189995780604  0.5598701124696188   T   T   T
 13.6639430076148543 17.2757922986260404 10.3153447427024183   T   T   T
 15.9008407773437224 12.1128709013220028  7.6874943809943002   T   T   T
 15.6909093774242567 17.6072147553847032  2.5685763879451384   T   T   T
 13.3998864294627928 20.1081147174755053  6.8417518353699700   T   T   T
 11.5331375208918416 10.5483786248266931  2.3967982669023633   T   T   T
 10.6531752895444605 13.7747053620120443  3.2648219027694294   T   T   T
 14.9417954955242998 16.7939700053256011  7.5389240029409850   T   T   T
 18.6402813351634400 15.0325844727812807  7.1457074376301888   T   T   T
 17.2510001478406458 18.5224365184847954  4.8673709207700977   T   T   T
 11.2470991357287105 11.0886062833045180 12.7990177082822800   T   T   T
 15.0103904928054650 16.8202183010889073 18.5947618053750681   T   T   T
 16.3739395812227251 16.5812442693127124 12.5613356461240500   T   T   T
 17.2063287152166779 13.6869714800441162 20.2675693512746911   T   T   T
 11.1150161051029244 19.4139048441845219 18.3734492428857443   T   T   T
 14.8393950299961652 11.6917884048275269 13.3513281423492423   T   T   T
 18.1591590970797832 14.7650658360454994 17.3238214902784620   T   T   T
 18.1150891885225356 17.7350680169143295 15.3278885486077687   T   T   T
 18.3187007793230450 10.7435919345547806 19.3559096984415575   T   T   T
 19.2718855196753793 19.8689404680828758 12.5806091268430382   T   T   T
 13.5302898240403220 12.9089958615764040 10.6773786687047192   T   T   T
 13.1591761603714055 17.5578651589328487 20.3732577336718457   T   T   T
 17.9368564745145633 18.0387402399637544 10.3421068545465626   T   T   T
 15.7265156201656406 12.6375024130066755 17.8942142227491345   T   T   T
 14.2918784056416648 14.8218735203065179 12.4925459427301089   T   T   T
 12.1670688390414536 15.9225922027358582 17.4089333595780467   T   T   T
 20.3782517796200935 12.3908236058569710 17.9933538043935464   T   T   T
 16.2203247986114434 19.5808546116952726 13.0107292490213560   T   T   T
 14.5762858402828144 19.8520449231395233 17.9181118460685234   T   T   T
 10.8779377003896442 14.4165882085902641 13.4255742701741951   T   T   T
 12.7134484415469942 12.9020076880480534 15.0534447887984211   T   T   T
 13.3806944654130380 18.2930298149023152 15.6226979712019016   T   T   T
 17.4275741651241987 11.8250735048677527 15.7806384100168824   T   T   T
 19.7601498684746311 16.3584599263738362 13.3697966491346314   T   T   T
 -0.1228592581836890 -0.1107610660072990  4.8207156285803778   T   T   T
  5.0289546903470121  0.1570602710151176  0.0787495045048889   T   T   T
  0.1584702127916409  5.2791504882111937  0.0457266277672910   T   T   T
  5.2869999654776301  5.0996532220135116  5.1429929101340370   T   T   T
 -0.1722631866303698  0.1157404351991298 15.4509548487826507   T   T   T
  5.0644264206595428 -0.1549097909531580  9.9574593017974635   T   T   T
  0.1202512750794169  5.2614932492454125  9.9837753434684142   T   T   T
  5.1098762650636402  5.1147295186067643 15.2905719879142552   T   T   T
  0.0773966450856127 10.4870691913848528  5.1870991646158719   T   T   T
  5.0376860263350336 10.3630408910743874 -0.2685732843612268   T   T   T
 -0.1155910354072357 15.3581661528617062  0.0135162580772544   T   T   T
  4.8909303279911756 15.5678926784004634  4.6609853485968493   T   T   T
 -0.0411370772165213 10.2357110170311643 15.3872069002956344   T   T   T
  5.1475200389009768 10.3005950711713048 10.4737141059333894   T   T   T
 -0.1424293746116553 15.2836835378177049 10.0481250071470445   T   T   T
  5.0324144277920144 15.5079832193562819 15.2685865823948212   T   T   T
 10.4518922205332832  0.1162879448621143  5.2193848634952547   T   T   T
 15.4484047362369452  0.0152139126980047  0.0508776453961876   T   T   T
 10.2626492204032633  4.9799548981333581  0.1397821090192266   T   T   T
 15.4904541583233986  5.1563151487673293  5.1899170090832598   T   T   T
 10.4568873538236016  0.0525501024526249 15.3333014132245697   T   T   T
 15.3317633999532088 -0.0983003583732835 10.2419537324706749   T   T   T
 10.5628860269845930  5.2100708680962322 10.4770208789878332   T   T   T
 15.5519196272136782  5.2475191948747097 15.4760983854463330   T   T   T
 10.0417879196219531 10.0237970319477441  5.1968176237772488   T   T   T
 15.3719448558139842 10.5635136208343106  0.1247846780667487   T   T   T
 10.3152859899304303 15.4442136503334577  0.1772302672287026   T   T   T
 15.5303301949866537 14.9097345173004232  5.1173859253856566   T   T   T
 10.2379621420875289 10.2599806224130337 15.5074868706991111   T   T   T
 15.4861695965173425 10.2152190188038805 10.3491905359966108   T   T   T
 10.2214650361561166 15.2916904381298799 10.2956679758529202   T   T   T
 15.5749484013772257 15.3883166359007983 15.4928948215920066   T   T   T
  0.8365794387734482  1.0872472784386185  6.1068630662367687   T   T   T
  1.0335759698498768  8.8530698325022339  4.1977345534935306   T   T   T
  8.8261657077321143  8.8516645519527870  6.4084361497257794   T   T   T
  8.9621428053180523  1.0705320717964544  4.1206091387047197   T   T   T
  6.1703647297886191  1.3205645154828940  1.2439952154367979   T   T   T
  3.8872752750810511  0.9894874248868147  8.6981423313904802   T   T   T
  6.6002946303613523  9.2733142587718138  9.0926820531731529   T   T   T
  4.0907281929051784  9.1674113100034269  1.0158709941170487   T   T   T
  1.5406291733906046  6.3911430671853067  1.1358513391939675   T   T   T
  9.2310399122369002  3.8928783697551137  1.5002686660442786   T   T   T
  9.4035447538289585  6.5125327744501718  9.3269170188461157   T   T   T
  1.2852791590182324  4.0555043521295975  8.7051711409846853   T   T   T
  6.3503554497026427  6.1350772272577165  6.4909562032557373   T   T   T
  6.4751148482330301  3.8757609410357441  3.8904412198167062   T   T   T
  3.9399221370094542  3.9682487021244457  6.1905948412654670   T   T   T
  4.1513679864911950  6.3382158854481929  3.9694237463935478   T   T   T
  2.5818534479888253  2.6864780806093083  2.4274442633368656   T   T   T
  2.9586376215453396  7.8104104755008397  7.6980748427705894   T   T   T
  7.6565887800890255  7.8594153303309771  2.5229393627607823   T   T   T
  7.9861052437215658  2.5546401265012841  7.6913917748088698   T   T   T
  0.9632677929053740  1.4372590203493474 16.6457393023206031   T   T   T
  1.0656541367914198  8.7952531414050981 14.4428670442306810   T   T   T
  8.9895951968714130  9.1170514453204010 16.5740195252871949   T   T   T
  9.3856278933372312  1.2642290935541374 13.9586400863810614   T   T   T
  6.2136142719053629  1.1263020055086019 11.1200409308814816   T   T   T
  3.7880107872544060  1.5944570904806294 19.5633176225123719   T   T   T
  6.2133985458877934  9.1867728146337857 19.0609326832218891   T   T   T
  3.8623774555866293  9.0029759643389653 11.5643098315742456   T   T   T
  1.5255694599397651  6.2145150865475305 11.1836373263946456   T   T   T
  9.3661611761416026  4.0521902168277988 11.6298629782383962   T   T   T
  8.8250944470628472  6.1205909735633561 19.6015101341642577   T   T   T
  1.1157316398447037  4.0213316629145011 19.1765349895230273   T   T   T
  6.2490800383782394  6.4705134734288672 16.4588481958455830   T   T   T
  6.3466344843656630  4.0379222206443499 14.0792526697828393   T   T   T
  3.9612779719359064  4.0711135156612661 16.4835413891675380   T   T   T
  3.8817108396389850  6.2163627090516016 14.0169849496878456   T   T   T
  2.6940722887186292  2.8101194652250778 12.6495123430908620   T   T   T
  2.4209889222464440  7.6067336535391474 17.9207803479380097   T   T   T
  7.7989705463511649  7.7843398778636503 12.7157237442688587   T   T   T
  7.7793360664975282  2.5201815387766628 17.8265532031112883   T   T   T
  1.4788706259312923 11.4457841515478638  6.3395033398620662   T   T   T
  1.0280350689093323 19.1997183107814102  3.6834963472384805   T   T   T
  9.6977311696327249 19.4583507719549686  6.6721786180204301   T   T   T
  8.6928605860379147 11.3025980588790773  4.2571662164514059   T   T   T
  6.2525132252517812 11.5514627125962139  0.9499778679623494   T   T   T
  3.9068861243441853 11.5581957039100249  9.3841407607568481   T   T   T
  6.3110590571442966 19.0882107836895614  8.7666739462218537   T   T   T
  3.8942129320529184 19.5164330600760039  1.0742638364594297   T   T   T
  1.0458524805849441 16.7367079268861900  0.9524746868917277   T   T   T
  9.1482802536581804 14.1576869932951173  1.3320113385974168   T   T   T
  9.1380793950673951 16.7056326070848051  9.0920535559284641   T   T   T
  1.2623879346123403 14.1160870188225704  9.0088076186630524   T   T   T
  5.9990147569466910 16.8623942620596559  5.8405963510351189   T   T   T
  6.0346195728795173 14.4101903420378559  3.4046565788774030   T   T   T
  3.7049805835271159 14.2348370474378463  5.6383665817754745   T   T   T
  3.6886335267936206 16.8866875684939544  3.6396760434405544   T   T   T
  2.4117270901577692 12.4079552690040007  2.3581974328594377   T   T   T
  2.3866902762307096 17.8603781230020964  7.6524454061202025   T   T   T
  7.8381405747638713 18.2268790569270109  2.3320952737494487   T   T   T
  7.4933752543348042 12.9960785163983097  7.8809514783283499   T   T   T
  1.1906174144243231 11.3389966614098032 16.5411081127760262   T   T   T
  1.1654094607349526 19.6084773248481454 14.3730182037505170   T   T   T
  9.1966910307867327 19.5754594164108298 16.5770815685840347   T   T   T
  9.3120628070828673 11.4978181791624845 14.1623319307317175   T   T   T
  6.2711545007492253 11.6960206213788744 11.4796853848999802   T   T   T
  3.8344289223577972 11.6419424523208459 19.0523925222200958   T   T   T
  6.2292420456978537 19.6209024693016190 19.0602829832175544   T   T   T
  3.8011913458100834 19.1864293722196173 11.1384906891183544   T   T   T
  0.7407063167142707 16.6102521800566905 11.3878328217754916   T   T   T
  9.0851812620734460 14.2245666357859388 11.5702582979761299   T   T   T
  8.8880851131716714 16.5935085877331083 19.7271443153241002   T   T   T
  1.1221421916917862 14.1602828119384245 19.4276536639758000   T   T   T
  6.0022336478614919 16.7404734519796285 16.6568451662164456   T   T   T
  6.4064595074615136 14.3222357671409437 14.0631925811539471   T   T   T
  3.8976576511814924 14.0295187533828329 16.2786174183354220   T   T   T
  3.7830705909370264 16.7335106197594321 14.0949246380669777   T   T   T
  2.5920720443231873 12.7599979850533067 12.8235676152649187   T   T   T
  2.0705063456900423 18.1011741927276262 17.7099832765971286   T   T   T
  7.6407584556566226 18.1239976478012075 12.7732509279209818   T   T   T
  7.7419082668970702 12.7874730599626911 17.8030487129686215   T   T   T
 11.7228901418666656  1.4421549397535898  6.1299303604527786   T   T   T
 11.3041375813419283  8.9071660972866642  4.0759860276255422   T   T   T
 19.3444492537363857  9.3593846978654636  6.5016910599748439   T   T   T
 19.1008048144816271  1.0685120782485065  3.6673553670331089   T   T   T
 16.6830367102596711  1.2284012178347055  1.1182737700588197   T   T   T
 14.4572806465981198  1.2500051096745590  8.9319934430020602   T   T   T
 16.6566721632675048  9.0724080128163820  9.1080834439493028   T   T   T
 14.0042391628246854  9.5068349269375823  1.4390264715219887   T   T   T
 11.6161986498593457  6.3284252893986181  1.1982946756884498   T   T   T
 19.4500816939663252  4.1211868605781738  1.3353876516145895   T   T   T
 19.3744923416769410  6.3557362004841460  8.9482443206415319   T   T   T
 11.6105405012277227  3.9405731397095374  9.1121436838685810   T   T   T
 16.7467397792260329  6.3819164434786710  6.2626171933090342   T   T   T
 16.6398646168610114  3.9770732179182757  3.8864578947178026   T   T   T
 14.8678329601327270  3.8620794837526509  6.6476104141053138   T   T   T
 13.8776000093202843  6.2062001184185442  4.3611837420238464   T   T   T
 12.9789635997636470  2.4083871994964507  2.6699662019944137   T   T   T
 12.8421632776798003  7.5083301965920421  7.9049805499279033   T   T   T
 17.9322021760344938  7.9722927122208223  2.7792499014221899   T   T   T
 18.0950369584285085  2.5405746236654418  7.5574698602582160   T   T   T
 11.7883262980735086  1.1392886371103403 16.3574425151065022   T   T   T
 11.5532884604583579  9.1052894489089287 14.3158509151527120   T   T   T
 19.2338293366831010  9.4112735513802264 16.7554288807786165   T   T   T
 19.1792905978988841  1.2593523971866827 14.3024803955858477   T   T   T
 16.6753672975798111  0.9647281245394278 11.6498917911615081   T   T   T
 14.1941611815232847  1.1931174292875224 19.6102233194523023   T   T   T
 16.3291562117678026  9.3669235840619098 19.3633793934735543   T   T   T
 14.2860825185124565  9.1176211126818920 11.6379128242514245   T   T   T
 11.8334989726330715  6.2269839244407637 11.7697545343631091   T   T   T
 19.5500802244561065  3.8335481664459081 11.2268202373730510   T   T   T
 19.3281496583460353  6.4428549764139191 19.5396692922846427   T   T   T
 11.3149285326462596  3.8303435187428536 19.4072556853326539   T   T   T
 16.7153751063791738  6.7302178437330831 16.6012331232031514   T   T   T
 16.9331366006650690  4.1238280048982006 14.3006717327501587   T   T   T
 14.5700443932246628  4.0320088958797067 16.7044313126710477   T   T   T
 14.2610343215385562  6.3764983761912539 14.2260781010537034   T   T   T
 13.1583981187197860  2.4902045963739776 12.7483801393501732   T   T   T
 13.1098237621280482  7.7628610203896384 17.8672327314317876   T   T   T
 18.0496637158520734  7.8027869940379730 12.6610706865423719   T   T   T
 18.0974123418567103  2.5947180480044985 18.0582382175023852   T   T   T
 11.1143285874688367 11.1880612763666605  6.5206302833466534   T   T   T
 11.5320910184451151 19.3745852051079623  3.9568785320141595   T   T   T
 19.2075323397327615 19.2790601878006989  6.0955619789518058   T   T   T
 19.5046203867565886 11.4589718018270581  3.9084828582651641   T   T   T
 16.6125047624161652 11.7033075552680703  1.2115541460241226   T   T   T
 14.1188076549798698 11.2641424632136111  9.1316925065434376   T   T   T
 16.4118820696178105 19.3012956462937098  9.0289741927501161   T   T   T
 14.3690034119704393 19.2146407698458326  1.3008162539702983   T   T   T
 11.5570282285324968 16.4063207398740367  1.5176433469984447   T   T   T
 19.5285544771986252 14.2625157362633690  1.3883108723376285   T   T   T
 19.2457816075952515 16.4057029599195374  8.8639851233194289   T   T   T
 11.3955411885798217 13.9603190781411630  9.2490090830390894   T   T   T
 16.7743620060128791 16.3268580760821642  6.0249156548310916   T   T   T
 16.7694611105916316 13.6813349287657555  4.0548949336088294   T   T   T
 14.4256337149492992 13.9308686332871954  6.5371076293129002   T   T   T
 14.5538725086767968 16.1532537678840811  3.6891886553760989   T   T   T
 12.6784024458209466 12.5816386968086693  2.7112696199678652   T   T   T
 12.9471043396640866 17.8123433977132350  7.7197546601149210   T   T   T
 18.0156267006297917 17.8340319797683335  2.5379554282993482   T   T   T
 18.1943178592640322 12.8102494206589945  7.7246900609225344   T   T   T
 11.3140403898999651 11.5304803259124995 16.6437327558866563   T   T   T
 11.5684889582660304 19.1805334951188406 14.1447406294062841   T   T   T
 19.2186914040620991 19.4177644490381027 16.5485630278278784   T   T   T
 19.4240098736649074 11.5596234917636380 14.2160128426823444   T   T   T
 16.5545745953732251 11.5286018242059320 11.4018505331028059   T   T   T
 13.9379961888641901 11.8131008410612992 19.5676692093837694   T   T   T
 16.5986715659725164 19.4694702340397576 19.2892690960547277   T   T   T
 14.0713648353295397 19.4108604938273395 11.6099139861251324   T   T   T
 11.3470358966768181 16.4660869465222817 11.4794992100029400   T   T   T
 19.4756027996765262 14.1477852717526762 11.4236185531301047   T   T   T
 19.0166226582777114 16.2218313680712107 19.2383176947265007   T   T   T
 11.6688368900598665 14.3834564830292635 19.5674033951404489   T   T   T
 16.4937434514941259 16.5525156088691858 16.8592712781027352   T   T   T
 16.8666291644205408 14.4919000143727565 14.3365450947299813   T   T   T
 14.2862511412611610 14.1477099316937398 16.5551124524590918   T   T   T
 14.5115386103635053 16.6898832608604799 14.2298504424045316   T   T   T
 12.9261981255362315 12.9313425383325082 12.9112958960184532   T   T   T
 12.8315618161398479 17.9967696277923146 18.0100503417175268   T   T   T
 18.0049990588149953 18.0503984525312653 12.8881084507936770   T   T   T
 17.9508692798981215 12.6906580094450891 18.2571359924973038   T   T   T
  0.3452653502836284  0.1255118399968970 -0.3741657752742875   T   T   T
  5.3975458207825326  5.0696116088391605  0.7374413813335282   T   T   T
  4.4044277241615077 -0.1739281248718120  4.8140337476065405   T   T   T
  0.0136517306929698  5.1066692190265845  5.2739743467500944   T   T   T
 -0.4311212974504168  0.0714470647137613 10.3246269888009579   T   T   T
  5.3338475833835766  4.9660811873825041 10.3622820856862781   T   T   T
  4.3803478621312584  0.4229058729389035 15.9980213842706078   T   T   T
  0.0144337066429146  5.4535416971843649 15.4565927622303025   T   T   T
 -0.3165229784893190  9.9259152238058856  0.3507272166432197   T   T   T
  4.7396631279615864 15.3283567333538784 -0.3339094723510385   T   T   T
  5.1077456253724574 10.5951701581440965  5.5630263977637551   T   T   T
 -0.2978418023018098 15.0738253392564303  5.3652590231868231   T   T   T
 -0.0632819658957147 10.1805836789877180 10.3694240820594477   T   T   T
  5.0496062265161195 15.6893193267231119 10.3498428077133546   T   T   T
  5.6385122767749536 10.0437477527055403 15.2887369928163572   T   T   T
 -0.4198197877681393 15.5120484140837895 15.5226069727197817   T   T   T
 10.3084317296276993  0.5513988333329876 -0.7889080979587370   T   T   T
 15.5633755797718827  5.8749262804849636  0.3007628065251660   T   T   T
 14.8719388071918175  0.0535338699489815  5.1904540158376040   T   T   T
 10.6598813142379587  4.5699441534194252  5.2753682773925776   T   T   T
 10.3758721685275983  0.3296769030125755 10.1097657997190495   T   T   T
 15.2311799430142756  5.3369689980434911 10.1326165677403619   T   T   T