Li P  S  Cl
 1.0000000000000000
    25.1819793006824639    0.0000000000000000    0.0000000000000015
    -0.0000000000000009   14.5388225279766061    0.0000000000000009
     0.0000000000000000    0.0000000000000000   37.2126966544236950
 Li  P   S   Cl 
 286  48 240  48
Selective dynamics
Cartesian
 -1.4944493710020830  2.5223585552587195 12.5593489236825668   T   T   T
 15.5299222459597299 11.7735095830935936  5.0402172157343932   T   T   T
 10.9301582301705729  3.4699038790969499 13.0757363613034769   T   T   T
  5.8542452881432610  8.9973206376108994 21.8538837024899237   T   T   T
 14.3397626062818500  0.2687453316044147 -0.3226751623758168   T   T   T
 24.4709551443022590 13.4446278599796170  6.3665905286444229   T   T   T
  4.1368919891737219 11.4264512759620196  5.9133823075837411   T   T   T
 13.1714855046428880 10.4082911971766805  5.3551286546772641   T   T   T
 19.5501128760407639  2.8249047736121957 14.9553166993427133   T   T   T
 16.9086412070986256 10.5557558806730825 13.6012715552633523   T   T   T
  9.2257338520223282  1.0362447416019835  5.7735005215767234   T   T   T
 14.2681971403296366 21.4056824125122134  8.2954688697607537   T   T   T
 -0.2152948484794565  6.3798486128247287  6.1093800322452969   T   T   T
 13.4320264430100185  6.5038964567955455  5.7692615782099610   T   T   T
  4.9055481565870744 12.0614701071230837 10.5473507295235116   T   T   T
  7.0506487979728929  9.0174580151691881  5.0384066223115278   T   T   T
 18.5414698387518797 14.7403952091820845  8.8095880433818170   T   T   T
  1.7086722176595608  6.7749952902532202  8.3375021916960943   T   T   T
 21.1511909025919778 11.9723357158105514 16.6502588389579884   T   T   T
 14.0995880494961909  9.7229649184171869 12.5806977716819706   T   T   T
  9.9319293844195311  6.9447165401531912 19.3799035331014480   T   T   T
 11.3633106677756341  5.2029435616576212 -2.5565866116495566   T   T   T
 36.0790828199100346  1.0008661263883309 -2.3547283129587706   T   T   T
  7.4451544209418214 -0.5944359400487612  8.9650216908974798   T   T   T
 -0.1591298102205922  3.7809341575995901  3.4102692527898588   T   T   T
 19.1829304963607967 -4.1786172762247125 20.0451142717463320   T   T   T
  8.1156475720138719 12.6244739482315058 12.4489532046266422   T   T   T
  6.2772202928258594  3.1316171425903714  6.2728648985287210   T   T   T
 19.9943240235057900 24.5556904630814721  0.3744998136155415   T   T   T
  2.1682188848323904  9.9689617332686016  8.2948025000952850   T   T   T
 18.8603344210932349 10.7437748526213568 10.7979300428214486   T   T   T
 17.5489044252919939  5.9197754905669626 15.1351529021971647   T   T   T
  7.5041465630337942 10.6494297766996144 14.4415002160770900   T   T   T
 12.9452424348664010 -6.5082215779843633 -3.0077969033841359   T   T   T
 17.7985536824692758  6.4729916295749224  0.5581509973018476   T   T   T
 26.8955520561314785 17.0876040518610672 12.7609047702767189   T   T   T
 10.2538229124323674  8.5786946504982104  6.6481523498758319   T   T   T
 19.1505032761137954 13.8446236779708940 -5.8974592559667984   T   T   T
 -0.7750397290014089 11.4166266482245433 -3.3919104808042229   T   T   T
  2.0964004483917149 13.0643873240096475  8.3356576999888077   T   T   T
 22.4787124034320556  7.0214443161330520  7.3806522465446669   T   T   T
 27.4178816115677648 -4.8506300441881711 19.3273021061956314   T   T   T
 10.2288588067962198  6.5031681020233609 12.7025139601856942   T   T   T
 16.6426217089193429  4.5496376346677003  6.8853660249417201   T   T   T
  5.2688231409058455  1.7633840613275877 18.7165135695647891   T   T   T
  5.8814104907669211  1.4617603436736142  8.6515410587961874   T   T   T
 18.4918881498752867  6.5746944643391956  6.2324644376493392   T   T   T
  4.3497610057392002 10.5861379254927233 14.8391548202594539   T   T   T
 10.3540902427075689 12.3004789207635419 21.6491634581306869   T   T   T
 14.1985852763799762  3.4196287443142523 -0.4676721157480022   T   T   T
  2.7751362747950439  4.3867475974469299  5.4569126126129248   T   T   T
  8.7260714112273430  2.1794058758891555  8.7472817652301327   T   T   T
 19.1968787589689285 10.7083290156289568 15.2765117206594390   T   T   T
 -5.3944243690543230  6.7248225802170207 14.9345448926708961   T   T   T
 16.8866048005720160 20.2932956085471297 18.4914868357769819   T   T   T
 25.5627703252835516 -0.8634213701475666  0.4082015994188124   T   T   T
  1.4563832212917311  8.8903324155809447  1.9419067573609206   T   T   T
  2.5855356264856213 13.6917878078806119  3.0140025075611558   T   T   T
 20.8874185213116164  6.3649997861926888  4.8421229491069226   T   T   T
  7.2319787749233972 12.0334306915008966 24.1970679537451900   T   T   T
 10.3364139540772619  8.8914796869984265 14.7434616385503041   T   T   T
 11.3604183158426348 15.0288849454855473 10.9496581238876445   T   T   T
  9.6526074518628935 16.0708350947334431  0.3697105699443960   T   T   T
  8.8062313697424699 25.0138899013380716  7.9677880008482864   T   T   T
 19.3483853366699989 12.9890183207918106  6.6235757924115655   T   T   T
 14.6603999232151008 -1.0056517255612019 15.7017075630127714   T   T   T
 27.0430181300411192  4.7124088502056383 24.4588848502439440   T   T   T
 15.2566192275199555  4.8042827471324401 -7.2773854661875950   T   T   T
 -4.9305564393674421  5.8306133555345800  8.0286192451615452   T   T   T
 -2.2446761394420234  0.6266978338535133 14.9821446205166993   T   T   T
 20.9328298948112916 13.2649265329652390  3.0062804096767795   T   T   T
 -3.2710245866715555 15.5062718414475356  8.9676436338422061   T   T   T
 14.9574968794276195  1.0134758258030829 12.7656030203008140   T   T   T
 20.9906302894286654 11.5959191976512415 12.7483719181343069   T   T   T
  0.5915041435642863 -0.7745226749093077 14.7425395194959350   T   T   T
  7.4628971106927029 -1.9680787394392354 -2.1990906144471718   T   T   T
 24.8618683999810273  3.5354152356216919 -0.2820442414673377   T   T   T
 -0.6249298753822949 10.7440419020495117  8.0295901116733344   T   T   T
 11.7338692224105401  7.8231182791265823 11.1203979570950118   T   T   T
 18.4373562883702391 13.7788165007500574 12.6262108763666472   T   T   T
 -1.9114634139782238  4.3315213756376716 16.7991510240110351   T   T   T
 12.5264071919914315 11.8517592478309766  8.3749280792101786   T   T   T
 19.2284658254106091  8.9008713728710536  8.0547470073273075   T   T   T
  6.0675483243714616 14.8796997902316566 14.9518565713945151   T   T   T
 10.8736413465220814  5.9323015005323265  3.0480381178723355   T   T   T
 20.6439123534695810 18.8885943518111539 12.1694256173574171   T   T   T
 13.8632668692281182  7.0895600716704079 13.8605636936379391   T   T   T
 12.1005445840170758 17.7015242082026809  7.6079419125546277   T   T   T
 25.4576329567748232 -13.1736751606912001 -1.9624218056332232   T   T   T
  1.1186580677136067 16.4895559767164102  7.0364278509681428   T   T   T
 12.1304797465112699 11.4203559114420603  1.6006353626927043   T   T   T
 23.5704229647282162  9.8765107569758239 16.1274423381931769   T   T   T
  8.1047272713545002 10.1371120820029148 20.5197741064206731   T   T   T
 22.0528750414505907  9.2973848269829258 -1.8089965986333962   T   T   T
 29.4034663895722943  6.4740382165273100 12.5475945408688219   T   T   T
  1.5991244772032134 10.4979338391014778  4.9696227531270605   T   T   T
 12.9010070571184166 -1.0827363629368683  5.7428888648121275   T   T   T
 17.8072714283390354  3.3608651786744770 12.5186316962742943   T   T   T
  3.6544704472367209  3.7977248123143821 15.1238381322086806   T   T   T
 14.3844747615720063  7.9604332203105947  2.7488950138084651   T   T   T
 26.3385557090030389  6.0075050484369008  2.8456786913583736   T   T   T
 -17.2812025736472918  7.8230961225325650 17.4948684044996234   T   T   T
  9.5683528139078380  7.2313276833346514  8.5246215138799055   T   T   T
 24.1498693929142192  6.1681993535718647 24.2422604689958590   T   T   T
  7.8300750953925160  3.3544055183886674 14.6113141378145901   T   T   T
  1.8717776625774425  5.2575691662021331  0.1960155241089730   T   T   T
 17.3627407631657249  8.7567339188527207 -2.0526611805477981   T   T   T
 19.8008336402903637 17.5855709955614543  1.9730355320156363   T   T   T
  6.2695762539675828  9.6711872519614221  8.2754717554856771   T   T   T
  5.9884621558984543 18.3599763477176374 11.2393938658156483   T   T   T
 24.6116851459830528  5.6841744085703381 13.3634758099916162   T   T   T
  2.7786155319231640 12.0741630240235942 -2.4757546358876050   T   T   T
 20.4767068978476559  5.4204314562177416 18.2603612273162241   T   T   T
 20.8400657727523750 -2.2500965045821029  8.8406574272158576   T   T   T
 15.8816831818046484 12.5595122251791196  8.3220881169822984   T   T   T
 17.2995911482541942  8.4860963605306363 17.0164471674688365   T   T   T
 20.0299239643938165  9.0845957297979254 24.6983229369730495   T   T   T
 -4.3183221067020243  9.2609855344836269  4.5410857441892558   T   T   T
 11.6101935504372893  5.9371178100358044 -0.2243125992104884   T   T   T
 28.4776530038282374  4.0567046420257205  8.7286507110045601   T   T   T
 13.5976701334573971  3.3278493118339951  4.9075508567289949   T   T   T
  7.2490880881931856 -8.2113506451407119 22.9457669934590669   T   T   T
  6.0576971498945413  4.2429746018681609 16.3600885117414059   T   T   T
  7.8364888384334375  3.1883091616574872  3.1880774546974400   T   T   T
 22.7894196673793843  7.8708046931758373 13.6552959322264122   T   T   T
 21.1643740722317943  1.6497651769013304  5.4192019893708103   T   T   T
  5.0224886127846480  9.7826981289463113 11.7259329516713304   T   T   T
 10.8128477735438651 -0.2479722005666586 15.5717970917409740   T   T   T
 -0.9840679211936538  7.5761946786528851 10.2536929130513066   T   T   T
  4.3759755662391546 -12.1335270978413696  0.3783595642310421   T   T   T
 17.7544732093975739  7.9781588562606780  2.8011564261331818   T   T   T
 24.2139353453650088 24.8548498760976564 12.3654317757756420   T   T   T
  6.0861476278645421  6.8855734123797596  7.9215428686616942   T   T   T
 14.4379833122461889 14.6839746854254471 18.8985532593496757   T   T   T
  0.8394476696203044  8.0642076503907312 14.7649202448778603   T   T   T
  3.0363107050234430 16.3950236636103526  3.3676599667187790   T   T   T
 14.1492416032589556  3.4713635472857818  9.4129025437102332   T   T   T
 18.3101329090036558  6.9417464707887442 12.4001763283814199   T   T   T
 11.1013292444780642 25.3389368546833822 12.1414214413496619   T   T   T
 16.8657338930483789 -3.7038573369018839 17.5373153627736080   T   T   T
 27.2645540771692296  8.1270228513483982 11.9349075767700157   T   T   T
 16.5118879564181995 -1.4764107926152532  2.2131963182474954   T   T   T
 19.2669547580974125 17.0908988312295946  7.0733526268194780   T   T   T
 14.6989670722478891  1.9550093789016216 25.8262607997854907   T   T   T
 23.7635608954190971  0.4507849171694971 28.2812872090465213   T   T   T
  6.7591247421341576 13.8545466078380883 30.7117143163692639   T   T   T
 10.1555606311376909  5.3705865760383489 16.8730821608864190   T   T   T
 29.1543015055267389 22.1814700540300471 36.0249871654487208   T   T   T
  2.9327452955656921 -1.6743707784140349 23.8737360452997720   T   T   T
  8.6503430437251225  7.0885480400605134 26.1837498244377898   T   T   T
 26.8839902760069549  4.6702778297200540 18.2506731669731828   T   T   T
  4.0906482223038960 13.0905775868212011 12.9358846930634055   T   T   T
 19.7585960232905506 -5.8139297740198934 17.7481438389835944   T   T   T
 18.9857377763422690 11.6203630875698458 35.5592242009935688   T   T   T
  4.1675194655477608 -2.2969771463098190 31.8009148607530712   T   T   T
 16.6929211687076275  9.3525447529131380 29.6928871927722149   T   T   T
 22.7843244217094636 -1.9149894797133657 22.5683418628982935   T   T   T
 11.2843301335434383 10.1753865503218623 19.3390881401161145   T   T   T
 22.3476920300844526  7.7082547011447629 26.1077620224347697   T   T   T
 15.4419439078600593  7.1437069816718708 34.2114833427902596   T   T   T
  8.4081503753229274  3.1776634850341958 33.9721248241233411   T   T   T
 11.5091966742462688 12.0203709607227580 34.3485853315641663   T   T   T
 23.7660949952832183  4.6149665732831915 28.4468129562554459   T   T   T
 12.8796466655311672  6.7754521021767360 20.3990530118851154   T   T   T
 15.5493115660020358  5.5217816488243114 23.1954667986852527   T   T   T
 13.9912964525875587  7.1898611579081555 37.5330321892888037   T   T   T
 10.5586149918076142  4.3562621807224140 29.0928759729563780   T   T   T
 10.3500743962776376 11.8020534498506109 31.3700467123748865   T   T   T
 24.9421638846357894  8.5581293525810604 28.0336729456243567   T   T   T
  5.1357563289791521  9.8576166225543442 24.8746329715116552   T   T   T
 13.2950945659691939  3.7397172147162201 22.7951355558532995   T   T   T
 15.5736268175561410  9.9115015615847391 37.0007508124067215   T   T   T
  5.8311428484849390  8.5162385912182188 34.1708023883733176   T   T   T
 13.2828036987477827  9.8131155866912287 31.9597389983833651   T   T   T
 29.6309453365468656  4.1522087959903216 23.2025605570070503   T   T   T
 -10.6488062159642691 11.8692550881929719 21.3110610886709289   T   T   T
 15.4150485520353264  1.5592786229448068 22.5688818742300477   T   T   T
 15.1272066268190510 14.9849110678366149 33.9185672664739570   T   T   T
  4.9735195149956946  7.8903074431078331 39.9607769114550848   T   T   T
  7.5880800055139428  0.2215403974700316 25.5366701702037417   T   T   T
 26.0844743362563065 10.1802585591656829 30.5605263328443684   T   T   T
 28.3866254459692229  1.3887388678524681 34.3878837432908142   T   T   T
 16.1742034008923596 11.8514712344903277 33.5897182110078774   T   T   T
 13.1469810398640430  2.7134632656467184 28.6132552442280002   T   T   T
  3.5876674704057332  8.0443851343871255 29.1165545102292178   T   T   T
  6.0669181902596359 12.2362175621520528 28.6325026767183815   T   T   T
 20.3789216645706119 16.3897916876491863 24.7065835177182755   T   T   T
 26.6627061065911022  2.2441022229801870 38.2050270153484348   T   T   T
  8.8189255578542483  8.4893606600619265 36.9066214475368781   T   T   T
 20.3906073298915729 -1.3063248333535935 25.8847704290323080   T   T   T
  9.3268695209951993 12.9792290281310656 26.3984053473235498   T   T   T
 19.1667281280628927 -1.3410907259313047 22.7850332087539158   T   T   T
 -8.9900635370125173 17.7614391040378337 39.6398021451631308   T   T   T
 16.8678876041642525  2.1986065553877148 36.4939055136880057   T   T   T
 18.8286811032465167 12.4757655425243055 28.4097536626483205   T   T   T
  6.6960676732946736  6.3100959209816319 27.8716425983463054   T   T   T
 11.3271279488813992 -0.4119590894755031 24.4919771359031486   T   T   T
 18.6727276159389106 16.7991174248288964 20.3441689903923368   T   T   T
 -2.6469079040140588 -3.5730983961414533 31.9838908463373137   T   T   T
 13.2334697512633497  8.3011148413285891 28.4337634981076270   T   T   T
 20.5152648730662079 -9.8958728715497024 24.4163207265801319   T   T   T
  3.6189941210664514  7.0682326219053238 31.6492306086419433   T   T   T
  2.2892575809759910 -6.5504528518351774 23.4812206695951282   T   T   T
 23.8236082270020333  1.6164836002703902 19.6211648846926927   T   T   T
 -2.9523556101850845  1.1239168759586247 38.6148617849891593   T   T   T
  4.4904640818766293  9.5099668751819593 38.0632544333596883   T   T   T
 16.2115584877250640 -2.5186420288551172 29.6943970988863164   T   T   T
  6.9924417885160741  5.9721724908393554 30.9899409350953086   T   T   T
  8.9063909074615140 15.8077811031683240 23.3228731016745350   T   T   T
 14.6754428236275967  4.5727219781526722 25.7551479669427401   T   T   T
 23.6596157834122351 10.9347794877647626 39.6744018575429891   T   T   T
  3.3946667046386718 -1.6796038506586277 37.3517296343795380   T   T   T
 23.8661501308108157 11.7653028184578083 28.8417513910785779   T   T   T
 -2.0294401639001287  0.0847705802191049 35.2667657174748399   T   T   T
 10.8012262553484994 -0.0748006615371959 30.1362885176259709   T   T   T
 22.6703068515072346  7.9368329551692671 30.2539201717662252   T   T   T
  3.5678639665391154  3.4247389131150068 26.3752553308361009   T   T   T
 17.0129971988955475  8.7861461780452235 22.4336128768523402   T   T   T
 17.7980255759193540  4.3500345958923043 33.2550105874201734   T   T   T
  9.7609462364354194 11.0349836446662906 28.6522510615049804   T   T   T
 12.3415558964336469  2.2784601308336097 31.7935926345206994   T   T   T
 25.1345457988060943  7.6887971691223731 33.3538741541663342   T   T   T
  5.0573588148275537  1.3569102757934497 23.8313263829217838   T   T   T
 17.8456492622987355 14.9659907871295221 17.5993552609315920   T   T   T
 17.5683359674771964 15.4466075812215919 40.5835886155129089   T   T   T
  5.8287880351484729  0.0567508524037978 39.3785079224044807   T   T   T
  9.2931078075380604  4.1695711987826920 31.2804111328177932   T   T   T
 22.4173285912242406  3.8200702099945514 31.5853092840200347   T   T   T
 -8.5117071975121856 10.5212147830083680 25.9141468667367967   T   T   T
 14.3445442571776294  8.9957770865436704 25.5394456834911807   T   T   T
 29.3746220079763489  4.2643106973515401 34.7478613025819669   T   T   T
 10.1015383129104332  7.9516363629395164 28.0701905593998546   T   T   T
  8.4150988757891891  1.6621184375804514 29.7708924188324495   T   T   T
 21.4006527072687902 10.1617912687337508 28.8735665420745633   T   T   T
  3.6667714282351596 -0.8875145260309123 16.8068003065468154   T   T   T
 17.1580544711485814 11.3315833734244205 23.4844738841000975   T   T   T
 26.2074735656932774  3.3695626608526394 29.7618185024728383   T   T   T
 10.1244926558244455 13.8571531897923776 39.1161685019481382   T   T   T
 18.1147339616610523 -0.1818329640079219 36.9841470403453485   T   T   T
 21.2465227580844882 13.2952364392622489 19.5181159931137813   T   T   T
  1.5156129605043542  1.4815779751555294 25.2995635291221355   T   T   T
 17.6215107746031023  3.3775482004616517 24.2557979135639634   T   T   T
 29.1878489621792170  4.4145616355620394 29.6810423844103255   T   T   T
 12.9916283362986604 11.4900398557289929 28.8637662915451614   T   T   T
 -0.9763049160430476 -5.5514313138121354 22.0583610892918536   T   T   T
 19.4612915899189289  8.6625787719292831 33.4090831318369226   T   T   T
  6.6005208581886938  8.3822673366668319 29.9360847856317207   T   T   T
 14.1294812312815505  7.9718220718336310 22.6724567174324250   T   T   T
 25.3378384028428059 -0.1703011154701979 48.4386542321327340   T   T   T
  7.2205191253995906 14.4390616336277233 42.2216789221491666   T   T   T
  4.9963412188441065  1.2428850977114787 28.9166862273240390   T   T   T
 19.1348663208322733  7.1616260241881156 27.9349624937877685   T   T   T
 21.3757737773370522 -5.7410102505952150 22.2844797835558630   T   T   T
 13.0934198420009604  3.5322837798690205 17.7529106989489804   T   T   T
  7.9501473631256996 -2.9439723676362486 40.0620060587229290   T   T   T
 23.0828323139128599  1.3169972158425749 31.3331730499798802   T   T   T
 -0.0550158882111975 -2.6481683020517095 18.6935793531445391   T   T   T
 16.3614140286143765  0.7411583396062430 30.9649813686517277   T   T   T
 25.9321507537233842  2.4841654861636413 22.1732070929895428   T   T   T
  7.3912499201758264  5.8594348882284484 12.9279922641099922   T   T   T
 14.1105808295253947  4.0712405100330891 34.4803161249303827   T   T   T
 34.9953509011683224  8.2838694266194324 39.6844661982266018   T   T   T
  2.6216886663855901 12.4355009592917600 28.9167417276277909   T   T   T
  8.3315502867269426  6.3262256130737908 40.4709747269183566   T   T   T
 24.3622354626869111  4.9282474463685935 21.8449825946209693   T   T   T
 10.8942384005207753  6.1773762292060663 25.1345248449164202   T   T   T
 14.5865041342292923 15.2482343145590171 39.5585956523899966   T   T   T
  0.1593615406873969  3.3504854438349492 31.8053187286134929   T   T   T
  4.1496156718048720  0.4311656770154844 31.6453559090988747   T   T   T
 16.8358548514272996  4.9772158031854214 27.7128347798377241   T   T   T
 26.4365707155410306 -0.7524555069478048 20.7818137321464818   T   T   T
 12.8998575362465679 11.4489927058490082 24.2725022001493862   T   T   T
 22.4134566281390306  5.4380776550698702 38.9681320447984803   T   T   T
  4.0018466997965767  5.3419193763653023 39.4994657177416570   T   T   T
 -4.0204908986014898  1.6090282265096214 28.3003601987522089   T   T   T
 19.3836742227328855  6.0616135501164203 30.1238537404531002   T   T   T
 22.4758787668385551  1.0707884936798207 22.5056765092372011   T   T   T
  7.9102037202605784  4.1231945909331644 24.9621656616839758   T   T   T
 17.9417587710838973  0.9744635985907927 28.2624028138841119   T   T   T
 -4.1857800641202161  2.9056310285962383 33.9036463430428370   T   T   T
  0.9422319517781292 10.7386454841278098 25.4481571730374867   T   T   T
 16.7246181888141479  7.4436136016096217 31.5958633871988752   T   T   T
 23.7364441029663169 13.6974326333311307 24.4127497876801058   T   T   T
  9.0791098234121979  8.5418474368269237 23.1945721239879425   T   T   T
 10.4810054896838381  8.5218466143849909 31.9361960197355401   T   T   T
 24.8476136983462652 18.3294859720299073 45.9931701132864816   T   T   T
  0.9197939034328857 -4.8707370983928557 -1.6315627472491010   T   T   T
  8.5055555194638632  5.5717492371212129  0.6542750065290011   T   T   T
 15.7263197369051788  0.7311918031230289  5.5452351996099232   T   T   T
  3.3093931852250154  7.8097492853912973  5.4901684081236519   T   T   T
  8.1320347300253566  1.0767571593904171 11.7718680773244451   T   T   T
 20.7570793876688242  8.3327301303565697 10.8387570086698943   T   T   T
 22.3280420659347385 11.4432567519882387  5.0576483754382116   T   T   T
 10.0672379293022143  4.7883760816042154  5.9987749792043967   T   T   T
 14.2658676370562958 12.7326562875517233 12.1410533390801376   T   T   T
  1.7619349793131494  4.5903830866155930 11.3371778005526949   T   T   T
  7.1287970150474793 10.9071320593200696 -0.0216395841450529   T   T   T
 19.1674880328068014  4.4102320531417414 -0.6196275617891885   T   T   T
  3.4062013345008970  0.7526351603665609  6.0576237114011615   T   T   T
 16.0788990709124562  8.1185536871355488  5.5932213062604124   T   T   T
 20.8375308326615070  0.9954532200551061 11.6972209202378590   T   T   T
  8.0834126831166593  8.3325020958508222 11.2879570628482284   T   T   T
 11.5459330539582741 -1.1316821166878392 -0.2409076080869916   T   T   T
 -1.1703194394249057  7.3761485562634963 -0.2029190734456303   T   T   T
 22.2179888543928357  3.9778337693000752  5.7304744133475527   T   T   T
  9.9386286475935091 11.9570321485989943  5.4550270540696504   T   T   T
 14.6598995916207127  4.7153107482119054 12.5218667895424911   T   T   T
  1.9711965967560958 11.4718848737900654 11.5780086804973923   T   T   T
  6.6621371214569471  4.7091561594265121 -0.1890882377561549   T   T   T
 21.0920960129192920 12.8845387234949094  0.3767465080345857   T   T   T
  6.7758602907899537 -3.0186369589578605 17.7170716106952817   T   T   T
 22.3863868108476183 10.3449461267158878 20.2451700058767479   T   T   T
 25.4410054721060064 -1.1371062297510841 31.5581376160442595   T   T   T
 12.6905743603903378  5.7663662773132431 31.4392122544290054   T   T   T
 17.1586852882392549 -0.3804534965287555 25.3920063670864415   T   T   T
  5.2203339166932325  6.2965424040469191 25.3936253172930257   T   T   T
  6.3194228250539570  2.9644583417936792 31.6749265382129259   T   T   T
 19.2276481582005090 10.2969370987693587 31.0202434220713776   T   T   T
 23.8612495063021370  2.9135429655497527 25.3518912933212874   T   T   T
 10.8614872140302481  9.7225055726965213 25.9226674271902944   T   T   T
 15.5449081080881051  3.0322785226772186 19.5716898710138594   T   T   T
  3.0720492366205714 11.0854908470318900 21.7512400444757645   T   T   T
 13.3954570765867214 -0.9869056208455111 31.2100965774822825   T   T   T
 26.1342547188383065  6.4309048695376765 30.6997167689362200   T   T   T
  4.9750073895625562 -1.1360240028608906 25.7842651364007018   T   T   T
 17.4977985721506499  6.7843742604472830 25.5622069664906739   T   T   T
 21.2451368297305194  1.6440547084220383 18.1163422976327979   T   T   T
  8.0098294535700258  4.7299804706496884 19.3835790351897437   T   T   T
  7.3123765809322512 10.1103179883667362 31.6961178191672630   T   T   T
 19.3879834106881717  3.0188992567610744 30.8233494036775504   T   T   T
 23.1798408562506211 10.2426456307421407 25.4338574922893130   T   T   T
 10.9827648738816634  2.4236482128565444 25.8305494373576572   T   T   T
 15.1431034761897241  9.4999012284451929 19.5412503203895547   T   T   T
 -1.3161528099611937  6.9398871873066907 17.1952413423517640   T   T   T
  3.1524249524287447  0.8301348104999484  8.1590649803446649   T   T   T
 16.5691591944322667  7.9843840428592605  7.4605127914496290   T   T   T
 20.7116253668324006  0.9440191108797528 13.7421239051087518   T   T   T
  8.3480726468659618  8.4439754337541224 13.3301378577096941   T   T   T
 11.7383962856111843  0.6797497171375484  0.7472617756842510   T   T   T
  2.1719872755077474  3.8917018844633846  3.0643394085133311   T   T   T
 21.6566493784180238  2.6323741890429475 10.8568728660912921   T   T   T
  6.1995265554547530  8.5365896493483131 10.4579358863932672   T   T   T
  9.7220523231161149 -5.8711498634729002 20.9629263930050982   T   T   T
  0.6879786570610557  9.5672750715801627 16.6083230152623180   T   T   T
  4.3428787462797365  2.5237053746039551  5.2749902649279949   T   T   T
 16.9608598435311748  9.5852846916401919  4.5642633209220023   T   T   T
 21.9760623510342938  6.9043240374792143  9.7874657481591356   T   T   T
  9.2744222946357944 17.4638173428556662 11.2064997824653183   T   T   T
  6.9018596000180708  2.3690980166085449 17.2449715449773535   T   T   T
  0.9175074010570919 11.0230711612319308 21.0607661728680675   T   T   T
  4.3198632816182263  6.0819677692237581  4.7603053006686755   T   T   T
 16.6447966079245759 13.6938617150896693  4.5396044408693603   T   T   T
  9.1711875710606954 -0.5135415794618975 10.8514696095094703   T   T   T
 18.7823475534832909  8.2594884729801095 10.4224266212418915   T   T   T
 22.9955327533562794  2.1012383469302431 17.1409639483340719   T   T   T
  8.1080047077218040  2.6400037957787679 18.8367083989065804   T   T   T
 13.7867645625079458  0.8326493363247655  4.9556263187425351   T   T   T
  1.5477150752077977  7.7348323842897617  4.6276034986008749   T   T   T
  1.3358124590667639  4.3013766596456939  7.2800292674204599   T   T   T
 14.2373372855685005 11.8062443544529714  6.8454686120368171   T   T   T
 18.9510381170951234  4.8545957689939403 13.7963173436626185   T   T   T
  5.8330164967759801 11.4777809982957510 12.9853936508545136   T   T   T
  9.4957185654735614  6.2441527968568460 -1.2584603422318463   T   T   T
 24.6374741715276073  8.9814959941423975  0.8784962255886182   T   T   T
 22.4112117377935220  4.7627452781227460  7.6952706414304615   T   T   T
 10.3046032859603880 12.5447704115269065  7.4126882471054127   T   T   T
 14.8511995839434316  4.7487472089404159 14.6240080187617973   T   T   T
  2.0183914363020583 11.5529243034843887 13.4922441833329483   T   T   T
  6.7835992582814155  2.9797877343233212 -1.2137611951129688   T   T   T
 18.9588394159519993 12.2302966281543046  0.6613047709091532   T   T   T
  2.8831955152224089 13.0414012142551350 10.7294253557210535   T   T   T
 15.8381461202363969  3.2798660524774639 11.6338509592530794   T   T   T
 19.1663936928254728 10.9105214932808252 17.4789613964424895   T   T   T
  4.4143896225168691  5.3501527689392425 18.4650193943859904   T   T   T
 10.6735145618399994 13.5034732474962578  4.2249488884149144   T   T   T
 22.9962340741026594  5.4051855545432641  4.2510842521267236   T   T   T
  2.5942709836388240  2.8117109428224039 10.7840105293465136   T   T   T
 13.3294777758349934 11.1134606832033587 10.7704895115553558   T   T   T
 12.7324570287934851 -0.4726910697870862 17.1166576890966837   T   T   T
  7.8188405643293448  7.7900543437925229 20.5274175920089661   T   T   T
 10.7327498105123311  2.9787234493441650  5.1743029018406848   T   T   T
 23.2231216325502814  9.6651836945494249  4.6661601639012229   T   T   T
 -0.1378597887504574  4.4650901513713137 10.9185069990750474   T   T   T
 12.9626274529000280 14.3113263897651777 12.7683045022866430   T   T   T
 18.5691929312084625  6.7520556344828844 17.2533486688815607   T   T   T
  9.4842142383248191 12.4159337655492141 19.3827083282958554   T   T   T
  8.1032690157791158  4.8990233441241848  5.0037986811947794   T   T   T
 20.3917236154977815 11.7835574360578690  4.7884156502821984   T   T   T
 -0.2977942347581536  0.9173653580690073 13.5211400907185766   T   T   T
 12.1447585049423150  8.5693024201141714 13.4283851644681942   T   T   T
 16.3575888286007682  0.6646321439215200  1.2068889671552550   T   T   T
  3.5864186872995094  7.4607794681513679  1.0575656139394614   T   T   T
  7.5037972612163877  1.0208473322217877  6.9877357122830892   T   T   T
 20.5740132724508342  7.6386219461857676  6.3238460574877173   T   T   T
 22.5820478019679101 -2.8201515533410682 -0.7132877030520165   T   T   T
  9.6729980577618520  3.9256330371468291  1.3902314201477410   T   T   T
 16.3973202967622385  0.5601688925432917  7.6642465334239960   T   T   T
  3.5132766252308705  8.1660560700039131  7.4637402211629302   T   T   T
  8.4390306272228397  0.7281746162668412 13.7935324864597586   T   T   T
 20.8376379505573155  8.2374732140239786 12.9003148215559467   T   T   T
 21.3819407990613044 10.3757888126529725 10.6644827413600538   T   T   T
  6.0596103801124412  0.9631381024682423 11.1200805362416606   T   T   T
 16.0709859503235677  7.8592645926455607 20.5144455029255361   T   T   T
 -0.9714119366378414  0.1091483004875064 21.5641446570562749   T   T   T
  4.2322333889527357  9.3932734843430303  4.5155412597393827   T   T   T
 16.6991484174655724  2.4516954680327414  4.8660459235137115   T   T   T