Li P  S  Cl
 1.0000000000000000
    20.5609999999999999    0.0000000000000000    0.0000000000000013
     0.0000000000000033   20.5609999999999999    0.0000000000000013
     0.0000000000000000    0.0000000000000000   20.5609999999999999
 Li  P   S   Cl 
 191  32 160  32
Selective dynamics
Cartesian
  4.4416910520120148  0.7890280205391369  2.9947305737936532   T   T   T
  2.3512915951505922  9.0880796969620246  5.9554162252721596   T   T   T
  5.5056777196978386  8.3531858788517841  3.3746702993410351   T   T   T
  7.9769653862812859  0.3073315233840802  8.6524996617406327   T   T   T
  3.3991059701257615  6.1985692963629058  8.8224531183490029   T   T   T
 -2.8034371068472295 -4.9596914926885391  2.2765072604960190   T   T   T
  7.5707084678839047  3.1204871447570417  9.9423813081048316   T   T   T
 10.0987782113339861  7.1520051898202039  3.2824912404914963   T   T   T
  4.9260028312630268  2.7846089058288972  8.1630595006844029   T   T   T
  8.2715623209214595  8.2660347168831230  0.3160459396416584   T   T   T
  0.7586837214581522  4.0799680704280750  3.1640890166989037   T   T   T
  5.0116663552858087  8.2542589511360873  7.3170343087239953   T   T   T
  7.4669455563715506  5.2577590448600304  1.9009852185010048   T   T   T
  9.6185478334948940  2.8615187550915442  6.9321714238611571   T   T   T
  4.7500565098935095  3.8434115456664082  2.3783583716605716   T   T   T
  0.2446318024712973  8.1666387806163492  7.3744232787175479   T   T   T
  7.3789608141331700  4.7261265813202886  7.5215346610287677   T   T   T
  7.8266165151017839  6.7855950786779635  4.4515025991127573   T   T   T
  2.5423824436837972  9.5204303682516915  9.7115740486861526   T   T   T
  2.6555625484128309  3.1948117062401287  0.3985460733464171   T   T   T
  0.8621925876257435  0.7422117785832975  2.1591032051714167   T   T   T
  1.3677040595031382  5.4382755565146264  6.7794435022716941   T   T   T
  6.5698340683434520  2.1800301978106731  5.1820295564396348   T   T   T
  7.2507016615142748 10.6850909391767974  3.0114218086176860   T   T   T
  6.9626464105983406  0.2792677428936819 17.8269205841016749   T   T   T
  3.0457333394806319  4.7454690457170132 17.9916775617675242   T   T   T
  7.7076174433089033 10.3263373536141003 13.1072044181796450   T   T   T
  9.6595530765407904  3.4894969352027538 16.7667328247052261   T   T   T
  0.8199738494940101  6.4347846987968635 18.0390459443399962   T   T   T
  4.4641763429644570  1.1283122273416202 13.3199986720844805   T   T   T
  7.2731184602898882 -0.4230426160494854 13.9763942605147164   T   T   T
  8.6017334703779564  5.9093565699275139 13.2085121248155044   T   T   T
  6.7298046800737428  2.8803277027331360 19.8360780660954035   T   T   T
 10.0012594245210131  9.2811643763461529 13.0222009670922461   T   T   T
  2.1949103699560446 -0.1827683215984890 12.3226011704911311   T   T   T
  4.7633714995358858  8.6156943765626988 16.8901303006981607   T   T   T
  8.1465563560295031  8.3179626299867202 15.6161583091638327   T   T   T
  6.9209594124367841  4.8963302457593212 17.8223210925670408   T   T   T
  2.8176627984794598  2.9249512725080717 10.5843860853852050   T   T   T
  3.9966083825857077  7.0537836835439762 20.3314801321193208   T   T   T
  9.6667951449593641  2.0947003265088751 19.3041895057471713   T   T   T
  8.4595247055653360  8.4809206224609550 10.5881639997774872   T   T   T
  2.8599499838757505  6.8730239281055541 15.8576434099937682   T   T   T
  0.4749274873055176  2.5029159345131737 12.5983865827351007   T   T   T
  5.0377240667869776  3.9595482640419548 12.2942547862014955   T   T   T
  1.8602459373642186  9.6847149761793592 18.7360853398225267   T   T   T
  7.1264243006069963  1.8131655048804936 15.7523159976088856   T   T   T
  6.0234152331412245  7.3326197123461601 13.0062974659994897   T   T   T
 -0.9474257202846997  7.2505335784951335  4.3179281016514954   T   T   T
  3.2798129100427333 17.4222132655505959 10.6300940988623953   T   T   T
  9.9719498041864423 18.3154799324804500  1.9508235583828921   T   T   T
  6.4369790392764514 15.1541982928731063  8.4202125985521086   T   T   T
  1.9639224943260065 17.2448188872852377  5.1215620164962878   T   T   T
  0.8323456523849283 12.5002984581509171  0.2660400125759068   T   T   T
  9.8708660578077936 12.4564739025228235  8.1786480297277535   T   T   T
  8.3015581733707311 15.5920872995348070  2.9187316696631926   T   T   T
  8.3065841373164240 14.6474959207298046  6.4205042919933906   T   T   T
  3.0016713008991047 22.9258481107986043  4.9440168260626161   T   T   T
  3.2987952104590845 11.8482373449130787  4.4890926830580868   T   T   T
  2.2854439828548996 15.6010099350177871  7.2692212151261151   T   T   T
  5.3852982750236045 17.3178908738628294  2.2055340118527509   T   T   T
  5.2011386479824555 12.6024530794696172  7.6535539051941059   T   T   T
  2.1581200511805361 10.1112135718762417  1.4934471336998587   T   T   T
  1.2384178834382666 20.1395288051063694  8.3896498762705551   T   T   T
  7.4521482620016855 11.2627041512745762  6.1145702382459621   T   T   T
  7.9418323995269118 20.2887305671950777  2.1232521146281895   T   T   T
  3.9257153488358263 19.7555492545914611  6.9834674890979196   T   T   T
  3.9936320022225500 12.4438669444094856  1.0673989282311360   T   T   T
  0.1553152197547057 13.4328866048709124  3.4535029437393021   T   T   T
  0.1869871911604202 17.4818162558675674  7.4115734309623660   T   T   T
  7.7085723978090845 11.8062453225390360  9.9263744781246448   T   T   T
  7.5152517595437391 18.0632831008657249  5.1134766075199760   T   T   T
  4.3757833317101271 12.7375582448530835 15.0710933241535621   T   T   T
  2.3302578990838927 16.0429409912117436 19.7628898199963778   T   T   T
  2.3047463892725282 23.6085356787754144 15.2069682272565903   T   T   T
  7.6853007564563836 15.3338629134115898 18.8250755460707815   T   T   T
  4.7291171250182309 17.7003791458395092 20.0443559291455315   T   T   T
  4.2062336016967867 13.4505543127915494 11.5136419125555260   T   T   T
 10.6792242283525631 12.2389220265581145 18.9605792601230689   T   T   T
  7.5501295301273839 18.4340003693685830 10.6410637325878756   T   T   T
  8.4602594197163015 13.7031507794831864 16.2962820087300742   T   T   T
  8.8761278461120590 16.2041006988668492 12.7228407754143191   T   T   T
  1.0437354354112749 12.2671237876151906 11.3166923320316055   T   T   T
  2.6703279886532729 20.3476323361827411 18.6001657882790710   T   T   T
  9.8680121215447709 18.8196775715601952 11.9124394601677412   T   T   T
  7.2184871670265442 10.6974666093772210 17.5169927461382784   T   T   T
  0.7676837387012231 12.9829876155695647 14.7592173865481247   T   T   T
  4.4160647170954572 18.4147212810445531 16.3311213271587938   T   T   T
  5.4509020056485973 13.1563155768470761 18.7565837785159175   T   T   T
  5.9617465338895475 16.3909517119110220 12.6971596960022417   T   T   T
  2.3887245032682474 16.3512366206319868 16.9993143812387260   T   T   T
  3.0702293587580693 10.7596676236443702 13.7621692565352145   T   T   T
  2.2984143104159358 15.3510070130894984 13.9035155582297509   T   T   T
  0.4921614981136598 18.7449695848334947 19.1604463634215065   T   T   T
  8.0464593031029068 13.0147112470758621 20.6256654349404300   T   T   T
  8.0189381704596716 17.6007227572950633 15.4762458484875260   T   T   T
 10.2708279691749738  3.0224134085992360  3.2188625257962817   T   T   T
 14.7987497028783181  6.1393741902776169  7.7000718833502537   T   T   T
 17.1595173412082325  7.5302215104376238  0.4026151189131730   T   T   T
 16.0857671478756892  2.3874585329001046  6.3580961045099382   T   T   T
 11.3192768258153063  6.2046145977346612  7.3876303560599199   T   T   T
 12.9736065419848412  3.9750712310378846  0.4850402312646708   T   T   T
 19.7694145952161264  2.6243252135485506  5.7230428378262079   T   T   T
 17.4703183568893827  9.7985070391314864  2.2838336462233402   T   T   T
 16.1054644708562300  3.0827212157653912  9.1088208504886214   T   T   T
 16.6320707041862192  8.1360381171043858  4.5795884201550408   T   T   T
 12.4395400154060418  4.1678912434400415  4.4180948244325169   T   T   T
 11.3562555630929758  9.3577024522528927  8.5723968672280435   T   T   T
 20.1050658503003774  7.8547533634163287  0.8498004761813726   T   T   T
 17.9020185249794324  0.4634957050520617  7.9831799282409426   T   T   T
 14.6755466651481576  3.8640147296089071  2.2116623480715090   T   T   T
 13.7042326292217034  9.9913654651724997  7.7345089789628236   T   T   T
 18.4481462397330382  4.8593044217215517  6.4581668439579625   T   T   T
 13.5327891136477980  6.8732849280189257 10.0564761237908371   T   T   T
 12.4558205596961677  0.6546756634335700  3.4811004097499465   T   T   T
 12.1461365156586663  1.4176287389728524  0.4487224418254366   T   T   T
 13.6176705988086582  8.0315374918340332  5.3693001843954109   T   T   T
 20.1195349562007841  2.6882348042373767  8.5330353048905021   T   T   T
 17.9517252975908974  5.2030097591566786  2.3175430785294124   T   T   T
 10.6573115968753989  2.9864096193472234 12.7376337939389401   T   T   T
 15.3593887334237440  7.7227525925771685 16.3503307804852547   T   T   T
 18.5772079710297646  5.5022440856737438 13.4762559480371351   T   T   T
 18.9322009397590207  1.4273837499997826 20.3602697032406574   T   T   T
 11.4820672371249302  7.7183410396481653 16.1661045805482289   T   T   T
 12.5664886692529709  5.4431741722333360 12.8595478615086787   T   T   T
 20.0282717094053169  3.0578785252015432 17.2993954361725137   T   T   T
 21.2878076884628413  7.6581823230364829 12.7556393174817337   T   T   T
 18.0613675212380365  4.6461493307536106 18.7384013152874829   T   T   T
 18.9636997272262917 10.1177921700177418 12.6151099955118600   T   T   T
 13.2122500466408876  2.5473937258354438 14.9350629401077395   T   T   T
 12.9137123224193466  9.7877497872165939 16.8056341987147455   T   T   T
 18.8607893409776430  7.5483108789196143 15.2079636163414271   T   T   T
 17.1549400846907965  1.9355425493473024 15.9808527553484634   T   T   T
 15.4324491202223495  2.4791045365983893 12.7681491232743429   T   T   T
 12.3586362410507036  8.1288744110845172 20.1655030709905319   T   T   T
 15.6670492652745335  2.8447165035728155 18.9929079687001767   T   T   T
 16.1414665984920482  8.7652581482316645 13.3818401164744731   T   T   T
 14.5433041563719883  6.8939624357978806 19.5777465810387312   T   T   T
 13.2042591797108066  0.8305757459222877 12.8306990985378633   T   T   T
 13.9438151484464985  2.5985241564817034 10.3941703563557883   T   T   T
 12.3450497375685639  5.4701231704934434 17.2314587153710370   T   T   T
 18.0538592943465410 -0.2472784838698762 18.2209018448862565   T   T   T
 18.0396072264151783  6.9814098711778492 10.9052047219746857   T   T   T
 15.4425649713593920 11.6177948475682857  2.4645588354392376   T   T   T
 12.3740577338121192 20.8060828643613718  8.3968251714537736   T   T   T
 18.6706037006568835 17.4043381039214395  4.5310928001615371   T   T   T
 17.2444384409099882 11.6451924221578231  5.3207621054792353   T   T   T
 15.2479688611384532 19.5811203617137295  7.0459810894392430   T   T   T
 13.6683979307261758 14.9643571041791166  1.5502986246422188   T   T   T
 20.2888784887514753 13.2283427470423938  7.1114811331225747   T   T   T
 15.5234500147392094 18.5529858640763337  2.9054240028866403   T   T   T
 15.7670758657348191 13.0074157766567495  8.3497826707305656   T   T   T
 23.4957171466394605 14.5922662601816580  2.5072037202063862   T   T   T
 10.9284147300119070 12.0359901745702480  2.2188897074938385   T   T   T
 14.4480501096021019 16.2878667448053420  7.4934690031596070   T   T   T
 19.7833745407572117 18.5117685300402073  1.6672932549259509   T   T   T
 18.2108579472970469 14.6982121335256455  6.9080138113725855   T   T   T
 13.0645681283464405 12.4909277017223364  0.2980615026745304   T   T   T
 10.5518574130748153 18.4658676339535646  8.3102417096976566   T   T   T
 17.9852513745335223 14.1469142642673269  9.3840855091453523   T   T   T
 17.2586958692918131 20.5741010279591592  3.0958453877276351   T   T   T
 12.3760291164748253 17.7198778888550308  5.1266108681445681   T   T   T
 13.0473295206986162 11.4112055043912513  4.7247176117932561   T   T   T
 12.6792191685952318 14.3095414381676154  4.4543356480731529   T   T   T
 11.8638816458990703 15.7251438367893890  7.0884575215434671   T   T   T
 18.6097653130039582 10.9310920957737991  9.3790912587152970   T   T   T
 16.9921544065813457 17.8335014278869366  0.5365431661481449   T   T   T
 12.4899321350514683 10.8823330204396242 11.2365624991162907   T   T   T
 12.7573208736113042 18.3777425425698837 20.0609274302464762   T   T   T
 19.6577759884174981 17.6326868985371874 14.3220211978021243   T   T   T
 15.3325289872401154 12.1300938092660076 17.2984193285895458   T   T   T
 14.0218363827546444 16.0882531589978868 18.1512839475334964   T   T   T
 13.3388944798386699 15.3041171299462313  9.8146765413336841   T   T   T
 19.7663615074920678 12.6466580975376566 18.0588409952495148   T   T   T
 17.2003502107948165 17.5634056917769605 10.5330202279450180   T   T   T
 17.1404304930707312 13.5218636333056619 19.5512831222287353   T   T   T
 15.5487386176076594 19.0768068939017468 12.9799303264471870   T   T   T
 13.1589109291521478 12.5225576165823753 14.5585210118668922   T   T   T
 13.5207256206164566 20.0035825158387262 17.3947165999019440   T   T   T
 19.9530810770128824 18.7374710532547333 11.5677800395096249   T   T   T
 18.2777803197607653 15.5655145702705919 17.5535042608282943   T   T   T
 10.9830614925054899 13.4757241186501773 12.0331696405840134   T   T   T
 12.4849845411185765 18.0072383945107681 15.2412390551992249   T   T   T
 17.9046547934866922 12.6463505162770886 15.0719815372560522   T   T   T
 17.7140274783502178 19.6791595596565649 14.0445471794898396   T   T   T
 10.4964201507121082 16.7167523893438315 17.3925781153876819   T   T   T
 12.9150292736704895 14.9789722526512161 13.3629861164379093   T   T   T
 15.2149339845375184 13.3611574078817039 11.7766281761714549   T   T   T
 10.3478980319880485 19.1707988845289030 18.9886909450547385   T   T   T
 17.8192862154794831 10.0809391028367603 17.5395835188711153   T   T   T
 18.2577431073554699 15.6171969506479513 13.0606229108350806   T   T   T
  0.0767034806859500 -0.0977913781650109  4.9566512600424026   T   T   T
  4.8714010413950692  0.1525945884948846  0.1686926406400702   T   T   T
  0.1324059798891914  5.0481684973920880  0.0802024218328035   T   T   T
  4.8179915943775482  5.5903353846672026  5.1032997847949924   T   T   T
  0.0359940152328311  0.1081716362916543 15.5812024427951172   T   T   T
  5.0767742039843888  0.0885041389751819 10.0371712125935861   T   T   T
  0.0893766547969437  5.2124229179214874 10.4433444762652385   T   T   T
  5.7722283249785837  5.2444300973332627 15.1125862119325785   T   T   T
 -0.3629538067338209 10.2769995779032808  4.8699789437789471   T   T   T
  5.2863993649075560 10.1611153069318032  0.0494135148973971   T   T   T
 -0.7173240366797483 15.3608530686465166 -0.0567782159956365   T   T   T
  5.2820103833980534 15.2950791491217633  5.2442490204166567   T   T   T
  0.1844703779297094 10.1769301140337536 15.9161372235537133   T   T   T
  5.2729668840821908 10.4599618819172715 10.7518477391237486   T   T   T
 -0.0606317594056411 15.3749099164080434 10.3810992973992118   T   T   T
  5.2709015551176979 15.4972809697860594 15.9590229113732160   T   T   T
  9.9884756094865086 -0.1013122005521467  5.2266001687536470   T   T   T
 15.0135112812539298  0.0606207750970622 -0.1775875681723395   T   T   T
 10.1492367680891906  5.2067979414898753 -0.3442184032201032   T   T   T
 15.5051536522979045  5.0369138353660894  5.0659595839373086   T   T   T
 10.1873805507369024  0.3362792337926596 15.3665159497083401   T   T   T
 15.3816562564843551  0.0012178062710134  9.8825463882751912   T   T   T
 10.3482331030056027  5.1592714595137101 10.0327616809881839   T   T   T
 15.7118319751401376  5.0540164460652646 15.3568745986592194   T   T   T
 10.4439358247544192 10.2967591064851334  5.4993637399580590   T   T   T
 15.5573732155464501  9.9552408705721120 -0.4749944082665976   T   T   T
 10.6579547867249449 15.5993160904418797  0.1335880199538551   T   T   T
 15.6859583957800197 15.2679312389084139  5.0004039745642475   T   T   T
 10.3327255565958414 10.7948374214220042 15.6680380389909200   T   T   T
 15.5869970739959012  9.8198581341142610 10.5415357610899623   T   T   T
  9.8454363715423252 15.3631748946222313 10.0754121597620987   T   T   T
 15.2756411311517244 15.5932862662297307 15.0765008545411536   T   T   T
  0.9022347928362113  1.1880666028259594  6.3336675987211786   T   T   T
  0.7184847306362623  8.9556623383938643  3.8268073624263907   T   T   T
  9.0811141824020005  9.2138651420006088  6.6636442042061859   T   T   T
  8.8310990570778483  1.0038343042332813  3.9669838911991779   T   T   T
  6.0583587127925487  1.4742031028040352  1.3330721164812862   T   T   T
  3.6676971927047943  1.1876019664475805  9.1440649978670567   T   T   T
  6.4943328390960291  9.4312992058295713  9.4214351880098537   T   T   T
  4.1635814554478312  8.9954852889175445  1.1885067644167602   T   T   T
  1.3508770437411026  6.1562747553497061  1.3559270099025043   T   T   T
  9.0728173956791078  3.9900989005673719  0.8021104099765749   T   T   T
  8.9204916283215603  6.2044532748025309  8.7731312764977041   T   T   T
  1.3196688944952841  4.0830262141485223  8.9576706522447047   T   T   T
  6.1964817469256666  6.5271155225309707  6.3090686770525819   T   T   T
  6.2299251606062267  4.3018117935650526  3.9372568709017361   T   T   T
  3.8565595953171306  4.2634934661891908  6.4142305599981544   T   T   T
  3.6419988395735827  6.6195302211682057  4.0992462966021046   T   T   T
  2.5652288918497361  2.6009354997477256  2.7678278755011188   T   T   T
  2.4517481234172007  7.9331526118349842  7.8771062467235735   T   T   T
  7.8442152247660859  7.8686493604650440  2.5076686808625217   T   T   T
  7.4646736863697001  2.6518927290992451  7.5031155244254624   T   T   T
  1.1546084304302440  1.1123725643840636 16.9397738768392827   T   T   T
  1.7036427508842875  9.0081491356020340 14.7834294852503429   T   T   T
  9.2163792929237900  9.5772975675840666 17.0440913523363875   T   T   T
  9.0269446405106564  1.7676234802260069 14.3203262485393168   T   T   T
  6.4334196751842105  1.1492869313903471 11.0752881389087765   T   T   T
  4.2037308691405544  1.3514084476224630 19.3210135948690329   T   T   T
  6.4853077209372367  8.9292017530181518 19.3828772225718247   T   T   T
  4.1901724796297266  9.1471854120543625 11.7375558867674776   T   T   T
  1.4700960038752053  5.6475598784619256 12.0487972093198525   T   T   T
  9.1109302277325348  4.2346165376548131 11.4337515700827659   T   T   T
  8.8973638820955170  6.4389736934503725 19.1953298690885852   T   T   T
  1.1267153655782427  3.8523722387929307 19.1022910381352524   T   T   T
  6.9628151772028453  6.5154886365840303 16.1824480386450347   T   T   T
  7.0261004484528682  4.2399071739443821 13.8655146439737305   T   T   T
  4.6661870002861381  3.8687863670095823 16.4074391983138383   T   T   T
  4.3776111280897325  6.1730059477765646 14.0699415736039963   T   T   T
  2.8108421513705677  2.4504294464202059 12.7747797966422532   T   T   T
  3.0080272488634310  7.2098045781522817 18.0376268052374193   T   T   T
  8.1604745291969767  8.2834175635286584 12.9876235332388728   T   T   T
  7.6682387379103032  2.6416161408872698 17.8851055800403493   T   T   T
  0.9530739049574709 11.4030895163815327  5.8336031439564717   T   T   T
  1.0524611744541272 19.2139374509674674  3.7092123536931383   T   T   T
  8.8141304162366740 19.3092053503274457  6.3355450010954604   T   T   T
  9.4146881801963502 11.5732572800734008  4.1305265098543282   T   T   T
  6.3355460173972329 11.5096142707357618  1.0781309857457182   T   T   T
  4.0464315475145591 11.3139338204848627  9.2412772315612735   T   T   T
  6.0195804411914127 19.3219528945465413  8.8073638782235832   T   T   T
  3.7277972194992448 19.5590463693830010  1.4167223721313906   T   T   T
  0.5420931023055028 16.1695950657222554  1.4782871236349644   T   T   T
  9.6417136650001041 14.3230857850757296  1.4774182292797826   T   T   T
  8.5796277979684792 16.5354794853701108  8.9086802137848675   T   T   T
  1.0492138451445041 14.2988355776126710  9.2295317560707701   T   T   T
  6.2616510546536057 16.4131015426780422  6.6006541170501105   T   T   T
  6.1454290525443174 13.9384728540672764  4.1155397936057083   T   T   T
  3.8726730945810979 14.2416776327230856  6.4220107188668596   T   T   T
  3.9276321066494377 16.3848998422663641  3.9185256279689460   T   T   T
  2.0503423709810957 12.3984428295561138  2.1178145655009688   T   T   T
  2.4485616959278405 17.8709022832446109  7.7178052383188449   T   T   T
  7.5095330608811528 17.9073849496735846  2.7725884196504480   T   T   T
  7.3810690927327931 12.8139683909706310  7.6824805169195187   T   T   T
  1.1556593084095546 11.5264344872390829 17.1786571019687599   T   T   T
  1.1489790484525724 19.6000070266861535 14.3970068817864636   T   T   T
  8.8903983705737062 19.5563070874064628 16.5279308929755651   T   T   T
  9.3591061029509532 11.8209146659868125 14.1722053686106069   T   T   T
  6.1537501107970893 11.8174115708489840 11.8542471046894526   T   T   T
  4.0403280391428273 11.1745335327318749 19.3183754394205351   T   T   T
  6.3084464598033847 19.5686404620656731 19.7366250191163530   T   T   T
  4.0278102201066286 19.4006349724246299 11.6122776867958457   T   T   T
  0.9980833668774056 16.6185354615274754 11.8077933866242901   T   T   T
  8.5802042106313312 14.2642630195946829 11.3824550711625303   T   T   T
  9.3832731904302360 17.0394387956978335 19.8728996327906096   T   T   T
  0.4896134235517455 14.2976398801511984 19.1385829156796810   T   T   T
  6.3735729763217348 16.6291986979326047 17.3106652780800090   T   T   T
  6.3653942878795187 14.5053258613467460 14.7035020421319658   T   T   T
  4.0719660065583891 14.2908250345592744 16.9493192649422006   T   T   T
  4.0156781512974646 16.7820400403150671 14.8973953334278892   T   T   T
  2.7473739930403602 13.0702178681551029 13.3009964634676603   T   T   T
  2.5674016920787897 18.0122187910751030 18.5515083291268219   T   T   T
  7.6185250765601635 18.1203466439638667 12.9447531282962025   T   T   T
  7.9392384778564811 12.9366188703234410 18.2863819727102275   T   T   T
 11.3092658443700991  1.1918334831154942  6.2366363965480032   T   T   T
 11.7008227815945709  9.3240867477464455  4.3047511608955551   T   T   T
 18.8451075145201585  9.2976880667608874  6.0271565324198599   T   T   T
 19.3857411856475998  1.2597959752294192  3.9806150188377045   T   T   T
 16.5485755173871425  0.9793498575618153  0.9519467175527306   T   T   T
 14.5632069152379540  1.2083703725155581  8.3961035599100189   T   T   T
 16.5073235092048165  8.6953527531889740  9.1446036593256714   T   T   T
 14.5694125323828256  8.6351120959249474  0.7214006485651995   T   T   T
 11.4771801369726507  6.2442635124546388  0.9607786193408873   T   T   T
 19.6710282803215968  3.6165080899278359  1.0937136358031476   T   T   T
 19.6024505791442607  6.3849358351929864  9.0691253992428447   T   T   T
 11.4070436627184488  3.8843317223823211  8.9500896208523315   T   T   T
 16.7994185589904852  6.3623767651802510  5.9548843883989573   T   T   T
 16.6319538458054765  3.6392083538108677  3.8419656919510188   T   T   T
 14.3904592360423447  3.7854950866157644  6.2260032331749127   T   T   T
 14.1165073780371237  6.0380895093222051  3.9099683550204714   T   T   T
 12.5267989634572068  2.7499807682680055  2.5187177887552288   T   T   T
 12.9674726036250565  7.6717799064967949  7.6074618147449478   T   T   T
 18.1865829339281611  7.6784727753845790  2.4329228663001605   T   T   T
 17.9964312497104508  2.9108847132869444  7.6496964313144336   T   T   T
 11.5620109256350858  1.4646778537383522 16.4630126808558757   T   T   T
 11.7238865103581933  9.5180913977701920 14.7160592289744105   T   T   T
 19.8164514504168814  8.6982909508335933 16.8348700727224667   T   T   T
 19.3030037440435791  1.6621218047523993 14.8580809357414800   T   T   T
 16.5457395916491485  1.3461157055296786 10.8343103378523544   T   T   T
 13.8977741429114872  1.2500266492836134 19.1455328767775264   T   T   T
 16.5537915779804159  8.5234599715377328 18.8442693493874138   T   T   T
 14.3013892871310286  8.9443036418392037 11.8725719529793849   T   T   T
 11.3517350086830771  6.5229176445531820 11.1418153945821796   T   T   T
 19.3698830805357254  3.9348420484870354 11.2782353442100227   T   T   T
 19.4775928360521569  6.4480199232912474 19.6045842969018267   T   T   T
 11.2309387856914960  3.9627429766299112 18.8000306357299323   T   T   T
 17.2131879648676183  6.1495693270458807 16.5818490131773046   T   T   T
 16.7457619536935951  3.8337968585897824 14.0482367138318001   T   T   T
 14.8455943723453938  3.7293504218583773 16.5603751444809255   T   T   T
 14.6520444843728228  6.4751077032286757 14.2416119788137898   T   T   T
 13.1480575161647106  3.0662646750999203 12.4892068703624055   T   T   T
 13.0605925647304506  7.4276042038923418 17.8936826751899041   T   T   T
 18.4544755741002042  7.7495201256581048 12.8346607251806031   T   T   T
 18.0054312999060677  2.3507894794374145 18.1245624308367574   T   T   T
 11.4920677863086169 11.3635927567081829  7.0258827419102996   T   T   T
 11.2846519526926734 19.2385854890466845  4.0794500465933101   T   T   T
 19.6565878587379999 19.2357474812054718  6.3226018616571125   T   T   T
 19.0688146395928548 11.4649348613622273  3.5570385874583428   T   T   T
 17.0180678516538464 11.1504430795455711  0.5055677768166836   T   T   T
 14.3267887077517546 11.2221487865048832  9.7683270925085566   T   T   T
 16.5614725382763659 19.2036661150096180  8.7530671129376074   T   T   T
 13.5789000220084564 19.7318337152001568  1.4276664250904481   T   T   T
 11.9174282171596868 16.6319356224560728  1.2329546417652733   T   T   T
 18.7631356964241434 14.0404799906172819  0.8566439133994420   T   T   T
 19.0913024787800367 16.5887220097945480  9.3383662733092958   T   T   T
 11.2554152650173549 14.1727222315818278  9.2018436313149703   T   T   T
 16.6782005134354172 16.6446484699822328  6.1888707710808140   T   T   T
 17.0277796588088997 13.9813296788161914  4.0472206537652156   T   T   T
 14.4286881943738656 14.0062980311372289  6.1873562768052137   T   T   T
 14.0796609586558308 16.3233151115064636  3.8071202601944871   T   T   T
 13.1809569276955134 12.7577699448090005  2.7893349226699780   T   T   T
 12.7318890199453900 17.8383247449830549  7.5714636262440740   T   T   T
 17.5567927129903261 17.9761939168060607  2.5286196932839511   T   T   T
 18.0004748744436860 12.8329945635021687  7.8048309205384800   T   T   T
 11.3171667301141614 12.3618684131707255 16.4707121591628614   T   T   T
 11.1937158481544810 19.7455007668439961 13.9256766072515727   T   T   T
 19.5504162761834692 19.2181566393120278 16.5949189373553487   T   T   T
 19.6775485485535206 11.3154900441244806 14.6048234259753063   T   T   T
 16.9131077154534140 11.0674438672236715 11.7990541252069789   T   T   T
 14.3809405233815912 11.3689649917315698 19.2132389018568155   T   T   T
 16.0573260904759998 19.0458310896808349 19.4298019716263255   T   T   T
 13.8696084687993544 19.8103348511074735 11.1763166743938349   T   T   T
 10.9908999948378590 16.6123999219287022 11.2286493266009320   T   T   T
 19.3139250660325992 13.9256424683445790 11.4631940461980193   T   T   T
 18.9723667934546754 16.8706066733855558 19.6512678540090882   T   T   T
 11.8078760063789030 14.3160209064394426 19.5486641756703676   T   T   T
 16.5219658826694200 16.7263457689587263 16.4026488063110669   T   T   T
 16.4757813493355521 14.4608588062525101 13.8467887712049578   T   T   T
 14.0144454486616752 14.4177021766258413 16.1609330996540379   T   T   T
 14.2095010402775177 16.8731465164230485 13.8802664623126493   T   T   T
 12.9741173909101484 12.9085316554143148 12.4778058134625507   T   T   T
 12.3613485694181104 17.9927409017394986 17.7119899372832599   T   T   T
 17.8034725841549673 17.9792316704835997 12.7443690971638812   T   T   T
 17.5214350871340798 12.5203215339396152 17.5853627782687170   T   T   T
 -0.1493279358978206 -0.0766349708248428  0.0501726358908018   T   T   T
  5.3975186488718130  4.7072098495473131  0.0170946424245948   T   T   T
  4.6658043158081250  0.3395626611810909  5.0923178232493802   T   T   T
 -0.1651993915618694  4.8450903062279798  5.2344581657341056   T   T   T
 -0.4674094940393050  0.1224135216868559 10.2629830262449726   T   T   T
  4.9653345394825186  4.6526882587879665 10.1333889194371860   T   T   T
  5.3034602303404572  0.2756851687667902 15.3453532799653125   T   T   T
  0.9070356700754409  5.1619967622045779 15.6826193224757979   T   T   T
  0.3781376207442434 10.0200046670139233  0.0703362594976896   T   T   T
  4.2144271952283505 15.7315244400612766  0.6055273799323529   T   T   T
  5.0181335142513577 10.0945557369816719  5.2233147067215970   T   T   T
 -0.0168134678983634 15.1737090758197990  5.4529584988605873   T   T   T
  0.3626439013658912 10.3456919208386466 10.3549324064934662   T   T   T
  5.0519565984566981 15.6430018619009630 10.8195544657246447   T   T   T
  5.3120330053908411 10.7032154327865108 15.7814315390543367   T   T   T
  0.4656995648292545 15.4858866037571765 15.5433988340210423   T   T   T
 10.0168816911048957  0.0080312296570799  0.1623980001560847   T   T   T
 15.3363021416410827  4.7248529554152965  0.0829038417010248   T   T   T
 15.8472650803441582 -0.1316955715237169  5.0064106830042174   T   T   T
 10.0380654275779957  5.1815178665167672  4.9006200992991706   T   T   T
 10.0091058847015990 -0.6115878814793712 10.0108309547023637   T   T   T
 15.1935187432255354  5.0290330384705095  9.7411099280965985   T   T   T
 15.7429270586878260  0.0517505920422262 14.8257520841939705   T   T   T