Li P  S  Cl
 1.0000000000000000
    25.1819793006824639    0.0000000000000000    0.0000000000000015
    -0.0000000000000009   14.5388225279766061    0.0000000000000009
     0.0000000000000000    0.0000000000000000   37.2126966544236950
 Li  P   S   Cl 
 286  48 240  48
Selective dynamics
Cartesian
 10.0115785473614896 -1.1231050177611996 18.6583141563278687   T   T   T
 15.7890539924175748  7.8273944969963258  8.0055980222803651   T   T   T
 21.2263366734118577 -2.5310655046357748  7.4354812264853933   T   T   T
  4.6681304045370808 19.5079463745668953 15.0258365461837631   T   T   T
 10.8477709669220932  0.8801128205982521  5.2600776708979353   T   T   T
 22.8638855806184438 13.4232645528727375  1.4057074348984613   T   T   T
  1.2598762795772389  2.0558830887311763  7.5388421835291757   T   T   T
 14.3985867686792606 10.4054287862288604  5.8122490635927289   T   T   T
 13.1883159180594554  2.5146274023643325 13.3054005106145325   T   T   T
  3.7597250559859199 15.3947053505041787 19.6393222005057275   T   T   T
 11.7042871788094445  4.0120458750398775  2.9724415307985628   T   T   T
 13.2595060115779138 15.0415333959652919 -1.0602917528166127   T   T   T
  6.1774614635280640  3.4852037701431229 10.5722247066245210   T   T   T
 12.9679442334478399 12.1639003677717916 14.0808190886784210   T   T   T
 18.5414994393354178  6.9230935015652344 17.4656388236480424   T   T   T
  3.4395102049330366 13.2175827703731521 13.3607068007725562   T   T   T
 16.7556392804600520  8.9216346598457328  0.4411064850249549   T   T   T
 21.4684840157379710 16.3843893891591890  8.1278232459536017   T   T   T
  5.3750362136249423  3.8150731520635794  6.7360407274714857   T   T   T
 13.4537559542310152 10.1441065994597821  8.8748858342660881   T   T   T
 22.1992675066326370  3.3927282640601546 11.9463963773984627   T   T   T
  9.3163829761250909 11.4706735058987483 12.9387044167014551   T   T   T
  3.4252037908727835  2.8430771334212688 -0.0393192066266648   T   T   T
 22.6640462472387014 16.2838526460146511  3.6496298794729909   T   T   T
  4.2626205074972416  1.7377049643522284  8.6293722736070997   T   T   T
 11.7030822421993452  9.2416921232823732 13.0261961545666640   T   T   T
 26.8729663033495356  0.0038809827411712 10.8567025646464863   T   T   T
 10.2214413703311244 13.1325508427735578 15.5837937003553577   T   T   T
 14.3691799098066646  4.1978336986508902  0.5492965950674297   T   T   T
 28.5340344368707548  7.7004800240274109 -0.0539426236642764   T   T   T
  1.8784416352722013  4.7260399853126591  5.5339127988344599   T   T   T
 17.0446665807249644 11.3869887770022054  9.3469127559302070   T   T   T
 18.0185731664123949  2.0006929308401933 14.6155639493320386   T   T   T
 -0.4157394314562731  7.4725476611891040 10.7535561098627248   T   T   T
  9.4927278603859389  7.7443820582607934 -2.7805391589438209   T   T   T
 26.7161872137004863 10.4081424129108200  1.3388264850608469   T   T   T
 28.4693369368378981  9.6959282114843575 21.0978376402499066   T   T   T
 10.4890164743548109  6.0109837544375484 14.6248027316338263   T   T   T
 12.3735191616901883  5.2918454335020355 12.3078798187428120   T   T   T
  7.2872891750173858  4.5280858515079059 -0.2395070687620682   T   T   T
  7.6129976905856100 14.3040232902488853  8.4159650493860276   T   T   T
 19.8894177542503598  7.4709576181341335  8.6428433650704282   T   T   T
 25.9371685057330765 -2.9055455860986661 13.9038014454092256   T   T   T
 15.7619312618498650  5.1345979290038128 15.0428602675600658   T   T   T
 15.8949552213217054  4.1873878807417508 -1.8955862696551293   T   T   T
  8.0620187281141291  5.6524144186782301  2.7458290569465786   T   T   T
  9.8092222947308247 -9.4019654890232935  8.9133292475071730   T   T   T
 21.0824923145513381  5.2755108185733688  5.8284310035152229   T   T   T
 -1.1317244866784864 -0.2752658422020805 13.1353366286586297   T   T   T
 14.2395538660397456  8.8910812458496693 20.4221800798029527   T   T   T
 17.8001942741191783  2.8450331971370977  0.1022344017272512   T   T   T
  3.6115829181432622  6.1889687522080505  2.3303738452805125   T   T   T
  6.4337233535759815 -4.9364455183851721 11.1825200634815101   T   T   T
 22.3278686073394468  9.0942998463705962  8.6228960807815991   T   T   T
  5.0107114910618646  1.5555077869923488 14.9753667037077207   T   T   T
  9.2794949520896708  8.8633313212526303 16.1252831385714366   T   T   T
 15.8731662390704571  1.2217315584991557 -3.1747216022360276   T   T   T
 11.3730100172872799  7.1438391294327914  6.5043764011454828   T   T   T
 10.7682857736840667  1.9950631257133031 13.0881554589352014   T   T   T
 29.9613139293178676  9.0695248934741706  8.7730903932755471   T   T   T
 -1.1077324742875367  5.9282520623795323 13.9165271801680390   T   T   T
 20.9175568313141866  2.6460467946480670 15.4236818451960502   T   T   T
 15.5128978411270779 11.4561687866813386  0.4531582033744386   T   T   T
  1.0362924620925877  3.5901492803995025 -0.7663365989332505   T   T   T
 10.7946978265880595 12.9045575628991713  8.3398121172679627   T   T   T
 18.7204899675916110  2.0847234297152801 11.2242980092197477   T   T   T
 30.0083985533780151  9.6016404588449475 15.7937433588905272   T   T   T
 14.8175312241522832  9.2070659192463289 15.5825894522838713   T   T   T
 14.4811338610704876 -2.3325167320176812 -2.6991521450015199   T   T   T
  6.3222743981815297  9.4078928286296666  0.0671659511096553   T   T   T
  3.9254990942684587 -2.6978200152671565  9.0445720948075827   T   T   T
 24.1274991838397384  7.3078094780374006  6.1460793985453330   T   T   T
  0.8509730455732136 11.5041516850113013  8.9443201744746972   T   T   T
 14.2690075261986635  2.2369834749175856  8.9318138085964645   T   T   T
 18.9084602817651302  2.0701404846070188 18.7694984365102435   T   T   T
 -0.4739647807938429  3.1813970204801869 16.5887747079542009   T   T   T
  7.6790992723634393 11.8281441588304936 -2.8377608986897660   T   T   T
 21.6061595681367891 -2.5631804629966171 -2.7716547323421481   T   T   T
 -7.5946653558094610 10.9197240961260107  6.7050542301840732   T   T   T
 14.8003008918495773  1.7007140732836854  6.0016640584195029   T   T   T
 13.8452446614766753 11.0964003031315812 18.4933338003838834   T   T   T
  3.3279871657729743  5.1190556265829557  8.5952425153771852   T   T   T
 10.5644345195883513 12.1593040904683143  3.1786449699693331   T   T   T
 22.8018897060996295  4.1320624775204324 -8.6688565747332778   T   T   T
  1.9420759044247402 12.4647253310372790  6.4514507678351229   T   T   T
 15.1257746366641541  4.7571199589280528  5.2364695356791380   T   T   T
 22.0566111452466060 10.1140492421050610 13.6236153994586129   T   T   T
  9.7014393773864960  4.6474850734856430 18.4777475629844581   T   T   T
  8.4356356809905861 14.0520508878470416  5.2213754270839772   T   T   T
 25.4481513984626204  3.4907567486265041  2.6122365784043113   T   T   T
  5.1838157723270433 10.6644063797939062  6.1727486420268072   T   T   T
 17.7019271659709858 -0.5718784913171774 12.1511606510759407   T   T   T
 18.2530204549849344 10.8765026470471540 19.0313697704067053   T   T   T
  6.6888916888699814  8.4653223742234012 14.0097653248225544   T   T   T
 12.4827035399171073  9.6418002332799979  2.6057121105656886   T   T   T
 22.0732393746362732  3.9855817808116316 -3.0045983369107550   T   T   T
  2.0660093321839392  8.7161057362067176  9.3111727066156043   T   T   T
 13.7468517425533072  4.9577352997835860  8.0290776161896886   T   T   T
 14.6675736178712963  7.1352943489117511 11.2256134906146148   T   T   T
  6.4457266507776110 -1.8419987514955889 16.1268425098238311   T   T   T
 10.1008324926749946  9.2455958070878630 -0.2815921527584954   T   T   T
 20.4598492926808717  0.6782477777818107  5.1167978340779667   T   T   T
  2.3556583013712440  9.3451968799872418  5.2404674631975885   T   T   T
 17.7284098750137531  2.0422649801413533  7.4009936047040670   T   T   T
 19.6268726905674598  9.7891751001813994 11.6021831538533231   T   T   T
 13.4501688651419649 13.1022652946738667 10.7322981952115075   T   T   T
  8.4878500990637562 16.8042989561752556  6.6162591255269216   T   T   T
 22.8649366066440933  9.9539181013283837  0.3696336336314965   T   T   T
 22.5945755075571242 13.3457401846261767  5.1836398522347116   T   T   T
  7.7360963367371038  7.8899991557341416  9.0667420486376269   T   T   T
 13.0813205394694325 15.4901059536294419 20.8359877740831543   T   T   T
 26.3705401963057469  5.1319970159811579 11.1485731689517973   T   T   T
  5.1738342998452849 11.4122964845872090  3.0300416744316490   T   T   T
 17.0715933203316510  4.5042676422408627  8.7668541790423511   T   T   T
 14.8039751023115276 -1.5901688120924158  7.6543653977304231   T   T   T
 12.8479192864248137  7.4270933358445328 16.9556117117582978   T   T   T
 25.9793315414732504 16.4505227319777489 13.1766745949529085   T   T   T
  3.9131587573296267  2.2232221068716580  4.9930949451394522   T   T   T
 17.4437151967675703  8.8484803065013367  3.0607134252189265   T   T   T
 32.7130742369057330 -0.9375685749115685 13.8556707477533969   T   T   T
  8.3660918636199373 16.0056237277030249 15.5216583159538626   T   T   T
 17.5788883815117671 -4.0863748437675707 14.1340347988146071   T   T   T
 -5.2118970604241586  7.5733802721728507 13.4581337471723170   T   T   T
  7.3348856361159784 -1.2616579468432245  1.7238726880217312   T   T   T
 20.8565533623004669  8.7642595937790446  5.9153125087348881   T   T   T
 24.0878814245839337 -0.3863466493070967  7.4581025658060929   T   T   T
  8.0124888331444524  5.5414995739710635  6.5305612924992698   T   T   T
 15.4418761184222575 -1.0075474303618928 14.4250640077747754   T   T   T
  3.2968785954865658  7.2692364633443978 12.4480851422698908   T   T   T
  5.5325793690308469  4.0724853401533672  1.5690509920003992   T   T   T
 18.6878227119124389 14.0137135212386887 -0.9264261094324389   T   T   T
 20.3470867704050207 12.4715838053760066 14.4881134792104032   T   T   T
 10.9817474028629611  7.6318902592933489  9.3571295703422432   T   T   T
  7.1472846603862408 15.2282776956885471 18.2459522761465429   T   T   T
  1.2047996423770868  2.9536356557936028 21.8823897399812743   T   T   T
 10.9084359640329822 15.6971406135193305  8.7950986031764931   T   T   T
 22.9948829539072435  5.5648579030200152  8.5777670259947243   T   T   T
 19.7377325627649256 -0.0324506119072307  8.7902252810409482   T   T   T
  9.0266649219206325  9.2080977993302646  7.2624653039675477   T   T   T
 12.5987801286418861  3.2759914358199058 17.2374795534400711   T   T   T
 25.9501317679400572  8.9735101261317460 13.7134742242566396   T   T   T
  3.7542247553101404  0.0278689769183178  2.8260244270696617   T   T   T
 24.3387666369455715  9.3298096669822002  2.6002262188312386   T   T   T
  5.1971158274759217  1.8245137332643087 30.9304478932853080   T   T   T
 17.4033856913469833  9.3132061034156166 31.0291793287593691   T   T   T
 19.6242990141524842 -4.7858504633667271 21.3766268113075242   T   T   T
 10.0525546528781238  9.7896946710686379 22.2594763166604253   T   T   T
 12.9900242892720925  3.2636008323038124 35.2727827178632580   T   T   T
  4.9589790953708928  5.6268325719142167 31.5209895208021358   T   T   T
  5.2064799618176663 12.6514974921558441 28.3323997715146731   T   T   T
 20.6446559755968337  5.8912171194505509 24.4972031712090903   T   T   T
 25.5888400137294809 13.8557000329673805 23.5961731934506638   T   T   T
 10.8361038063830737  6.3411438688990467 22.2181145199117793   T   T   T
 17.3040193196111005 16.4977806157029647 40.2729650940780886   T   T   T
  0.6333098911517063  9.4307697071476255 33.8123306217335582   T   T   T
  3.8495804529430808 15.3209245238083192 28.4580190537012570   T   T   T
 20.7539077944992840  7.6630832108799849 31.4353035394575606   T   T   T
 23.0027932731088001 15.5203770528189970 21.6674819268870174   T   T   T
  8.9537996528014645  9.9229804294638235 24.6941410114171411   T   T   T
 12.7498857886339483 13.0166665637217847 28.0639582801459433   T   T   T
  3.3402872366590364 -0.4123137766701691 37.0716748162873202   T   T   T
 16.1257103774642871 -0.5754798395577977 18.4769047406817997   T   T   T
 18.0081198648698333  6.2837836162811938 31.9348039536211523   T   T   T
 22.5697696940241244 17.5188407297284492 24.1585307280065109   T   T   T
 12.3568734879969799  8.3490305925327490 23.9690588480422804   T   T   T
  8.4586797199457866 11.4987941253303099 37.4790386976442420   T   T   T
  0.8266351641598829  0.5902036112159413 37.1938433400187947   T   T   T
  8.1736864496360102 -0.1578250793583262 30.8448906872361732   T   T   T
 13.7097377672798864  6.5160269581208050 34.2243525169133349   T   T   T
 21.9231436938890454  4.1354261592412662 19.4617840659243768   T   T   T
 11.6075243790068239  0.7105570475658353 25.3314822491241500   T   T   T
 17.4362440420652263 -1.6106241399514909 31.0973511234320696   T   T   T
 -1.7790891526604968  9.5050656320798019 30.9124206975020677   T   T   T
  7.1766864628888909 15.6953236635773301 27.9758785071503482   T   T   T
 16.6129737108989346  6.3267868444393471 28.8889187074853595   T   T   T
 20.4678178520649467 15.9777064043444454 23.2858714935278250   T   T   T
  9.0690550658336768  6.4475717066980147 25.6082213404982539   T   T   T
  6.7625322248215598  8.5241315591623490 39.7010053811414068   T   T   T
 -5.3975870966982411  9.3223820040300218 38.7548705726960350   T   T   T
 -0.1339091333457996  5.9013487715119668 27.9946358600341831   T   T   T
 16.4812326314564288 13.7793154581161197 23.5099430244459171   T   T   T
 20.3876555120810181  4.1426907892288884 36.8263516031698899   T   T   T
  7.2229567087168691 17.0032513133294430 33.8096888828709012   T   T   T
  7.3086154576734961  8.6942126011311878 28.2540200756855242   T   T   T
 19.3600398538013607 16.3109201916662272 28.2678530615817536   T   T   T
  4.2076142273606694 12.3342166215106062 21.7459395526717643   T   T   T
 13.0928515264185457 12.9616513667262758 22.4621091912192732   T   T   T
 10.2617225364995956  6.1278919161446730 37.0864292683576764   T   T   T
  7.2920328137895885  7.1194685744903019 36.3718076773017884   T   T   T
 10.7782736456896071  2.6146788844134501 27.9260401900461588   T   T   T
 21.6078892128084377 13.2560625583279403 24.2300247548358776   T   T   T
  2.0568757365236991  5.3484516470291403 14.3870936414106172   T   T   T
 11.1086897303450360  8.1048127728851505 26.4717353694534658   T   T   T
 16.4449691282547761  6.8066989661922861 34.2543627517349307   T   T   T
  6.1014877718759717  9.0789556408749021 34.2675408490920432   T   T   T
 10.2185081547252974  5.5885492276825257 29.4192624603116961   T   T   T
 -2.5597447623424863 12.4449470893752441 28.9389369210956957   T   T   T
  9.6075617663108641  2.7994011166683515 24.0859830694629942   T   T   T
 19.3067056323984687 13.2159308691141675 21.9861338335813095   T   T   T
 20.0020365340074093  5.4694259284672153 34.4468102051356837   T   T   T
  6.8701384147369815 16.0219798046935651 37.0756656220437222   T   T   T
 13.2557919556643071  5.7749888007054047 28.2305824018832610   T   T   T
 -1.1785951791816369 12.9009967877358207 31.4019409073509763   T   T   T
  6.6032570362906657  4.2026913727485686 20.6309452987979967   T   T   T
 23.5294464857414383 15.1427061703929731 26.1141203596539171   T   T   T
 17.6007731336337088  5.8005323633957184 40.0539328394228491   T   T   T
  4.9100111076920721 13.1505893705509962 31.5761085602114804   T   T   T
 14.1173336973958037  4.3908623415708652 31.3992042658549195   T   T   T
  0.1131242179588886 12.6537792168677470 28.0983379717211044   T   T   T
  3.6083193870205896  1.4395711302266923 23.0257096676587345   T   T   T
 16.6942023282393208  9.5159924818778769 27.7441147643185317   T   T   T
 15.6282196901375237  0.3216405315611496 37.7499420842601054   T   T   T
  7.3213466798051190  1.5191530886733176 40.0855937687818695   T   T   T
 11.4184074157712967  2.8936264767338624 30.9278850482090419   T   T   T
 26.8015765569262285 10.9752489320283289 30.9778349900373584   T   T   T
  3.2630878432058266  6.1450527627088585 29.1309800112543975   T   T   T
 14.1327830700697206  4.2936131943055686 22.1886632553068459   T   T   T
 28.6966953076542310  9.3215607700294427 24.8743328907468850   T   T   T
  3.2519934811869842 -7.7246931083885322 18.9424174081825321   T   T   T
 12.0461768593258629 12.3611899013426587 36.7063538930527500   T   T   T
 -0.5710941087610052 -2.4476823980943689 35.9901113600512232   T   T   T
  4.0250556287205566  8.5910341312951424 28.2349757613863304   T   T   T
 19.9210202974052848 13.5957307252608928 28.8163496881075361   T   T   T
 18.8671513871455616 11.0825608586445306 24.6233034479172304   T   T   T
  5.4717886543850334  5.3957564560738760 23.2138805621451425   T   T   T
 12.0519617405766422  9.2176714237740214 33.2801576799609862   T   T   T
 -0.7961875623797552 20.4937576066543841 34.7283039831208313   T   T   T
  2.8421293608354388  3.5101372110820779 26.2185610173971746   T   T   T
 16.9163244498872061 13.7309807553659482 28.2354032699176862   T   T   T
 24.2345055156818248  5.9957525556064679 22.6030154915589208   T   T   T
 19.6862538580437061  9.1941715513888909 15.7570247823722678   T   T   T
 13.3119788240427859  9.3640657482366123 36.5217672864936915   T   T   T
 -0.0097425783781089 16.0741216503944813 34.5954127612747513   T   T   T
  7.5496191945631672  7.3921803624034848 31.1881964350854197   T   T   T
 16.7132862571727969 16.2698876534355712 30.4179664809894170   T   T   T
 24.7242597462591149  7.8745512606040764 24.8509769927150117   T   T   T
  7.3228041529738146 15.4406689044426280 22.9828070601555723   T   T   T
 20.5480069122358273  7.3800091834887755 37.2429239746219167   T   T   T
 -5.0449087163258861  8.5742642767005783 28.2735479190615493   T   T   T
  4.7939293254554372  9.4072151446640220 30.7702164682466304   T   T   T
 25.5625661529852337  6.1452106962966084 18.9000368474359988   T   T   T
 18.3836515525652402  4.9951649441080281 23.7625228867476679   T   T   T
 17.2285708918307847  6.0980900682048613 36.7769312117179652   T   T   T
  1.3824912522436685 -0.5618746695462569 34.2169930612772504   T   T   T
  6.1820304214213033  5.5802085950494726 28.2921953558185209   T   T   T
 19.9006937156349863 14.9827218420608475 31.7073029956968426   T   T   T
 19.6025414283528150  5.7977793037717689 29.0998237036562344   T   T   T
  9.5764895931300682 12.8183610985591763 22.0904164651477011   T   T   T
 10.0269765426112141  4.4132564638391676 33.4554373384373989   T   T   T
  0.8356855862874206 12.2680645324017732 40.0766355561094301   T   T   T
 25.8023510360634276  9.6726945623759590 28.3507648345685261   T   T   T
 13.5244901963610840  9.6141491761269151 28.5558489458214169   T   T   T
 16.1860313330034415  8.9812410694426745 23.2509452267894652   T   T   T
  1.4478642157607748  9.8023084788669053 23.2193157706161024   T   T   T
  6.8012667402351052  5.1614090273518762 34.4518650019317150   T   T   T
 19.0507500815382897 16.9695417932836179 33.8643776626024362   T   T   T
 26.1817680685886813  2.5596592311571391 28.3187155131964374   T   T   T
  7.8961845086658524  7.0439083183238020 23.0304295625050877   T   T   T
 17.4521328915865794  3.8969063544848850 26.1604177639135038   T   T   T
  6.8788268257893650 10.8531524439753149 19.7919118927912336   T   T   T
  4.3994949583099352  1.5820500528110100 34.7868871272132694   T   T   T
 20.0392115499129631 14.7535211348099189 38.8257188003738491   T   T   T
  0.9333177240761212  3.7236272603070302 31.5629909743438901   T   T   T
 10.0952355582731652 11.1017123032926364 28.3594458459583834   T   T   T
 14.1888534741257004  2.8541558404720524 28.7270840905900435   T   T   T
  5.3143564437307340  3.2477001468236550 18.8568959062527455   T   T   T
 12.8641426338827856  6.1335810966069397 36.8263371478975046   T   T   T
 23.4319751285256288  5.4258243832958577 37.7098956181584413   T   T   T
 -1.9469926008618776  4.2376960259761907 31.6668897039352473   T   T   T
 10.7172027998732808  9.0681665777405840 30.2242082798988143   T   T   T
 16.5290604768048155  2.1287172645544703 22.3683590146495739   T   T   T
  3.0718262688479894 13.2109939897687561 24.2565341678650448   T   T   T
  9.3491551168465481  9.8136853981521917 40.0799950582408542   T   T   T
 19.2978584641500532  9.6881249005323511 34.1408763910786917   T   T   T
 -2.7593812438155148 10.2159987373461014 23.3808042485972933   T   T   T
 14.4745321622663461 11.3666157476114336 30.7464098735255753   T   T   T
 14.7061644206489550  2.6328959592861936 24.9923093133810745   T   T   T
  2.3883115629287741  5.9962258701593498 24.0400645208522192   T   T   T
  9.6140955478806429  3.3014878162486569 37.2735643121061102   T   T   T
 17.5996090709961877 13.0665078786603424 39.7415239770363371   T   T   T
 24.5768998441003035  1.6007881940443667 30.0270277942772950   T   T   T
  8.8905847128545119 13.9756375764151919 25.6468066967095609   T   T   T
 15.0970452466235816  6.1126026605421746 24.6766166226769990   T   T   T
  5.6275212430883430 11.3427193446836299 23.9979595807829185   T   T   T
  4.3674304171994960  5.9613452462547967 35.7018301648272356   T   T   T
 11.6272054217329650 12.6239911640880287 32.0559024810747104   T   T   T
 -3.0187517663561847  0.7043765721313344 -1.4064232093797961   T   T   T
 10.6451371775803629  1.3860861681509504 -1.3596893265391374   T   T   T
 17.4455329138666997 -0.4732083150595128  5.8591480699680476   T   T   T
  5.2140332167499057  7.0011465001700195  5.6921682207111273   T   T   T
  9.4499680832317647 -0.2560951145905945 11.6462849889259488   T   T   T
 22.0941956074880892  7.5125906347971210 11.5603955901743216   T   T   T
 24.0088459649763237 10.7073076074861824  5.8598539141326116   T   T   T
 11.6355870040440958  3.5405159629669503  5.7033142173722897   T   T   T
 15.3157945222522169 10.7203590728845271 11.9976989506723726   T   T   T
  3.3675053956687968  3.1105014804249453 11.5395376249666999   T   T   T
  3.0835926458932175 11.2553664014625348 -0.7108928691103855   T   T   T
 22.6913425285543582  1.4826870791364488  0.6383454826600083   T   T   T
  5.3985821368081481 -0.2877252291813475  5.8828938932699524   T   T   T
 17.7125121660861140  6.8826359133347808  6.0054982829915202   T   T   T
 21.3218157924503586  0.8605192696328573 12.5778374962089021   T   T   T
  9.0457366669034904  7.3363666914702517 11.9792546721518409   T   T   T
  9.9080152689325303 -0.5608899584675265 -1.0170467387222419   T   T   T
  0.6414100751034184  6.2094435022933183  0.3907635435915972   T   T   T
 24.1142606351379953  3.3639474233658553  5.8348021969370745   T   T   T
 11.5037265782347546 10.7047971511354341  5.9455693787917347   T   T   T
 15.4728555557509981  3.2802100945278494 11.4941736481600447   T   T   T
  2.8817870074846113 10.6504019176848068 11.7840608032177858   T   T   T
  5.3445757596278840  0.3765694951860266  1.4355962819472423   T   T   T
 18.3765405893781377 11.4033236205363728 -0.4119942442916764   T   T   T
  3.5007431128862456  3.6455208702449329 21.2488901874350589   T   T   T
 16.4579883041306232 11.3916337736040028 21.2620397318613925   T   T   T
 20.1317656971484666  3.6891786977931664 31.3953108760827426   T   T   T
  8.0990573378891355 10.7459703726062479 31.6120518257019114   T   T   T
 12.0180147612436077  4.3591399408985065 25.2389628860198592   T   T   T
 24.7323946939097823 11.5988983759971305 25.1462787969174641   T   T   T
  1.5885879151900242  7.4741414521496683 31.4648695396366307   T   T   T
 13.8695017689151303 15.1046583231753608 30.8745941669695654   T   T   T
 18.1737393085420820  7.6548591543151288 25.5521698546535596   T   T   T
  5.6932158547583258 13.8870336622039083 25.5129362851733639   T   T   T
  9.7294139409557641  8.0050398297941250 19.0390217733030838   T   T   T
 22.7369478192970575 15.4103158193053034 17.9920111111633219   T   T   T
  8.1070946703988653  3.6763516272917065 30.8018248358720115   T   T   T
 20.2739891243860271 11.2701147978621812 31.3732664557864567   T   T   T
 24.8746695164484422  4.0665859734551377 25.5326586828011983   T   T   T
 12.2820072753840712 11.0990477830697536 25.3547824667842008   T   T   T
 15.1468574327937091  4.7265076777611297 19.1021071259342499   T   T   T
  4.0056746212637213 11.5035719520890289 18.6044390789068750   T   T   T
  1.7417965200300420  0.3004048397469230 31.1901212673111630   T   T   T
 14.4237554687250888  7.9041037419589149 31.2198223765736991   T   T   T
 18.3787195720184329 14.9393010006663296 25.3320139977092218   T   T   T
  5.6961955101288915  7.5902791423641069 25.3496627217558341   T   T   T
 10.2975602406783420 15.5244768729324605 21.4096361383870573   T   T   T
 22.7252440980255699  8.0463549520531679 20.2614945541196825   T   T   T
  5.3512531467375544 -0.2017146397373180  8.0171665447464555   T   T   T
 17.8076685761557840  6.9035009900988999  8.1023976120257384   T   T   T
 21.7374071780950118 -0.3640259524684292 14.1340034135640416   T   T   T
  8.8073062599778940  7.3195059469696124 14.0692477301349186   T   T   T
 14.2719166133829685 -1.3026823368352924 -0.4499087846459596   T   T   T
  1.9700416771530587  4.5727634160237294  1.3250880084093022   T   T   T
 23.1174643849327950  1.3414393450818420 11.7624453610360433   T   T   T
  7.1026623619550051  7.1289444398471584 11.4607467354528296   T   T   T
 15.5132715299046726  2.9406754897793435 18.3325824323788602   T   T   T
 -0.9907202629721309  2.6319714648802779 20.6711567059742123   T   T   T
  6.3333467029451853  1.6345404311799798  5.4747186147112945   T   T   T
 18.3818697943101981  8.7398653304072766  5.2571526025807911   T   T   T
 23.1495797735818201  5.7183714995477830 10.7931226673342699   T   T   T
 10.6688267931737037 12.8524021096555892 10.8967860042774536   T   T   T
 11.8776735109049572  3.3549894513128247 19.6531683601300564   T   T   T
  1.2546017844953834  9.6579911352859718 18.3005246175025320   T   T   T
  6.2371837825940251  5.3983967866344651  4.8871083680990086   T   T   T
 18.5505065088871532 12.6394472781081042  5.0842463465670678   T   T   T
  7.6202915156126876 -0.7747451854057069 11.2651063956744508   T   T   T
 20.1548138726976944  7.0858837383999447 10.9787970379610869   T   T   T
 26.0881841947323920  5.9837994490353914 16.4845107324296194   T   T   T
 14.0277746342037357  6.3855311794574590 13.4179126571730691   T   T   T
 15.5902753966775620 -0.3334927137142324  4.9584922621225651   T   T   T
  3.2656406059329806  6.9048900270664229  4.8609899324107406   T   T   T
  3.1959914683947268  3.4651892431656073  6.9216210636031494   T   T   T
 15.4883241192237371 10.6435389252127273  7.7300974047960684   T   T   T
 18.4764835742615574  3.4116324144856276 16.5704700634999611   T   T   T
  7.1090142695475018 10.8221832005744290 13.4021859263109171   T   T   T
  7.9914772374709644  3.6554728227977140  1.7567521875224927   T   T   T
 24.4525644917783964 11.2838519204445333  1.2517819755639714   T   T   T
 24.1730049972947754  3.1565139000684943  7.9023983707485028   T   T   T
 11.3926820493805163 10.7056113661959564  7.9839923901562839   T   T   T
 15.6714689402658536  2.9067422764075257 13.6075881336421087   T   T   T
  2.8616298333099452 10.5850101127749952 13.8037334881904421   T   T   T
  4.1750625935098444  2.2242892028193415  2.3019736373312427   T   T   T
 18.1047974436368904 10.9724861032585608  1.6646957869124004   T   T   T
  3.7913478752353118 12.4041974097014815 11.2197579482481906   T   T   T
 16.0394173409023821  5.2449647022120960 11.0981695942775449   T   T   T
 17.5026317181344311 11.2625835656531343 16.5995517430973614   T   T   T
  7.7197358631780393  3.1633205492970795 18.3711241109425707   T   T   T
 12.3541862100815276 12.4719100782655659  5.2852143915363126   T   T   T
 24.7001214217575011  5.2064412696327373  4.8679377163355460   T   T   T
  4.6881472936754829  1.6319473093955994 11.0880651743586593   T   T   T
 13.3851331197517691 10.3302452690169275 11.2803492492014783   T   T   T
 21.2500000813623160  0.1375994930638453 19.3689734839846359   T   T   T
 10.6751649020971620  7.0063607629531308 17.5713731893407399   T   T   T
 12.6554883761338459  2.0952281172943650  4.6420713015489241   T   T   T
 24.9834733615959053  9.1308643484552796  4.9186890294652938   T   T   T
  1.4688217610504739  2.5377000902862332 10.7472361042197839   T   T   T
 15.8410843537387258 12.5008906938178939 11.0742866898848344   T   T   T
 19.8439587158773278  5.1068117358308136 16.4135337688269054   T   T   T
  7.1976883475128099 10.1473761127402398 15.4844642516725663   T   T   T
  9.7644073043507120  3.4930960477710795  4.7413968347317361   T   T   T
 22.0598335183506293 10.7499524821960613  5.2330594623052882   T   T   T
  1.1102605909195984 -0.5867643391931969 13.2156784609035309   T   T   T
 12.7720735593680690  7.7110509664311735 14.5480008408824890   T   T   T
 17.8268102634789258  0.3691601875345263  1.1909164670675887   T   T   T
  5.4955374554506093  6.5969231788555920  0.7551637477810357   T   T   T
  9.5915869259424813  0.1756288557181926  7.1878309041097008   T   T   T
 21.9177380798989674  7.1223312389879165  7.3755860143485981   T   T   T
 24.0698698664824775 -0.3092711751494999 -1.4201124047350888   T   T   T
 12.0294851927958018  4.3717581880981475  0.5555704319980598   T   T   T
 17.4500576983808884 -0.4960865533387184  7.9265736728130909   T   T   T
  5.1633821861219165  6.8122035531141183  7.7463641031164592   T   T   T
  9.6772432403024933  0.0360832798739305 13.7682372862075511   T   T   T
 22.2089002141068192  7.2940269787438696 13.5281901094581265   T   T   T
 22.8384782269652149  9.3156072106926828 11.0120997672279568   T   T   T
 10.0406694344371132  1.6542918882458588 11.0148048076695417   T   T   T
 11.4569321846838523 10.9104487516191213 18.9021196269952405   T   T   T
  1.8987141455448671 -3.1164025526910564 19.0771355458482006   T   T   T
  6.0695144364834768  8.6810773019175080  4.9863079183630976   T   T   T
 18.2423869859753438  1.4711779126041789  5.3415817949973432   T   T   T