&GLOBAL
        PROJECT gb_Sigma3_t2_Li_vac_c1_s2_cp2k_singlepoint
        PRINT_LEVEL MEDIUM
        RUN_TYPE ENERGY_FORCE
      &END GLOBAL

      &FORCE_EVAL
        METHOD QS
        &DFT
          BASIS_SET_FILE_NAME /home/ctan/cp2k/cp2k-2026.1/data/BASIS_MOLOPT
          POTENTIAL_FILE_NAME /home/ctan/cp2k/cp2k-2026.1/data/POTENTIAL
          CHARGE -1
  MULTIPLICITY 1
          &QS
            EPS_DEFAULT 1.0E-12
          &END QS
          &POISSON
            PERIODIC XYZ
            PSOLVER PERIODIC
          &END POISSON
          &XC
            &XC_FUNCTIONAL PBE
            &END XC_FUNCTIONAL
          &END XC
          &MGRID
            CUTOFF 400
            REL_CUTOFF 40
          &END MGRID
          &SCF
            SCF_GUESS ATOMIC
            MAX_SCF 50
            EPS_SCF 1.0E-6
            &OT ON
              PRECONDITIONER FULL_KINETIC
              ENERGY_GAP 0.10
              ALGORITHM IRAC
              MINIMIZER CG
              LINESEARCH 2PNT
            &END OT
            &OUTER_SCF
              MAX_SCF 20
              EPS_SCF 1.0E-6
            &END OUTER_SCF
          &END SCF
        &END DFT
        &SUBSYS
  &CELL
    A 25.1819793007 0.0000000000 0.0000000000
    B -0.0000000000 14.5388225280 0.0000000000
    C 0.0000000000 0.0000000000 37.2126966544
    PERIODIC XYZ
  &END CELL
  &COORD
    Li  1.1464122308  1.9856442301  6.4728588067
    Li  13.7374018811  9.2550554941  6.4728588067
    Li  17.9343984312  1.9856442301  12.4083082491
    Li  5.3434087809  9.2550554941  12.4083082491
    Li  9.5404053310  1.9856442301  0.5374093642
    Li  22.1313949814  9.2550554941  0.5374093642
    Li  0.1943261865  3.6347056320  9.1657647994
    Li  12.7853158369  10.9041168960  9.1657647994
    Li  16.9823123870  3.6347056320  15.1012142418
    Li  4.3913227366  10.9041168960  15.1012142418
    Li  8.5883192867  3.6347056320  3.2303153570
    Li  21.1793089371  10.9041168960  3.2303153570
    Li  3.0505843193  5.2837670338  9.1657647994
    Li  15.6415739697  12.5531782978  9.1657647994
    Li  19.8385705198  5.2837670338  15.1012142418
    Li  7.2475808694  12.5531782978  15.1012142418
    Li  11.4445774196  5.2837670338  3.2303153570
    Li  24.0355670699  12.5531782978  3.2303153570
    Li  4.0026703636  3.6347056320  6.4728588067
    Li  16.5936600139  10.9041168960  6.4728588067
    Li  20.7906565641  3.6347056320  12.4083082491
    Li  8.1996669137  10.9041168960  12.4083082491
    Li  12.3966634638  3.6347056320  0.5374093642
    Li  24.9876531142  10.9041168960  0.5374093642
    Li  3.0505843193  1.9856442301  9.1657647994
    Li  15.6415739697  9.2550554941  9.1657647994
    Li  19.8385705198  1.9856442301  15.1012142418
    Li  7.2475808694  9.2550554941  15.1012142418
    Li  11.4445774196  1.9856442301  3.2303153570
    Li  24.0355670699  9.2550554941  3.2303153570
    Li  1.1464122308  5.2837670338  6.4728588067
    Li  13.7374018811  12.5531782978  6.4728588067
    Li  17.9343984312  5.2837670338  12.4083082491
    Li  5.3434087809  12.5531782978  12.4083082491
    Li  9.5404053310  5.2837670338  0.5374093642
    Li  22.1313949814  12.5531782978  0.5374093642
    Li  24.2298932564  12.8897611261  12.4083082491
    Li  11.6389036061  5.6203498621  12.4083082491
    Li  15.8359001562  12.8897611261  0.5374093642
    Li  3.2449105058  5.6203498621  0.5374093642
    Li  7.4419070560  12.8897611261  6.4728588067
    Li  20.0328967063  5.6203498621  6.4728588067
    Li  23.2778072121  0.0000000000  15.1012142418
    Li  10.6868175618  7.2694112640  15.1012142418
    Li  14.8838141119  0.0000000000  3.2303153570
    Li  2.2928244616  7.2694112640  3.2303153570
    Li  6.4898210117  0.0000000000  9.1657647994
    Li  19.0808106620  7.2694112640  9.1657647994
    Li  0.9520860443  1.6490614019  15.1012142418
    Li  13.5430756946  8.9184726658  15.1012142418
    Li  17.7400722447  1.6490614019  3.2303153570
    Li  5.1490825944  8.9184726658  3.2303153570
    Li  9.3460791445  1.6490614019  9.1657647994
    Li  21.9370687948  8.9184726658  9.1657647994
    Li  1.9041720885  0.0000000000  12.4083082491
    Li  14.4951617389  7.2694112640  12.4083082491
    Li  18.6921582890  0.0000000000  0.5374093642
    Li  6.1011686387  7.2694112640  0.5374093642
    Li  10.2981651888  0.0000000000  6.4728588067
    Li  22.8891548391  7.2694112640  6.4728588067
    Li  0.9520860443  12.8897611261  15.1012142418
    Li  13.5430756946  5.6203498621  15.1012142418
    Li  17.7400722447  12.8897611261  3.2303153570
    Li  5.1490825944  5.6203498621  3.2303153570
    Li  9.3460791445  12.8897611261  9.1657647994
    Li  21.9370687948  5.6203498621  9.1657647994
    Li  24.2298932564  1.6490614019  12.4083082491
    Li  11.6389036061  8.9184726658  12.4083082491
    Li  15.8359001562  1.6490614019  0.5374093642
    Li  3.2449105058  8.9184726658  0.5374093642
    Li  7.4419070560  1.6490614019  6.4728588067
    Li  20.0328967063  8.9184726658  6.4728588067
    Li  1.1464122308  9.2550554941  6.4728588067
    Li  13.7374018811  1.9856442301  6.4728588067
    Li  17.9343984312  9.2550554941  12.4083082491
    Li  5.3434087809  1.9856442301  12.4083082491
    Li  9.5404053310  9.2550554941  0.5374093642
    Li  22.1313949814  1.9856442301  0.5374093642
    Li  0.1943261865  10.9041168960  9.1657647994
    Li  12.7853158369  3.6347056320  9.1657647994
    Li  16.9823123870  10.9041168960  15.1012142418
    Li  4.3913227366  3.6347056320  15.1012142418
    Li  8.5883192867  10.9041168960  3.2303153570
    Li  21.1793089371  3.6347056320  3.2303153570
    Li  3.0505843193  12.5531782978  9.1657647994
    Li  15.6415739697  5.2837670338  9.1657647994
    Li  19.8385705198  12.5531782978  15.1012142418
    Li  7.2475808694  5.2837670338  15.1012142418
    Li  11.4445774196  12.5531782978  3.2303153570
    Li  24.0355670699  5.2837670338  3.2303153570
    Li  4.0026703636  10.9041168960  6.4728588067
    Li  16.5936600139  3.6347056320  6.4728588067
    Li  20.7906565641  10.9041168960  12.4083082491
    Li  8.1996669137  3.6347056320  12.4083082491
    Li  12.3966634638  10.9041168960  0.5374093642
    Li  24.9876531142  3.6347056320  0.5374093642
    Li  3.0505843193  9.2550554941  9.1657647994
    Li  15.6415739697  1.9856442301  9.1657647994
    Li  19.8385705198  9.2550554941  15.1012142418
    Li  7.2475808694  1.9856442301  15.1012142418
    Li  11.4445774196  9.2550554941  3.2303153570
    Li  24.0355670699  1.9856442301  3.2303153570
    Li  1.1464122308  12.5531782978  6.4728588067
    Li  13.7374018811  5.2837670338  6.4728588067
    Li  17.9343984312  12.5531782978  12.4083082491
    Li  5.3434087809  5.2837670338  12.4083082491
    Li  9.5404053310  12.5531782978  0.5374093642
    Li  22.1313949814  5.2837670338  0.5374093642
    Li  20.0328967063  12.8897611261  6.4728588067
    Li  7.4419070560  5.6203498621  6.4728588067
    Li  11.6389036061  12.8897611261  12.4083082491
    Li  24.2298932564  5.6203498621  12.4083082491
    Li  3.2449105058  12.8897611261  0.5374093642
    Li  15.8359001562  5.6203498621  0.5374093642
    Li  19.0808106620  0.0000000000  9.1657647994
    Li  6.4898210117  7.2694112640  9.1657647994
    Li  10.6868175618  0.0000000000  15.1012142418
    Li  23.2778072121  7.2694112640  15.1012142418
    Li  2.2928244616  0.0000000000  3.2303153570
    Li  14.8838141119  7.2694112640  3.2303153570
    Li  21.9370687948  1.6490614019  9.1657647994
    Li  9.3460791445  8.9184726658  9.1657647994
    Li  13.5430756946  1.6490614019  15.1012142418
    Li  0.9520860443  8.9184726658  15.1012142418
    Li  5.1490825944  1.6490614019  3.2303153570
    Li  17.7400722447  8.9184726658  3.2303153570
    Li  22.8891548391  0.0000000000  6.4728588067
    Li  10.2981651888  7.2694112640  6.4728588067
    Li  14.4951617389  0.0000000000  12.4083082491
    Li  1.9041720885  7.2694112640  12.4083082491
    Li  6.1011686387  0.0000000000  0.5374093642
    Li  18.6921582890  7.2694112640  0.5374093642
    Li  21.9370687948  12.8897611261  9.1657647994
    Li  9.3460791445  5.6203498621  9.1657647994
    Li  13.5430756946  12.8897611261  15.1012142418
    Li  0.9520860443  5.6203498621  15.1012142418
    Li  5.1490825944  12.8897611261  3.2303153570
    Li  17.7400722447  5.6203498621  3.2303153570
    Li  20.0328967063  1.6490614019  6.4728588067
    Li  7.4419070560  8.9184726658  6.4728588067
    Li  11.6389036061  1.6490614019  12.4083082491
    Li  24.2298932564  8.9184726658  12.4083082491
    Li  3.2449105058  1.6490614019  0.5374093642
    Li  15.8359001562  8.9184726658  0.5374093642
    Li  9.5404053310  5.2837670338  30.7398378478
    Li  22.1313949814  12.5531782978  30.7398378478
    Li  1.1464122308  5.2837670338  24.8043884054
    Li  13.7374018811  12.5531782978  24.8043884054
    Li  17.9343984312  5.2837670338  36.6752872902
    Li  5.3434087809  12.5531782978  36.6752872902
    Li  8.5883192867  3.6347056320  28.0469318551
    Li  21.1793089371  10.9041168960  28.0469318551
    Li  0.1943261865  3.6347056320  22.1114824127
    Li  12.7853158369  10.9041168960  22.1114824127
    Li  16.9823123870  3.6347056320  33.9823812975
    Li  4.3913227366  10.9041168960  33.9823812975
    Li  11.4445774196  1.9856442301  28.0469318551
    Li  24.0355670699  9.2550554941  28.0469318551
    Li  3.0505843193  1.9856442301  22.1114824127
    Li  15.6415739697  9.2550554941  22.1114824127
    Li  19.8385705198  1.9856442301  33.9823812975
    Li  7.2475808694  9.2550554941  33.9823812975
    Li  12.3966634638  3.6347056320  30.7398378478
    Li  24.9876531142  10.9041168960  30.7398378478
    Li  4.0026703636  3.6347056320  24.8043884054
    Li  16.5936600139  10.9041168960  24.8043884054
    Li  20.7906565641  3.6347056320  36.6752872902
    Li  8.1996669137  10.9041168960  36.6752872902
    Li  11.4445774196  5.2837670338  28.0469318551
    Li  24.0355670699  12.5531782978  28.0469318551
    Li  3.0505843193  5.2837670338  22.1114824127
    Li  15.6415739697  12.5531782978  22.1114824127
    Li  19.8385705198  5.2837670338  33.9823812975
    Li  7.2475808694  12.5531782978  33.9823812975
    Li  9.5404053310  1.9856442301  30.7398378478
    Li  22.1313949814  9.2550554941  30.7398378478
    Li  1.1464122308  1.9856442301  24.8043884054
    Li  13.7374018811  9.2550554941  24.8043884054
    Li  17.9343984312  1.9856442301  36.6752872902
    Li  5.3434087809  9.2550554941  36.6752872902
    Li  7.4419070560  8.9184726658  24.8043884054
    Li  20.0328967063  1.6490614019  24.8043884054
    Li  24.2298932564  8.9184726658  36.6752872902
    Li  11.6389036061  1.6490614019  36.6752872902
    Li  15.8359001562  8.9184726658  30.7398378478
    Li  3.2449105058  1.6490614019  30.7398378478
    Li  6.4898210117  7.2694112640  22.1114824127
    Li  19.0808106620  14.5388225280  22.1114824127
    Li  23.2778072121  7.2694112640  33.9823812975
    Li  10.6868175618  0.0000000000  33.9823812975
    Li  14.8838141119  7.2694112640  28.0469318551
    Li  2.2928244616  14.5388225280  28.0469318551
    Li  9.3460791445  5.6203498621  22.1114824127
    Li  21.9370687948  12.8897611261  22.1114824127
    Li  0.9520860443  5.6203498621  33.9823812975
    Li  13.5430756946  12.8897611261  33.9823812975
    Li  17.7400722447  5.6203498621  28.0469318551
    Li  5.1490825944  12.8897611261  28.0469318551
    Li  10.2981651888  7.2694112640  24.8043884054
    Li  22.8891548391  14.5388225280  24.8043884054
    Li  1.9041720885  7.2694112640  36.6752872902
    Li  14.4951617389  0.0000000000  36.6752872902
    Li  18.6921582890  7.2694112640  30.7398378478
    Li  6.1011686387  14.5388225280  30.7398378478
    Li  9.3460791445  8.9184726658  22.1114824127
    Li  21.9370687948  1.6490614019  22.1114824127
    Li  0.9520860443  8.9184726658  33.9823812975
    Li  13.5430756946  1.6490614019  33.9823812975
    Li  17.7400722447  8.9184726658  28.0469318551
    Li  5.1490825944  1.6490614019  28.0469318551
    Li  7.4419070560  5.6203498621  24.8043884054
    Li  20.0328967063  12.8897611261  24.8043884054
    Li  24.2298932564  5.6203498621  36.6752872902
    Li  11.6389036061  12.8897611261  36.6752872902
    Li  15.8359001562  5.6203498621  30.7398378478
    Li  3.2449105058  12.8897611261  30.7398378478
    Li  9.5404053310  12.5531782978  30.7398378478
    Li  22.1313949814  5.2837670338  30.7398378478
    Li  1.1464122308  12.5531782978  24.8043884054
    Li  13.7374018811  5.2837670338  24.8043884054
    Li  17.9343984312  12.5531782978  36.6752872902
    Li  5.3434087809  5.2837670338  36.6752872902
    Li  8.5883192867  10.9041168960  28.0469318551
    Li  0.1943261865  10.9041168960  22.1114824127
    Li  12.7853158369  3.6347056320  22.1114824127
    Li  16.9823123870  10.9041168960  33.9823812975
    Li  4.3913227366  3.6347056320  33.9823812975
    Li  11.4445774196  9.2550554941  28.0469318551
    Li  24.0355670699  1.9856442301  28.0469318551
    Li  3.0505843193  9.2550554941  22.1114824127
    Li  15.6415739697  1.9856442301  22.1114824127
    Li  19.8385705198  9.2550554941  33.9823812975
    Li  7.2475808694  1.9856442301  33.9823812975
    Li  12.3966634638  10.9041168960  30.7398378478
    Li  24.9876531142  3.6347056320  30.7398378478
    Li  4.0026703636  10.9041168960  24.8043884054
    Li  16.5936600139  3.6347056320  24.8043884054
    Li  20.7906565641  10.9041168960  36.6752872902
    Li  8.1996669137  3.6347056320  36.6752872902
    Li  11.4445774196  12.5531782978  28.0469318551
    Li  24.0355670699  5.2837670338  28.0469318551
    Li  3.0505843193  12.5531782978  22.1114824127
    Li  15.6415739697  5.2837670338  22.1114824127
    Li  19.8385705198  12.5531782978  33.9823812975
    Li  7.2475808694  5.2837670338  33.9823812975
    Li  9.5404053310  9.2550554941  30.7398378478
    Li  22.1313949814  1.9856442301  30.7398378478
    Li  1.1464122308  9.2550554941  24.8043884054
    Li  13.7374018811  1.9856442301  24.8043884054
    Li  17.9343984312  9.2550554941  36.6752872902
    Li  5.3434087809  1.9856442301  36.6752872902
    Li  3.2449105058  8.9184726658  30.7398378478
    Li  15.8359001562  1.6490614019  30.7398378478
    Li  20.0328967063  8.9184726658  24.8043884054
    Li  7.4419070560  1.6490614019  24.8043884054
    Li  11.6389036061  8.9184726658  36.6752872902
    Li  24.2298932564  1.6490614019  36.6752872902
    Li  2.2928244616  7.2694112640  28.0469318551
    Li  14.8838141119  14.5388225280  28.0469318551
    Li  19.0808106620  7.2694112640  22.1114824127
    Li  6.4898210117  14.5388225280  22.1114824127
    Li  10.6868175618  7.2694112640  33.9823812975
    Li  23.2778072121  0.0000000000  33.9823812975
    Li  5.1490825944  5.6203498621  28.0469318551
    Li  17.7400722447  12.8897611261  28.0469318551
    Li  21.9370687948  5.6203498621  22.1114824127
    Li  9.3460791445  12.8897611261  22.1114824127
    Li  13.5430756946  5.6203498621  33.9823812975
    Li  0.9520860443  12.8897611261  33.9823812975
    Li  6.1011686387  7.2694112640  30.7398378478
    Li  18.6921582890  0.0000000000  30.7398378478
    Li  22.8891548391  7.2694112640  24.8043884054
    Li  10.2981651888  14.5388225280  24.8043884054
    Li  14.4951617389  7.2694112640  36.6752872902
    Li  1.9041720885  0.0000000000  36.6752872902
    Li  5.1490825944  8.9184726658  28.0469318551
    Li  17.7400722447  1.6490614019  28.0469318551
    Li  21.9370687948  8.9184726658  22.1114824127
    Li  9.3460791445  1.6490614019  22.1114824127
    Li  13.5430756946  8.9184726658  33.9823812975
    Li  0.9520860443  1.6490614019  33.9823812975
    Li  3.2449105058  5.6203498621  30.7398378478
    Li  15.8359001562  12.8897611261  30.7398378478
    Li  20.0328967063  5.6203498621  24.8043884054
    Li  7.4419070560  12.8897611261  24.8043884054
    Li  11.6389036061  5.6203498621  36.6752872902
    Li  24.2298932564  12.8897611261  36.6752872902
    P   0.0000000000  0.0000000000  0.4000000000
    P   12.5909896503  7.2694112640  0.4000000000
    P   16.7879862005  0.0000000000  6.3354494424
    P   4.1969965501  7.2694112640  6.3354494424
    P   8.3939931002  0.0000000000  12.2708988848
    P   20.9849827506  7.2694112640  12.2708988848
    P   23.0834810256  10.9041168960  6.3354494424
    P   10.4924913753  3.6347056320  6.3354494424
    P   14.6894879254  10.9041168960  12.2708988848
    P   2.0984982751  3.6347056320  12.2708988848
    P   6.2954948252  10.9041168960  0.4000000000
    P   18.8864844755  3.6347056320  0.4000000000
    P   4.1969965501  0.0000000000  6.3354494424
    P   16.7879862005  7.2694112640  6.3354494424
    P   20.9849827506  0.0000000000  12.2708988848
    P   8.3939931002  7.2694112640  12.2708988848
    P   12.5909896503  0.0000000000  0.4000000000
    P  -0.0000000000  7.2694112640  0.4000000000
    P   23.0834810256  3.6347056320  6.3354494424
    P   10.4924913753  10.9041168960  6.3354494424
    P   14.6894879254  3.6347056320  12.2708988848
    P   2.0984982751  10.9041168960  12.2708988848
    P   6.2954948252  3.6347056320  0.4000000000
    P   18.8864844755  10.9041168960  0.4000000000
    P   8.3939931002  7.2694112640  19.0063483272
    P   20.9849827506  0.0000000000  19.0063483272
    P   25.1819793007  7.2694112640  30.8772472120
    P   12.5909896503  14.5388225280  30.8772472120
    P   16.7879862005  7.2694112640  24.9417977696
    P   4.1969965501  14.5388225280  24.9417977696
    P   6.2954948252  10.9041168960  30.8772472120
    P   18.8864844755  3.6347056320  30.8772472120
    P   23.0834810256  10.9041168960  24.9417977696
    P   10.4924913753  3.6347056320  24.9417977696
    P   14.6894879254  10.9041168960  19.0063483272
    P   2.0984982751  3.6347056320  19.0063483272
    P   12.5909896503  7.2694112640  30.8772472120
    P   25.1819793007  14.5388225280  30.8772472120
    P   4.1969965501  7.2694112640  24.9417977696
    P   16.7879862005  0.0000000000  24.9417977696
    P   20.9849827506  7.2694112640  19.0063483272
    P   8.3939931002  0.0000000000  19.0063483272
    P   6.2954948252  3.6347056320  30.8772472120
    P   18.8864844755  10.9041168960  30.8772472120
    P   23.0834810256  3.6347056320  24.9417977696
    P   10.4924913753  10.9041168960  24.9417977696
    P   14.6894879254  3.6347056320  19.0063483272
    P   2.0984982751  10.9041168960  19.0063483272
    S   4.1969965501  0.0000000000  8.3944249213
    S   16.7879862005  7.2694112640  8.3944249213
    S   20.9849827506  0.0000000000  14.3298743637
    S   8.3939931002  7.2694112640  14.3298743637
    S   12.5909896503  0.0000000000  2.4589754789
    S  -0.0000000000  7.2694112640  2.4589754789
    S   21.9555930995  1.6811464387  11.5845737252
    S   9.3646034492  8.9505577027  11.5845737252
    S   13.5615999993  1.6811464387  17.5200231676
    S   0.9706103489  8.9505577027  17.5200231676
    S   5.1676068990  1.6811464387  5.6491242828
    S   17.7585965494  8.9505577027  5.6491242828
    S   21.9555930995  5.5882648253  11.5845737252
    S   9.3646034492  12.8576760893  11.5845737252
    S   13.5615999993  5.5882648253  17.5200231676
    S   0.9706103489  12.8576760893  17.5200231676
    S   5.1676068990  5.5882648253  5.6491242828
    S   17.7585965494  12.8576760893  5.6491242828
    S   6.4527724024  0.0000000000  11.5845737252
    S   19.0437620527  7.2694112640  11.5845737252
    S   23.2407586028  0.0000000000  17.5200231676
    S   10.6497689525  7.2694112640  17.5200231676
    S   14.8467655026  0.0000000000  5.6491242828
    S   2.2557758523  7.2694112640  5.6491242828
    S   2.0984982751  3.6347056320  7.8193118030
    S   14.6894879254  10.9041168960  7.8193118030
    S   18.8864844755  3.6347056320  13.7547612454
    S   6.2954948252  10.9041168960  13.7547612454
    S   10.4924913753  3.6347056320  1.8838623606
    S   23.0834810256  10.9041168960  1.8838623606
    S   23.0834810256  3.6347056320  8.3944249213
    S   10.4924913753  10.9041168960  8.3944249213
    S   14.6894879254  3.6347056320  14.3298743637
    S   2.0984982751  10.9041168960  14.3298743637
    S   6.2954948252  3.6347056320  2.4589754789
    S   18.8864844755  10.9041168960  2.4589754789
    S   3.0691086240  12.5852633347  11.5845737252
    S   15.6600982743  5.3158520707  11.5845737252
    S   19.8570948244  12.5852633347  17.5200231676
    S   7.2661051741  5.3158520707  17.5200231676
    S   11.4631017242  12.5852633347  5.6491242828
    S   24.0540913746  5.3158520707  5.6491242828
    S   3.0691086240  1.9535591933  11.5845737252
    S   15.6600982743  9.2229704573  11.5845737252
    S   19.8570948244  1.9535591933  17.5200231676
    S   7.2661051741  9.2229704573  17.5200231676
    S   11.4631017242  1.9535591933  5.6491242828
    S   24.0540913746  9.2229704573  5.6491242828
    S   0.1572775772  3.6347056320  11.5845737252
    S   12.7482672275  10.9041168960  11.5845737252
    S   16.9452637777  3.6347056320  17.5200231676
    S   4.3542741273  10.9041168960  17.5200231676
    S   8.5512706774  3.6347056320  5.6491242828
    S   21.1422603278  10.9041168960  5.6491242828
    S   0.0000000000  0.0000000000  13.7547612454
    S   12.5909896503  7.2694112640  13.7547612454
    S   16.7879862005  0.0000000000  1.8838623606
    S   4.1969965501  7.2694112640  1.8838623606
    S   8.3939931002  0.0000000000  7.8193118030
    S   20.9849827506  7.2694112640  7.8193118030
    S   25.1819793007  0.0000000000  2.4589754789
    S   12.5909896503  7.2694112640  2.4589754789
    S   16.7879862005  0.0000000000  8.3944249213
    S   4.1969965501  7.2694112640  8.3944249213
    S   8.3939931002  0.0000000000  14.3298743637
    S   20.9849827506  7.2694112640  14.3298743637
    S   21.9555930995  8.9505577027  11.5845737252
    S   9.3646034492  1.6811464387  11.5845737252
    S   13.5615999993  8.9505577027  17.5200231676
    S   0.9706103489  1.6811464387  17.5200231676
    S   5.1676068990  8.9505577027  5.6491242828
    S   17.7585965494  1.6811464387  5.6491242828
    S   21.9555930995  12.8576760893  11.5845737252
    S   9.3646034492  5.5882648253  11.5845737252
    S   13.5615999993  12.8576760893  17.5200231676
    S   0.9706103489  5.5882648253  17.5200231676
    S   5.1676068990  12.8576760893  5.6491242828
    S   17.7585965494  5.5882648253  5.6491242828
    S   2.2557758523  0.0000000000  5.6491242828
    S   14.8467655026  7.2694112640  5.6491242828
    S   19.0437620527  0.0000000000  11.5845737252
    S   6.4527724024  7.2694112640  11.5845737252
    S   10.6497689525  0.0000000000  17.5200231676
    S   23.2407586028  7.2694112640  17.5200231676
    S   2.0984982751  10.9041168960  7.8193118030
    S   14.6894879254  3.6347056320  7.8193118030
    S   18.8864844755  10.9041168960  13.7547612454
    S   6.2954948252  3.6347056320  13.7547612454
    S   10.4924913753  10.9041168960  1.8838623606
    S   23.0834810256  3.6347056320  1.8838623606
    S   23.0834810256  10.9041168960  8.3944249213
    S   10.4924913753  3.6347056320  8.3944249213
    S   14.6894879254  10.9041168960  14.3298743637
    S   2.0984982751  3.6347056320  14.3298743637
    S   6.2954948252  10.9041168960  2.4589754789
    S   18.8864844755  3.6347056320  2.4589754789
    S   24.0540913746  12.5852633347  5.6491242828
    S   11.4631017242  5.3158520707  5.6491242828
    S   15.6600982743  12.5852633347  11.5845737252
    S   3.0691086240  5.3158520707  11.5845737252
    S   7.2661051741  12.5852633347  17.5200231676
    S   19.8570948244  5.3158520707  17.5200231676
    S   24.0540913746  1.9535591933  5.6491242828
    S   11.4631017242  9.2229704573  5.6491242828
    S   15.6600982743  1.9535591933  11.5845737252
    S   3.0691086240  9.2229704573  11.5845737252
    S   7.2661051741  1.9535591933  17.5200231676
    S   19.8570948244  9.2229704573  17.5200231676
    S   0.1572775772  10.9041168960  11.5845737252
    S   12.7482672275  3.6347056320  11.5845737252
    S   16.9452637777  10.9041168960  17.5200231676
    S   4.3542741273  3.6347056320  17.5200231676
    S   8.5512706774  10.9041168960  5.6491242828
    S   21.1422603278  3.6347056320  5.6491242828
    S   20.9849827506  0.0000000000  7.8193118030
    S   8.3939931002  7.2694112640  7.8193118030
    S   12.5909896503  0.0000000000  13.7547612454
    S   25.1819793007  7.2694112640  13.7547612454
    S   4.1969965501  0.0000000000  1.8838623606
    S   16.7879862005  7.2694112640  1.8838623606
    S   12.5909896503  7.2694112640  28.8182717332
    S   25.1819793007  14.5388225280  28.8182717332
    S   4.1969965501  7.2694112640  22.8828222908
    S   16.7879862005  14.5388225280  22.8828222908
    S   20.9849827506  7.2694112640  34.7537211756
    S   8.3939931002  0.0000000000  34.7537211756
    S   5.1676068990  5.5882648253  25.6281229292
    S   17.7585965494  12.8576760893  25.6281229292
    S   21.9555930995  5.5882648253  19.6926734868
    S   9.3646034492  12.8576760893  19.6926734868
    S   13.5615999993  5.5882648253  31.5635723716
    S   0.9706103489  12.8576760893  31.5635723716
    S   5.1676068990  1.6811464387  25.6281229292
    S   17.7585965494  8.9505577027  25.6281229292
    S   21.9555930995  1.6811464387  19.6926734868
    S   9.3646034492  8.9505577027  19.6926734868
    S   13.5615999993  1.6811464387  31.5635723716
    S   0.9706103489  8.9505577027  31.5635723716
    S   14.8467655026  7.2694112640  25.6281229292
    S   2.2557758523  14.5388225280  25.6281229292
    S   6.4527724024  7.2694112640  19.6926734868
    S   19.0437620527  14.5388225280  19.6926734868
    S   23.2407586028  7.2694112640  31.5635723716
    S   10.6497689525  0.0000000000  31.5635723716
    S   10.4924913753  3.6347056320  29.3933848514
    S   23.0834810256  10.9041168960  29.3933848514
    S   2.0984982751  3.6347056320  23.4579354090
    S   14.6894879254  10.9041168960  23.4579354090
    S   18.8864844755  3.6347056320  35.3288342938
    S   6.2954948252  10.9041168960  35.3288342938
    S   6.2954948252  3.6347056320  28.8182717332
    S   18.8864844755  10.9041168960  28.8182717332
    S   23.0834810256  3.6347056320  22.8828222908
    S   10.4924913753  10.9041168960  22.8828222908
    S   14.6894879254  3.6347056320  34.7537211756
    S   2.0984982751  10.9041168960  34.7537211756
    S   11.4631017242  9.2229704573  25.6281229292
    S   24.0540913746  1.9535591933  25.6281229292
    S   3.0691086240  9.2229704573  19.6926734868
    S   15.6600982743  1.9535591933  19.6926734868
    S   19.8570948244  9.2229704573  31.5635723716
    S   7.2661051741  1.9535591933  31.5635723716
    S   11.4631017242  5.3158520707  25.6281229292
    S   24.0540913746  12.5852633347  25.6281229292
    S   3.0691086240  5.3158520707  19.6926734868
    S   15.6600982743  12.5852633347  19.6926734868
    S   19.8570948244  5.3158520707  31.5635723716
    S   7.2661051741  12.5852633347  31.5635723716
    S   8.5512706774  3.6347056320  25.6281229292
    S   21.1422603278  10.9041168960  25.6281229292
    S   0.1572775772  3.6347056320  19.6926734868
    S   12.7482672275  10.9041168960  19.6926734868
    S   16.9452637777  3.6347056320  31.5635723716
    S   4.3542741273  10.9041168960  31.5635723716
    S   8.3939931002  7.2694112640  23.4579354090
    S   20.9849827506  14.5388225280  23.4579354090
    S   25.1819793007  7.2694112640  35.3288342938
    S   12.5909896503  0.0000000000  35.3288342938
    S   16.7879862005  7.2694112640  29.3933848514
    S   4.1969965501  14.5388225280  29.3933848514
    S   8.3939931002  7.2694112640  34.7537211756
    S   20.9849827506  0.0000000000  34.7537211756
    S   25.1819793007  7.2694112640  28.8182717332
    S   12.5909896503  0.0000000000  28.8182717332
    S   16.7879862005  7.2694112640  22.8828222908
    S   4.1969965501  14.5388225280  22.8828222908
    S   5.1676068990  12.8576760893  25.6281229292
    S   17.7585965494  5.5882648253  25.6281229292
    S   21.9555930995  12.8576760893  19.6926734868
    S   9.3646034492  5.5882648253  19.6926734868
    S   13.5615999993  12.8576760893  31.5635723716
    S   0.9706103489  5.5882648253  31.5635723716
    S   5.1676068990  8.9505577027  25.6281229292
    S   17.7585965494  1.6811464387  25.6281229292
    S   21.9555930995  8.9505577027  19.6926734868
    S   9.3646034492  1.6811464387  19.6926734868
    S   13.5615999993  8.9505577027  31.5635723716
    S   0.9706103489  1.6811464387  31.5635723716
    S   10.6497689525  7.2694112640  31.5635723716
    S   23.2407586028  0.0000000000  31.5635723716
    S   2.2557758523  7.2694112640  25.6281229292
    S   14.8467655026  0.0000000000  25.6281229292
    S   19.0437620527  7.2694112640  19.6926734868
    S   6.4527724024  14.5388225280  19.6926734868
    S   10.4924913753  10.9041168960  29.3933848514
    S   23.0834810256  3.6347056320  29.3933848514
    S   2.0984982751  10.9041168960  23.4579354090
    S   14.6894879254  3.6347056320  23.4579354090
    S   18.8864844755  10.9041168960  35.3288342938
    S   6.2954948252  3.6347056320  35.3288342938
    S   6.2954948252  10.9041168960  28.8182717332
    S   18.8864844755  3.6347056320  28.8182717332
    S   23.0834810256  10.9041168960  22.8828222908
    S   10.4924913753  3.6347056320  22.8828222908
    S   14.6894879254  10.9041168960  34.7537211756
    S   2.0984982751  3.6347056320  34.7537211756
    S   7.2661051741  9.2229704573  31.5635723716
    S   19.8570948244  1.9535591933  31.5635723716
    S   24.0540913746  9.2229704573  25.6281229292
    S   11.4631017242  1.9535591933  25.6281229292
    S   15.6600982743  9.2229704573  19.6926734868
    S   3.0691086240  1.9535591933  19.6926734868
    S   7.2661051741  5.3158520707  31.5635723716
    S   19.8570948244  12.5852633347  31.5635723716
    S   24.0540913746  5.3158520707  25.6281229292
    S   11.4631017242  12.5852633347  25.6281229292
    S   15.6600982743  5.3158520707  19.6926734868
    S   3.0691086240  12.5852633347  19.6926734868
    S   8.5512706774  10.9041168960  25.6281229292
    S   21.1422603278  3.6347056320  25.6281229292
    S   0.1572775772  10.9041168960  19.6926734868