Cl48Li287P48S240 E=-2516.319022 eV
 1.0000000000000000
    25.1819793006824639    0.0000000000000000    0.0000000000000015
    -0.0000000000000009   14.5388225279766061    0.0000000000000009
     0.0000000000000000    0.0000000000000000   37.2126966544236950
 Li  P   S   Cl 
 287  48 240  48
Cartesian
  0.9127964631349510  1.6736292387256608  7.1116165276767234
 13.5667485764726248  8.9634002357998295  6.9054160411862346
 18.0208103108126352  1.7422946044470646 13.0345657546459766
  5.4551335090424091  9.1354128386168760 12.8577716742256953
  8.5536048196354599  2.4903735967232752  1.6196372081541830
 23.1049128854351125  8.5465027246513507  1.0425218162179168
  0.2022360918584404  3.6156245305936108  9.4093937485771733
 12.7456407905817777 10.8373164141563318  9.2917909008405175
 16.8869921723417242  2.4661666385549488 15.5031762362492564
  4.2625723233473245  9.9092568603412463 15.2796555123559372
  8.9378058113548384  4.5495529566555000  3.4661432484407868
 21.3762202699502986 10.9855283089872149  3.0996827170576857
  3.1066194060197114  5.2827435562248297  9.3602369624849633
 15.5614749250189313 12.5410356403960961  9.3201511928703713
 18.9084328943430080  5.9166124130493056 15.3904191607600591
  6.1818903371687277 13.1185833947937400 15.4478414806252342
 11.9079730557123433  5.2849779076508359  3.2075052867959659
 25.0667370726398886 12.2176804521523330  3.3540005975937066
  4.3109778429517869  3.6567200033115124  7.0003732592030756
 16.9623997263950841 10.9041771102086393  7.0104926533637917
 20.9497526300667083  3.7735315855474743 13.0108945271085403
  8.4017748258188885 11.1519506494898142 13.0008922924387704
 13.0749444220492439  2.7634013840461744  1.2045816682523838
 25.6010275889707515 11.4105342299421491  0.4582024893156792
  3.1346392368635287  2.0313903444904913  9.3670097173719675
 15.5728778941378074  9.2623284767902962  9.3288025469091416
 20.8682003355304495  2.4280934010101567 15.4641701685153059
  8.2290901305791078  9.7367567563818067 15.3408281401920235
 11.1479286631632579  1.7677105225496399  3.2470611632876074
 24.3746904888849549  9.4110982681130722  3.2943283885508952
  0.8883860875801062  5.5756830472925083  7.1834879724041532
 13.5672214847244863 12.8742635662645348  6.9835607713757559
 17.7583798704554745  5.2247296624797075 12.9339044556993894
  5.0965618990505455 12.6363229617424260 12.9520617421976851
  9.3841581582608118  5.2764374715641029  0.5425203666223065
 23.3642058530714607 13.5719498498313254  1.5693373000682491
 24.3149279195347141 12.6528146394925525 13.0561402539392652
 11.6932211489483411  5.4016086275870991 12.9222913384986065
 15.4619468519595689 12.2306196028303518  0.0405328866245295
  1.9793753351525112  6.0019984623267701  1.4323808294418168
  7.2440558991549775 12.6315412030628273  6.9106793585582720
 19.8842912687274271  5.3024734790796808  7.1315227404117678
 23.1917958504197763 -1.1842706186101883 15.5448369777798643
 10.5866011925365466  6.1426921526661076 15.3500751015496899
 15.2626301880662343  0.2678427081150990  3.1722431691767254
  2.4053709130076610  7.4801088196938927  3.6528820290265109
  6.5117534006659952  0.0064514605783963  9.3144342486649983
 19.0876633448209780  7.2966932805014491  9.3929671206039842
  0.0097308921059205  2.2750147830252967 15.4357778462482162
 12.8972713398382712  9.4415843901469927 15.3134557796617621
 18.5412119036248626  1.3461267722658994  3.5177533923693445
  5.2198659757995358  8.9417577983733381  3.1118861211167959
  9.3665638638276363  1.6630105063772289  9.3111572046845978
 21.9974732868858212  8.8982524867672961  9.3732899038547064
  2.0584659089118533  0.1513045045580464 13.0431787141878353
 14.4992531867618712  7.4068367681436493 12.7883022024294171
 19.5750441590378514  0.0152017418367681  0.8686792010045749
  6.9060540882972923  6.6451473746249592  0.4199661095522066
 10.6590622344202988  0.0287135576516202  6.9942228756826239
 23.1946433229942350  7.2985246757189195  7.0438530372686596
  2.0242308478411668 13.3686023175467934 15.5174673464730493
 14.5800747712546865  6.1815112393645286 15.4100279224983066
 17.7222444642667405 12.6302240747581838  3.0774820078809411
  5.0593690093964874  5.5845275410932729  3.1792084498745572
  9.3067477504866449 12.9013560802712988  9.2866602969132259
 22.0260320141739285  5.6532107937838925  9.3947535806894358
 24.0405944396717182  1.5971662179730117 12.9746082995395522
 11.3482074676678053  9.0002106538446807 13.0114864807472923
 17.0689359894639807  2.4202625069552663  1.5548415720026023
  1.9295826082153116  8.7149254353674728  1.3401985064261248
  7.2216304060164322  1.9735926465641951  6.9762104793163262
 19.8767745014817407  9.2246104862697802  7.0302745007062954
  0.8971228660533281  8.9750560407387088  7.1359911275924013
 13.6131574163229327  1.6857317833491876  6.9752501079201554
 17.9653075249998828  8.9779792612687714 13.0227913860958271
  5.4558487424491524  1.8530077043859261 12.8785738088351174
  8.6245797175347363  9.1125340918162436  0.3811490791975007
 21.9116402969336619  2.3512699980095957  0.6672940250886331
  0.1737420180286505 10.9454219636649075  9.3420471156872438
 12.8401802387140851  3.5666481045512333  9.3453309447672268
 16.8858408072038237  9.7319889867316505 15.4933029284584087
  4.2590297333991254  2.6166013453139412 15.3004370570570600
  8.6186730032106489 11.4175206394145583  3.1375505459971107
 21.1362466163187896  3.7537280091275793  3.4125354493385109
  3.0619491962759890 12.5772511075161439  9.3209826065629322
 15.6961950121944067  5.3024252952898854  9.3188840857474737
 19.0144644148805249 13.1402161279858749 15.3151314682780946
  6.1937907832129122  5.8537961963612419 15.4492128675660467
 11.9503796029281411 12.4591508356271081  3.3265773702057868
 24.3336377805553923  5.3282341637416293  3.4557322127502315
  4.3163771010376797 10.9508432866360330  6.9370308734204844
 17.0050423232519883  3.6519470283095732  7.0920420204542278
 20.7943710620335835 11.0484950333363816 12.8230117805416590
  8.3853130327761587  3.8699770617250788 12.9864211525342803
 12.7914768550613829 10.1759099363893526  1.4264070265028288
 24.9183106060984763  4.4361782617209773  0.6549400693986108
  3.1085287653256062  9.3033103742627876  9.3358094563550473
 15.6898688244950293  1.9669022762910848  9.3295186202322284
 20.8870868409146730  9.8957891663234943 15.4268530703758362
  8.2339631221003273  2.4618282639019538 15.3463286790105098
 10.8305136011734202  9.0754659682317502  3.2126058531645194
 23.9872387289905546  1.8974270212286399  3.1654085887739387
  0.9143224099713283 12.8679896724871217  7.0345305306473191
 13.5798637634361068  5.6010179797780095  7.0145077739906618
 17.6895212793593934 12.5394620377196144 12.9608952708273204
  5.0859647171953162  5.3614188427019585 12.9714403149310442
 10.4331556466767363 13.3577513654148614  1.0501575612709595
 22.2760524261400334  5.7438778979901546  1.0326637427051375
 19.8890570256591559 12.5532823434638132  7.0212939772791660
  7.2349118043407898  5.3272607219349863  7.0114514839283215
 11.7481200220786590 12.7258900476135395 12.8639943494015139
 24.3793452851319472  5.4739404383841315 12.9304839808110792
  2.1907042170637938 13.4552357658191237  1.4743574155105079
 16.5598842759975327  5.0817400301880200  0.8348922710575596
 19.0964767287598889 -0.1348419903943985  9.3847982326740258
  6.5622682684356812  7.2803782786127158  9.3520890578699873
 10.5925904353037712 -1.1149939858333182 15.3304204719632917
 23.1907124780499956  6.1077604966020509 15.3713770892146027
  2.3547507757140274  0.8702518182087722  3.4006337526295334
 14.9862358853465789  7.4913177178968464  3.1965223026326295
 21.9966919654867468  1.5763742736809359  9.3829675549292357
  9.3463178600780132  8.9210623987380728  9.3130598089541490
 12.7847753233762482  2.2749444135571943 15.2737021049428066
  0.0457172758467072  9.5565745532463975 15.4422719332654648
  5.3693799979685668  1.7614429529336342  3.1147300030715739
 18.2242443207013984  8.8717844002682877  3.1651216732045340
 23.2040963800978552 -0.0084279203890713  6.9597707001183498
 10.6634441953155541  7.3148177148171234  6.9745005133400308
 14.6997540679666532  0.1648673258333917 12.9828764005526480
  2.0712057931130357  7.4460412209357569 13.0436477567819633
  7.4407666152940797 -0.8414048467454311  0.3290986800820185
 19.1714550768176402  5.9449134871436913  1.8083632780571761
 22.0413759429081111 12.9275963785130834  9.3565495262983713
  9.3773739245795973  5.6524353091738124  9.2953742164779634
 14.5120949154818177 13.4399276627128650 15.4652984258667487
  2.0325984600671601  6.0885141810050962 15.5222224159181437
  4.9583564860613825 13.1306701750039547  3.0798815957006420
 17.0057152838882644  5.1512594591352325  3.5452865613855806
 19.8526773611565197  1.9667818294353465  7.1813858880305732
  7.2502597636850572  9.2592344202784052  6.9435408993563597
 11.4347580574227408  1.6464617990052337 12.8858078101347466
 24.0291833819508298  8.9543596144427280 13.0058814860088923
  2.0405434064875396  1.8974118083080047  0.5317181175782779
 15.6647910629465397  9.2454673700085337  0.8139090256315409
  9.3397432067747719  5.5403895080755303 30.3350205516309401
 21.7564791206859312 12.7360211735604576 30.1809782912975564
  1.0012876007719476  5.2995910406596964 24.4105379190603244
 13.5842062735860232 12.7113681120520994 24.3515958290714742
 18.3830322325978308  5.5534995171803088 35.9073252000851681
  5.1432241804799856 12.4568217961928038 36.2748845260240742
  8.6005440133853011  3.7257411523074175 27.9495776057317826
 21.0490743012441719 10.8179451810202920 27.9002537506792976
  0.2710615993228380  2.3801511201154359 21.8646923542444647
 12.8641320564436228  9.8082757767946376 22.0198709898325653
 16.5100687552103196  3.3208271310817956 34.0230265861774726
  3.8080586130806302 10.5301938640618982 34.0175765865355686
 11.4279809950511417  1.9652401800568444 27.9136891658334534
 23.8641977745274474  9.1499604893588788 27.8289330347636543
  3.7714772637699112  2.4017073441167947 21.9262932662635670
 16.6539463943137207  9.9257442413072070 21.9484838386527024
 19.6600323713598826  1.5863574957241258 33.8840420057846359
  7.5219270663892397  9.2301613031445289 33.8999361468539320
 12.7836508858925804  3.6260353180595266 30.0934496660071176
 25.3203367277239835 10.9095641886096590 29.9032631852323050
  4.2556705095982093  3.8629392952640655 24.2140886340406176
 16.6731591049647569 11.0751704943054943 24.5669896627384006
 20.7065832183290048  4.2540603263330503 35.9609197034495267
  8.1877623694070518 11.8463936154084148 35.6248883460701720
 11.3856262239064954  5.3158999437354790 27.9413355361936055
 23.8333934454780199 12.5241772605274075 27.7898392187204983
  1.9332134104847991  5.8033105192717640 21.8249932943248375
 14.2811099518359708 12.8375439865680026 21.6602977643744516
 20.0184794092696912  5.2159344704121722 33.5939212485575425
  6.4844851320626935 12.9328162312936072 33.7708327035843254
  9.3717690639809010  1.6631006793715735 30.2396086882528365
 21.7577102128981394  9.0240981516528596 30.2039180634899260
  1.3271765920855270  2.0039349985822072 24.5719362926644749
 13.8957437163765753  9.1399864550145313 24.5030871528435661
 18.3822978444944880  1.7273221386931259 36.2000575952029280
  5.9598235546689109  8.8880488053446065 36.1004662960650435
  7.3230489551694680  8.8929020393915614 24.3773147984053971
 20.0621248280328182  1.4693829504600897 24.7138317378102101
 24.7287763144955619  9.1480783265691805 35.7559707556109814
 11.7322267770667334  2.2310831882786917 35.9624026064551501
 15.7595179364017941  9.2527015866579774 30.2665872056912306
  3.1368088129332898  1.9645516905087010 30.0915596779320609
  6.5423917686436370  6.1384893168174175 21.8490821156962802
 19.0850174324971746 13.8504295829932857 21.9610014760558983
 22.9726660478649158  7.1645276969989728 33.4704215540369177
 10.1801518178813222 -0.4563446231592256 34.1460411437265918
 14.8887229984568208  7.5600353438771002 27.9599927416156397
  2.2781987242561654 14.2706605117944143 27.8071974658459631
 10.3949545250261011  6.1914806155053146 21.8741114986183298
 22.8576161804837703 13.4659547728282014 21.8331752795538776
  0.9916910410735549  5.0301859886210289 33.9260285053371220
 14.1754752956495764 13.1894864811828718 33.9806537317939998
 17.7247175812906761  5.5959098573216419 27.9527661017060396
  5.2978700835053374 12.9864092311428241 27.8260325131048241
 10.4769693034340214  7.4144920455547121 24.3332071394527354
 23.1752643634402631 14.6991428397950941 24.2142255626035698
  1.9227889723690950  7.6411990721475584 35.7684583153783251
 14.2111569920391165  1.1341059936471589 36.1022828107230964
 18.8381688862320011  7.3565511673034587 30.4615088228506252
  6.4568130882353527 14.6503226212637880 30.0644231280388468
  8.4056628695678253  9.4993188827279038 21.8969708660810305
 20.8071193025065817  2.2510479569357482 21.9671665786602688
  0.8053825291413974  8.9766274453775416 33.4408659521441578
 13.1645654177579008  1.9284241327025713 33.7022156125327612
 18.2591778039612187  8.6107521143095589 28.0114845128214789
  4.7003767888029948  1.9902215026774281 27.8252778396581668
  7.5392573537937615  5.3007315257612611 24.2068595224917260
 20.0947598976381272 12.5927397943743884 24.2203989479451209
 23.4462108376573291  5.9103983724995448 35.6893869969944149
 12.3728500249006874 12.3839374322804936 35.8175786840651469
 15.6316606353151162  5.2667427053978892 30.1190460160701790
  3.1212177449739169 12.5783118625616215 30.0606342857763380
  9.3756462142738624 12.8659483058563300 30.2425378878533202
 21.5687399505708761  5.4503850786218209 29.6727806076292957
  0.9159041909144523 12.6272476598378010 24.3311850303024109
 13.6178307705169033  5.4028649196246263 24.4055404945996166
 17.9792364891870236 13.2831592067576931 36.1385955219318120
  4.6797903323636314  4.9310958762280572 36.4537125109168159
  8.5714631379506567 10.9638728109415524 27.9586761321746735
  0.3164404575749491  9.6199782447802740 21.8027695818560296
 12.8691130423224376  2.5866733282729504 21.9970061963992372
 16.6246670362127276 10.5604567067835475 34.3792210139261059
  3.8797112420960866  3.0377414468778707 34.0068622243239105
 11.4572200081329445  9.2760770867432996 27.9401382814042805
 23.8979515696945981  2.0334186750028733 27.7223047188012934
  3.7056360557187333  9.6282518595345881 21.9522299233508846
 16.6023210008081712  2.6731200687196557 21.8386028998138535
 20.1893208088003497  8.7084733338778193 34.4792995995198837
  6.9055891437302082  1.4752963782770301 33.9809821199715785
 12.7544372266279957 10.8851632486796728 30.2601098719992336
 24.6861627207987482  3.6608300635903563 30.4801542430806336
  4.1144761258243490 11.1043315478236195 24.3361151717154200
 16.8729371956121810  3.8402405774916795 24.2990636198822152
 21.4121747541582224 11.2130938131633275 37.2431773307923919
  8.1365670300191884  3.3050759832267751 35.8929988488887801
 11.4078510257075987 12.5137316924871147 27.9354639823113189
 23.8638394422776337  5.1610951079606950 27.6643738605023444
  1.9734102185873581 13.0571403580508534 21.8185670037354669
 14.2735728261432815  5.6192077681948316 21.6632930556202155
 20.1066370292740544 12.4491690738886174 34.3879261756633738
  6.6157258830895653  5.7451975374589761 34.2632372127467661
  9.3694051320898311  8.8856165374587324 30.2278925698205256
 21.5316047964040429  1.8001822181804528 29.7093978810821113
  1.2279401141329462  9.2032228276142867 24.5161118947002628
 13.9495419748323464  1.9480947513023565 24.5498083547182837
 18.1071668230291429  8.4159970758242615 37.1933547466661594
  5.1738418101011883  1.4005408172127305 36.5386066365034239
  3.1293903400286078  9.2722642131591186 29.9550090952169654
 15.6433149238057503  1.9301006342435512 30.1043197775663351
 19.6822765444549397  9.0205130260773316 24.1654650560172932
  7.3980725537026348  1.4791156250221895 24.5524873367851200
 11.6606291297556197  9.1608830042161422 36.1693546160763191
 24.8489685884548059  1.7591767106033471 35.9356048883923336
  2.3205102818461341  7.3028308184256456 27.8032885748089953
 14.8827452791749231 14.2729690577551445 27.9359583985025814
 19.0375311214455074  6.1220705768661210 21.9312733362596823
  6.5509658352190421 13.3937074611110969 21.8572204147554139
 10.1874571666267997  6.7809241764290640 34.3148992171816261
 23.0783142708611138  0.0257631986082689 33.5135231194539571
  4.7331144528100504  5.2961067753154625 27.8678244001482334
 18.2851036242833302 13.1571057409589383 27.9868246433879726
 22.9359264633248330  6.1450562721437754 21.8691265380207085
 10.4026499716546983 13.4374828186413176 21.8644850005766962
 13.3115787748584200  5.3136266450336240 33.8218037103165088
  0.9391486664242770 12.4524050926960150 33.6087770958345331
  6.4427163148490694  7.1145298960270207 30.1685758848460281
 18.8683183568977242 -0.0868790326939771 30.4280424147501307
 22.9700453203527744  7.4702975476619020 24.2690483795094707
 10.5311389773229163 14.6712582643971245 24.2977181083653129
 14.6187624726707970  7.0549874702374495 36.0048913727752549
  1.9633451529372985  0.1481965275262346 35.6803213499822576
  5.3688269770201158  8.7196051409510389 27.7932608872161957
 17.5935293753031203  1.6178508762049275 27.8978336209438389
 20.9381290591617280  9.4895646246995859 21.8434318431528105
  8.3527848785249557  2.2380200026390797 21.9521716154230191
 13.4618943489706915  9.3162251977602129 33.9576879048008848
  0.9916152590608018  1.6133183067219312 33.4791329850520540
  3.1369520892524498  5.3018423299937734 30.1721008095537364
 15.7453118248307185 12.4754980535954090 30.2325312057701581
 20.1715299705459756  5.5521013126131979 24.4448162369091229
  7.5758411933247300 12.5349494349761574 24.1808507446581871
 12.3573478503585310  5.2826667031999515 36.3050620032691214
 24.3204449459374281 12.6168543531767536 35.7772835091143691
  0.1917130004800611 -0.2005692277524220  0.3089563987249569
 13.1443215485894580  7.8355276354944206  0.6069125521952299
 16.8436070335977917 -0.0350188773822880  6.3667550605685683
  4.1941520806828434  7.2786308350122892  6.4193288252606653
  8.3913819867020756  0.0324857114635510 12.4444141366378798
 20.9981978195693877  7.2616113037696843 12.5234732336967127
 23.0908708465431829 10.9029530429145076  6.2881870785002727
 10.5261624458473459  3.6556105917710795  6.3566221076500531
 14.6969343730551909 10.9012499527552933 12.4513308079521252
  2.0652415464746450  3.6324374165010389 12.4793327021239033
  6.7642646601692977 11.1025894220442733  0.5796527838601740
 18.8696732630000952  3.7520057079032578  0.4901063213368190
  4.1609561289590369  0.0563728780428292  6.3104200751798869
 16.8420107146316056  7.2873833294970600  6.3494842098248130
 21.0146992602410236 -0.0185554744368300 12.4956939249786583
  8.3832684014458199  7.2953472415718652 12.4541621452978220
 12.3435186337491345  0.3416909382215852  0.5865448759363973
 -0.0397325194421456  7.1516610047188545  0.2868699942948124
 23.0866308939907725  3.6149094117830431  6.4311450928660712
 10.4629718126663978 10.9259326520476527  6.3023780352095446
 14.7327533462952012  3.6473387575407612 12.4563879084870752
  2.0669360321888441 10.9148827538749114 12.4443485037299286
  6.7965032550546161  4.1489737218736167  0.6175416893298683
 17.7342397498188049 10.8883602750090915  0.1917882725559276
  8.4212914096253702  7.2221600943261732 18.5949380570849776
 20.7838206200197639 -0.2826261234848099 18.6145992359989947
 25.1087338034064551  7.1475652810515289 30.5326848833007105
 12.5745380181043931 14.4949651618979836 30.8853721128005496
 16.8385017274014395  7.3319117800614677 24.8210204163403567
  4.2339783593893063 14.5468921117611778 24.6809082921433109
  6.2153914950226072 10.8793029022781607 30.8454675857649079
 18.7342748881460324  3.5651406131899512 30.7946231409864204
 23.0433272994825025 10.8854825754926097 24.6979385195281722
 10.5214383684584174  3.6278098657606455 24.7864205332618965
 14.4429540072468896 10.8209168242214613 18.6517816630028115
  2.3374567954209668  3.5939338955029849 18.6051661334095222
 12.5539400051092080  7.2516724716205694 30.9397827818462758
 25.0661428185445985 14.5533312840098770 30.5420809309428769
  4.2340416454323355  7.2605650606669707 24.6967877530253155
 16.8544107364010642  0.0358023965335782 24.7659500072636156
 20.9895938699829934  7.2450038912717352 18.5970628173205483
  8.4159263824494435 -0.0462035091861320 18.6001515507040764
  6.2723698596291495  3.6208039976889808 31.0181462885529946
 18.8933977167660458 10.8580907052054343 31.2243770837170871
 23.0534594959571102  3.6457095845922538 24.5774981564134265
 10.5291904671300056 10.8875990008970760 24.8036307664326898
 14.4756384505522426  3.5796731958701264 18.6158668446408129
  2.3872980944324271 10.8748574166409888 18.5974145231260941
  4.2205821420729022  0.0367564186937818  8.3982686812420670
 16.8012938357151818  7.3393238452687308  8.4375780569141146
 21.0200411683714670 -0.0241319812424214 14.5390561842651973
  8.3816557409591912  7.2728099595590372 14.5078046198230339
 12.8623788246936108  0.1442506513769461  2.6925303012121762
  0.1649764197735903  7.3673767981045843  2.6027831725751835
 21.8827041697131577  1.7231636515767146 11.7852692925126128
  9.2322317624979018  9.0440673718787501 11.7442250658738523
 13.5564418530401820  2.0538509141189882 17.4804607513274775
  0.9771363851262196  9.3767589557751858 17.7247809641782652
  5.0987306309325371  1.7458220898058769  5.5864474140385010
 17.8041707335295065  8.9647386921238059  5.6339526899831176
 22.0840952234223344  5.6381864240270234 11.8318352549466503
  9.4741513048235841 12.9639668910636274 11.7148217653567084
 13.9207884099736710  5.5357872770161674 17.7233710690564656
  1.4224603660820103 12.8240228682095285 17.8576984250119750
  5.1173895180544031  5.6073668155222629  5.6555604095088547
 17.8190387415086811 12.8421639451579068  5.6354337162589978
  6.4466371793770749 -0.0873233508951475 11.7372555889668391
 19.0570661418827569  7.1200128467194199 11.8155796586062145
 22.9656675309148639 -0.3829300976390723 17.8858920909537424
 10.4282612784143733  6.8742934302278851 17.7640908181887482
 14.9316914312991695 -0.0001421674542231  5.6276692321777961
  2.1984882076787633  7.2509264389937211  5.9255210401070153
  2.0860797724641706  3.6371228863339815  8.0334798613322143
 14.6637140974552036 10.8980145166430891  7.9334322673571753
 18.9062206301615561  3.6103896508750877 14.3080993396742802
  6.3030856465596745 10.9312285785741583 14.1992912421933113
 10.7012696990413225  3.7240058472568980  1.9010171624380547
 23.3232876723366260 10.9829404443982952  1.7293807218836883
 23.1041665698871022  3.5869293961327093  8.5180474715720340
 10.4398355209438947 10.9115514590166196  8.3957458823117754
 14.7425663547031434  3.6703299185971101 14.5003223599842954
  2.0746749968785712 10.9183373121750691 14.4894002865539342
  6.7044199577387493  3.7569797659549380  2.7355576967003095
 19.0759017359058838 10.9338260521700974  1.9327205078318326
  2.9366138121588667 12.6588253250272889 11.7369073657393415
 15.5988885576928187  5.3912608145206500 11.7379264464383599
 20.0485329995808925 12.7024022572870603 17.3628282093269313
  7.1172488588114105  5.6507847186543039 17.7538543704207541
 11.4516211937968055 12.6158921637836361  5.6744883034429101
 24.0389776874758354  5.3286058592855738  5.8103763177570356
  3.1504730889057067  2.0054686106000887 11.7864778874959590
 15.7532579361513818  9.2603924976606322 11.7507567138052504
 20.1920678084032552  1.6906910317913382 17.7347607113572039
  7.7183388853424795  9.1273571633634365 17.7410481063880709
 11.4856707590446074  1.9835068639728475  5.6575349759929070
 24.0713418788323352  9.2133961754807547  5.6457097606730944
  0.1144394348445445  3.4908126610918830 11.7941041576131127
 12.7476735075657732 10.7732555205201361 11.7503018355504167
 16.6331388965528220  3.3564761617528789 17.7843518619191201
  4.1116605782583466 10.9794792286656637 17.3595800179316235
  8.5862389868642168  3.6665316133803287  5.6856831835304584
 21.1597172801644327 10.8887249730231268  5.5669601031937201
  0.0119553067682360 -0.0208800967974366 14.3344756269112867
 12.5699303109390055  7.2524914648255434 14.1953752550384511
 17.3536706175443314  0.0997938405748523  1.8916027326877130
  3.9548382838083045  7.3022587702799155  1.9143297394778489
  8.3885302089803577  0.0351712210791844  7.9283177929545330
 20.9890169236139563  7.2739405693132708  8.0356646826556837
 25.4343479378552146 -0.0612770580899739  2.5921513217277590
 12.6585117062974746  7.5477388898326137  2.6730017430849626
 16.8074371891940757 -0.0740349094223183  8.4573338400110405
  4.2905448968687052  7.2889486529289629  8.5004586755427720
  8.3794413322896961  0.0048515726205383 14.4983270483078837
 20.9969461204845018  7.2914328234541266 14.5734213577688489
 21.8667240528320761  9.0016983720113544 11.8012371089700849
  9.2523810479545805  1.7823002021040393 11.7464477466094195
 13.4931081061596956  9.2734844038716133 17.5749349139892459
  0.9241510708421464  2.1053770339930029 17.7315161833223378
  5.0934282631771710  8.9465318449897495  5.6251209850590067
 17.8249245140660015  1.6736210254218260  5.7748509323588371
 22.0848674607983959 12.8896119558666946 11.7873029357925869
  9.4605121240915793  5.6845304448508758 11.7223463642601811
 13.8478706428036258 12.7684368201502370 17.7370069936618044
  1.3733019198803493  5.5566703574716101 17.8503372383318428
  5.1044740183454200 12.9412851620177047  5.5504347631654873
 17.8364117204420545  5.6031382279120230  5.7386182175142757
  2.2036760848533015  0.0620836433656065  5.6862814065483303
 14.9196122880211632  7.2333371774907445  5.6133849420384703
 19.0620075379641527 -0.1449804625076165 11.8084326322251094
  6.4370686413790352  7.1702957202415805 11.7557211792598437
 10.4225089210603432 -0.3858568347478682 17.7663156439397163
 22.9966135323449130  6.8923605794819540 17.7460506665118949
  2.0834579319610791 10.9286942611124509  7.9791238537516564
 14.7286796916564509  3.6402944817071168  7.9789191151000072
 18.8665039413939226 10.8621627717754130 14.2292772538431205
  6.3061988604870116  3.6561962643125683 14.2136766541612456
 10.6177581479537118 11.0557012582119629  1.8684636643416614
 23.0830669142233340  3.8651103922534755  2.1183785384482823
 23.0639208877431976 10.9099544496855891  8.3743014164790086
 10.5511211780477012  3.6650348272222302  8.4446888897208332
 14.7212822811917086 10.9324449867543478 14.4979580568196660
  2.0743222362522591  3.6399835103874651 14.5219405873075083
  6.2127290901113437 11.1252256979073696  2.6445025179722808
 18.8379290103553600  3.7309180480172861  2.7887310408228410
 24.0639025890459024 12.5690186941807429  5.5832965545462159
 11.4711284763795209  5.3443411079311840  5.6371206728409602
 15.5658564825163346 12.6363663078626249 11.7279827909027716
  2.9189629828681674  5.3798700151161318 11.7637973440326462
  7.1170776107448388 12.9244448075477667 17.7483918803776710
 19.6709441188824492  5.6774234760101621 17.7726799335312649
 24.0639915114113627  1.9717212634478614  5.6767424321291706
 11.4267527397233160  9.2589525768055712  5.5942852831871654
 15.8047693790215149  2.0209414837335635 11.7565197773822288
  3.1517454854041573  9.2846594187009757 11.7571338332792052
  7.7157281015453121  1.8620749836527757 17.7516206822860667
 20.2947997265923732  9.1507834120598481 17.7435006352007356
  0.1211124792961717 10.7873645112620391 11.7471907083108587
 12.7795360564328444  3.5181713815983735 11.7643317904779909
 16.5494596096609747 10.5815857939488804 17.8081903237967936
  4.0674995485900221  3.7008461927995260 17.3721416489157860
  8.5411287459679102 10.9421127453889664  5.5675768229758509
 21.1373030658992285  3.6125747610038714  5.7953258534625913
 20.9924396859190807 -0.0257228868773887  8.0072274772921919
  8.4010399736081993  7.2886781181809264  7.9272110314526429
 12.5900943797806963 -0.0033401456614465 14.1985424757181491
 25.1917560183984612  7.2664409883525334 14.3083861362276359
  4.0719705467947991  0.4254924513199009  1.6489685419395912
 17.0415804930366654  7.2055338224636518  1.9484361120119436
 12.5418105185671838  7.2847298382278796 28.8490280640853243
 25.0747659267462915 14.5153878363396363 28.4705598876180694
  4.2144489870926582  7.2168155480982294 22.6467094517965961
 16.7970415230530818 14.5876937815812582 22.7295373048564642
 21.2119003101337817  6.5962605840605599 35.1179187774400035
  7.9324075587086487 -0.2735952766029617 35.2734697346437613
  5.3077544147056566  5.6746235156730744 25.4648259718943848
 17.9235364834050515 12.9499179155443436 25.4967877924062947
 22.3678980312214115  5.7686330761579487 19.4389131305754503
  9.7940896413809426 13.0113597639489402 19.4482260073332682
 13.5581546867147580  5.5361958675503660 31.4949214557699406
  0.8866525219693467 12.8861127625657943 31.2179355910479934
  5.1098448407184058  1.7516792677540136 25.3713380556429620
 17.7014518243632537  9.0415122611802374 25.6150887139128649
 21.3606401886261814  1.7096916128151096 19.4986230659810857
  9.0077388815855102  9.1565406486026344 19.4340898655129592
 13.5662258730010432  1.6817040962922745 31.4310716927101197
  0.9078622889904088  8.8669137936096156 31.1184067584290034
 14.8931607572296905  7.2042104503936928 25.5512917781460871
  2.2868886161295374 14.4567089657923091 25.3974187487080663
  6.4405443706889010  6.7803616759898091 19.4211157058899673
 18.9723954892285214 13.9518713522800653 19.6193459774522765
 23.1303666393936211  7.1296218753830729 31.0978938342326181
 10.6401351063761762 -0.0200623941353674 31.5958510891320685
 10.4931169076884068  3.6225137826310236 29.2934740527010931
 22.9931244454628825 10.8631887878847042 29.1936237313789348
  2.0993303298562904  3.6625006516813832 23.1099894047509764
 14.7260530813595079 10.9318619309322127 23.1927547044747371
 18.7418980988579023  3.5918850745227733 34.7244591403784781
  6.0229142667815712 10.8461572500460672 34.8227623327023181
  6.3702164525275542  3.6672126519401171 28.9482382846787374