Cl48Li287P48S240 E=-2539.898505 eV
 1.0000000000000000
    25.1819793006824639    0.0000000000000000    0.0000000000000015
    -0.0000000000000009   14.5388225279766061    0.0000000000000009
     0.0000000000000000    0.0000000000000000   37.2126966544236950
 Li  P   S   Cl 
 287  48 240  48
Cartesian
  1.1376854094364184  1.6860497137238402  6.9480331564055664
 13.7274316177044131  8.9530178089161971  6.9473024035351463
 17.7806982034671677  2.1251132793970071 12.8869715911014584
  5.1727112193089724  9.3596898416700789 12.9331304205003175
  9.5888491994344971  2.0408461803915685  0.5818712538760056
 22.2386040749757186  9.2463932120516930  0.4684849318683937
  0.1447420615356985  3.7950815298075220  9.1945242744751230
 12.7284380762886311 11.0630684092174025  9.1937342579388037
 16.7550018038006456  4.8097465154619794 15.2632993345515349
  4.1529648493386953 12.0896167699489254 15.2850149066779863
  8.7884951442533836  4.5011049264392211  3.1555642876229038
 21.3588207692472487 11.7309419774355650  3.0954931386551201
  2.3966741134086300  5.7651948613888049  9.2039881750278187
 14.9815561890284208 13.0260076742308932  9.2070778262015107
 20.7946234421810061  5.0949079564529622 15.2357357603686392
  8.2000376148482470 12.3291782664180616 15.2552305816117943
 11.9556441671295577  5.5604975933637055  2.9594043498871643
 24.5606331672002796 12.7815800183105370  2.9170862892911207
  4.4109676898816881  3.6761756108759598  7.0544565681213625
 17.0022652608750882 10.9396681240639282  7.0640647332257096
 20.9437581821309600  3.5353240547534117 12.9704288462500994
  8.3462615384869743 10.7889264321522749 12.9893996334990671
 12.5984417112720788  2.8332024294851785  0.8672807540752633
 25.1840024613993485 10.0955521713511995  0.8126629917171284
  3.0098430422595768  2.1936700248258534  9.3623293128128058
 15.5764398842925740  9.4408255740904146  9.3606421302557532
 18.5720812224514731  2.3953856377056519 15.9300553881152318
  5.8901511977403791  9.6723717066207193 15.9550557017595391
 11.1071489721330803  2.3421731378900441  3.4305387582331428
 23.6507443097899532  9.5254489423739948  3.3645088567457528
  1.0693515579037205  5.5264901395735047  6.6753291255819978
 13.6607455340730777 12.7889747959885796  6.6739207175144566
 17.8508773704135351  5.7788434986734414 12.9090713297697075
  5.2563432115207727 13.0361302515652930 12.9174468474256159
 10.0517293157132190  6.2346119072685866  0.5378200526876671
 22.6551958443327806 13.4709134524214900  0.5496641246700547
 24.0737405046426964 13.0244618619772616 12.8899354701876057
 11.4693777199807485  5.7366846140748944 12.9193961717907602
 15.9386774480912408 12.8918656863556080  0.5269332825835463
  3.2721823981848237  5.6722119652096676  0.5258931148739019
  7.4345058374798345 12.5919537398824595  6.9574257399279897
 20.0309438387103071  5.3146675647352026  6.9564790998248665
 23.0293010332072932  1.2007725384722625 15.2521565513069923
 10.4462124313459057  8.4661646720788379 15.2755348297210656
 15.0699603424580424  0.8364657780673054  3.1212236790383301
  2.4665103279382734  8.0713843146567985  3.1191792677131107
  6.4383829022890167  0.1619429192028713  9.2115783256944166
 19.0370182452432246  7.4341064816744806  9.1883178733551407
  1.9242841940374029  1.4412558638719932 15.2585770613156519
 14.4912540533757852  8.6912652629932303 15.2706821280408143
 18.2482959325557843  1.8844353902711495  2.9449073064797764
  5.6346029741456425  9.2036449265266960  2.9228308562950924
  8.6919228678984677  2.1303059878946464  9.2180500296433827
 21.2863833467935173  9.3990690958402769  9.1994733949009788
  2.0586548116697045 -0.1014398496172685 12.9834896000413131
 14.6398948929452501  7.1605967554907322 12.9897774732052298
 18.9013198788279659 -0.7944853636272152  0.8340738388038920
  6.3085447668126280  6.4738981660101382  0.8396335556040828
 10.7023952810181662  0.0312134307416412  7.0633513646428714
 23.3010245809118857  7.3167279093277724  7.0414822787963267
 -0.4322957141874314 13.3224006285418302 15.9331854197523466
 12.1997713711538296  6.0303828792506753 15.9413102484667295
 17.3813352191693937 13.1834612089161904  3.3914926915523584
  4.8056150635771120  5.9506134531531050  3.3939801259673543
  9.2967370130722813 13.0898732371469926  9.3692933328233252
 21.9167677394139879  5.8312241553010811  9.3556436274835431
 24.1448509586931301  2.1482700307669296 12.9048146776510144
 11.5494046263753347  9.4013740102412555 12.9095699492326439
 16.3548113637830106  2.5870321665289318  0.5487150097589502
  3.7278908749058002  9.8701287426960960  0.5131743454649695
  7.3659121058493371  1.8894371075869709  6.6884838818926413
 19.9663383334790971  9.1605953575815811  6.6696706054261341
  1.1241436656747781  8.9709609507648249  6.9183065145091929
 13.7314283664932013  1.6897193422682990  6.9432871600805397
 17.7593010778145874  9.3763042312444913 12.9025274776720043
  5.1686322767950719  2.0917078259447064 12.9461938011905904
  9.6127440166297582  9.2870572195147858  0.6066462689015498
 22.2757588103112631  1.9186672774088709  0.6618705834930427
  0.1395004644267133 11.0772616417587333  9.1839396841154368
 12.7369935727339421  3.8002487603078383  9.2002294106581228
 16.7277205072066906 12.0884470490628466 15.2550887261280295
  4.1626998571342861  4.8284880184020738 15.2758932397319374
  8.7926232054200444 11.7668660225663206  3.1503880030314089
 21.3775430987434589  4.4670468010870499  3.1477275475011712
  2.3921998901908683 13.0303455553619649  9.2035285278087091
 14.9848204943388250  5.7601194006576337  9.2128826266088861
 20.7893380421608747 12.3075343768516401 15.2667965673116353
  8.2019547806369868  5.0589147086207298 15.2629850831601264
 11.9439984698128665 12.8196294224648373  2.9742585036584992
 24.5786535880933883  5.4645041670927039  2.9985663337806012
  4.4101793726810055 10.9249368608666195  7.0593692362380009
 17.0083257069053388  3.6540350797628247  7.0637049565837868
 20.9390275333202354 10.8026554246231328 12.9708646786105071
  8.3510590941988134  3.5266902203149684 12.9891167332697179
 12.6201714777654530 10.1067288182509571  0.8685054431935256
 25.2186956267739220  2.8212689864819782  0.8577966040353501
  2.9702039893027017  9.4359695404364992  9.3499314446728707
 15.5824839109691506  2.1670171766984625  9.3561600504400140
 18.5001558033226168  9.6770741690693090 15.9272668617547701
  5.9155644608414670  2.4093793727646080 15.9612302421014611
 11.1253728618196455  9.6009356216333028  3.4254217746255193
 23.7101004960612585  2.2594699071373103  3.4188198315619704
  1.0626132656328424 12.7850308886109616  6.6622025400224842
 13.6602329621681342  5.5142994702848069  6.6787028537698303
 17.8422255798618892 13.0502027406359318 12.9084828668014264
  5.2652540301819784  5.7656051335586032 12.9104824876714463
 10.0618096864825102 13.5027697883376288  0.5232591912972664
 22.6968098755935053  6.2100052088399913  0.5633700410159752
 20.0204669861771762 12.5964568099683305  6.9202837372383064
  7.4232885012137029  5.3315292848603635  6.9347666832057948
 11.4633190247988850 13.0018229155885248 12.9330908613602915
 24.0633757044751988  5.7380300373927247 12.9250661526865258
  3.2648062048374351 12.9773235703718921  0.5662447290323231
 15.9862099955795305  5.5704147777317647  0.6646423317866429
 19.0290695665545968  0.1663896115783211  9.1800877196664050
  6.4325482421576137  7.4461047312344935  9.1937054474196191
 10.4550051862477300  1.1688281548639317 15.2857727698103290
 23.0454722720758376  8.4456225888168692 15.2656616557167943
  2.5151149516118556  0.8781964779495589  3.1644564274334570
 15.0996317718690811  8.1329231494753653  3.1616604975739313
 21.2775530594748652  2.1207855792519683  9.2017949900284481
  8.6824127864185847  9.3958140023437853  9.2102564353447587
 14.4918130198866795  1.4353460316893685 15.2336216091054926
  1.9183055469793524  8.7019042902033128 15.2660058698582404
  5.6929956733334013  1.8947232214908536  2.9910298617775433
 18.2721073058062728  9.1201579729482471  3.0071662313834553
 23.3017975074776231  0.0180650474248809  7.0544526571080652
 10.7064765952729850  7.2969542345652814  7.0710658476007344
 14.6413866316684427 -0.1121058868063194 12.9754900551764880
  2.0595011295304162  7.1720314732985013 12.9786629489856811
  6.3158057433977861 -0.8158427365404787  0.8795331237583666
 18.9332151782873019  6.4641366723315565  0.8667175130557665
 21.8661255873782174 13.0631022843524178  9.3446905539738765
  9.2660625731000756  5.8052335869904592  9.3607093371827670
 12.2629819067324881 13.3079085199088976 15.9555073165817891
 -0.3714097736169546  6.0612491615378188 15.9613217937719210
  4.8290634005451487 13.2399072562126445  3.4310172748203338
 17.4251145158048608  5.9192672514591855  3.4321803749137727
 19.9523716990948827  1.8741597333708815  6.6641130508868196
  7.3599186943327242  9.1505516837573193  6.6666513460356267
 11.5534552458732502  2.1335248529148343 12.9222429369331895
 24.1507328702449229  9.4172415256887110 12.9158750940214446
  3.7974926961021778  2.6002041271434195  0.5534577966830688
 16.3943788460827520  9.8548795780638248  0.5566146922170584
  5.1442609334101137  1.9759216512376176 30.0314334050536900
 17.6829377784000528  9.1929700625275323 30.0626097064363123
 22.0556488951187362  1.6135793422868403 24.3406380709436441
  9.3201831075459509  9.1253642741612477 23.8059371340449353
 12.6496553669261669  1.0062174920559210 35.7897248827526724
  0.0786241726827646  8.2833802611979408 35.7740315441435612
  4.5458253011626004 14.3994171997912179 27.8215379010568142
 17.1550039871772171  7.1118002284794031 27.7969906481480535
 21.4496011360101981 13.5644383848954906 21.7997332922779030
  9.1445221034371205  6.1289905392733051 21.6277515998956211
 12.7194647910454517 13.6127251039025232 33.7247144188558536
  0.1235961836321901  6.3923526012135081 33.7052133763181487
  7.8401195605099208 13.0882978473948572 28.0781125725086156
 20.3667012934449545  5.8017943473439750 28.0687404057485566
 24.4223681546434861 12.8401758142652387 21.9533910640691161
 12.0020848733493626  5.6658735090411758 21.9760267603151789
 15.8018710499244914 12.2861762336365956 34.2297897824218254
  3.1899495888544398  4.9813537059803830 34.2088355105541808
  8.3575730357274018 -0.0276008637378012 30.5124013198466706
 21.0175024813337963  7.2961153386291802 30.4666324625559604
 25.4339579826220614 14.5783761229217195 24.2389149700028916
 12.6643254399698151  7.2403222708075070 24.5296141532251255
 16.7235034588318605 15.1238123371335398 36.0951265938284607
  4.1498819043449258  7.8200228315527767 36.0856352797123066
  7.8426496297421826  1.3326911600113196 27.9700098966910602
 20.4269402953845862  8.6466015829131084 27.9612350405693597
 24.0210655084599196  1.5193441628111011 21.7776328238789283
 12.1874440823198160  8.5761476268354553 22.0436763488312373
 15.4535361529681641  1.4795460294138334 33.9648052199888966
  2.8750630620495250  8.7093159273007608 33.9571686815789562
  5.1420984716404412 12.5574881774338518 30.1579119858369182
 17.7239241636563740  5.3371378528039619 30.1954406874332442
 22.1031703068741301 12.6647840421472839 24.4178990464436616
  9.4958478257537120  5.4473080952560746 24.3651083020251740
 12.8423499257053066 12.9271491362013506 36.4826532686049632
  0.2097141864512420  5.6521329593612473 36.4170597028857159
  3.0893986867664056  5.5429091554330130 23.8500084313147447
 15.5954326630326250 12.6922265226943551 23.8995392595626122
 18.9744355445914188  4.6419354283662102 35.7959583321066432
  6.3680561914143787 11.8861409219456071 35.8061704163583485
 11.4353056633442129  5.5967657972390139 30.1115475374388488
 24.0767463639720809 12.8804339789344429 30.2314482919084639
  2.6217104065396568  2.6157228263392218 21.7978163414079873
 15.3511480590495442  9.7931034389506930 21.6877801306029099
 19.0333511337153958  2.7302017509069065 33.7372388710563058
  6.4557610811804818  9.9241779545463302 33.7703166904747931
 10.8247224663717390  3.7837041587541065 27.7638738801962077
 23.3962498302484363 10.6625718636728379 27.8109380350357078
  5.4970951294478674  1.9032230223898348 22.0072769418509750
 18.1968528571453838  9.2567841890657530 21.9871392599693287
 22.1436507098905224  1.3869869715282068 34.1898561049752843
  9.5219466963641821  8.5956675999737691 34.2749763475753326
 13.7579510803745890  2.0207223941903147 28.0101355630467808
  1.6846418518121500  9.8048901236438475 27.9517504816005982
  6.3841748931389901  3.6111919690805201 24.4954261174908048
 18.9949355123830337 10.8718854120658648 24.4205393491222367
 22.9846503011682763  4.1463652392061574 36.1662269011789874
 10.4400419360476242 11.4443267968216507 36.1257292076856942
 14.7083047751132572  3.6095659237910871 30.4296795250956720
  2.1690385099302425 10.9997648448395253 30.3793187000690565
  5.9391715819081670  4.8896190512902429 22.0300578313128419
 18.3661982422317536 12.2036817915595588 21.9695100529845284
 21.7997122973633743  5.1193892185824108 33.9878054493391488
  9.1629739593935238 12.3368627635217774 33.9963150592032051
 14.1773080978391679  4.9276306825407499 27.9566281188561980
  0.4939389172049114 12.9058457239203506 27.9258008721822861
  3.2653502789215723  1.7619153879038212 24.3918699376022978
 15.8078754753273216  9.0644276679538791 24.4191047111807684
 19.1433891661815316  2.0574546500460040 36.4775412551618103
  6.5491878175333369  9.2838622898993801 36.5242452653214826
 11.3296852654786466  1.7518674700655625 30.1779039103175997
 24.0721517290862508  9.0292520789967927 30.1927595591522220
  5.0723151963426938  9.1736949502036893 30.1096661168956565
 17.7542581891855491  1.9960738275263794 30.0015345590567577
 21.9376629798321687  9.0878512062449097 23.9322509440943243
  9.3060979067338661  1.7946643814299508 23.8870159083844023
 12.6578957643498207  8.2598845509007557 35.8072754260900084
  0.0781307146726654  0.9632837114901749 35.8109166569115942
  4.5051106758576047  7.0724790671592377 27.8301867349773779
 17.0768058234439160 14.5939177742206532 27.7361443062785966
 21.5814097689740692  6.2539131838883151 21.6990371264591779
  9.2253978869316011 13.3569686092164233 21.6257629517712111
 12.7448120735846100  6.3002982815184199 33.7854225588565029
  0.2162017575175590 13.5150918594824301 33.8469662126547561
  7.6162609759722617  5.7240928875944084 28.0586555372178559
 19.9798411754182617 13.1807982412243252 27.9346275986835231
 24.4622906819322310  5.5626025607653844 22.0124673040707677
 12.1806285020923841 13.0453219300701004 21.9876230876111194
 15.8241227485038713  4.9903432946661566 34.2709545499416990
  3.2679926547264593 12.2356686864993041 34.2735033374972602
  8.4357141945640777  7.2376313338626117 30.4360175306758478
 20.6113828185120163 14.6594904899904162 30.5939046629406945
 25.3211359616751146  7.2821808602688858 24.4239756435624784
 12.6899050039011438 14.5115870170331380 24.4458322950000202
 16.7103996372938077  7.7875354279429416 36.1797007426631296
  4.1663083894626878 15.0965245768122287 36.1416702626478923
  7.6045249777839379  8.6884849604605083 27.9445448975818742
 24.6174499561419289  8.6111281239601727 21.9474657856756536
 12.0762479416679671  1.3469845545286345 21.9906865658334567
 15.4764000935391461  8.7431403783316952 34.0258936649151309
  2.8887973702155296  1.4257090376910582 34.0037314480389483
  5.0716550431530845  5.3376742095490659 30.2231666188480794
 17.5332591172070451 12.5820256438549638 30.1879335301823026
 22.0925356024434123  5.4289283602402509 24.3864498627585284
  9.5153020830365627 12.7156582342319275 24.3883915045683217
 12.8580207684523664  5.6616152510234512 36.5404195506393208
  0.2793220047189166 12.9072373464464096 36.5814745812710740
 24.0412796996345506  5.5207081523271073 30.0720864803433621
 11.3719051693784987 12.8056786771173030 30.0730320813308722
 15.6680516120300979  5.4786859559108319 23.8659143728641112
  3.1042832714467679 12.8256209460977288 23.8927533816523763
  6.3533699725637574  4.6196202999975151 35.8003792209950049
 18.9642471676760884 11.9427947031152684 35.7747371425745158
 23.3493906495074626  3.4854155329329286 27.8489995686361631
 10.8294865360369457 10.7021358722369122 27.7682599630796503
 15.3849591274481394  2.5363540378279006 21.6205425263439750
  2.7276937875124201  9.8880241855161479 21.7348439161617328
  6.4163281235266529  2.6690890905875353 33.7746054234065767
 19.0058032390162701 10.0541414350566747 33.7004879469523573
  0.5703805270679853  1.5890751779125465 28.0274421271071859
 14.0458222001207798  9.4055895691290772 28.0808600463010194
 18.2618745781960286  2.0276857872698937 21.9377848869328496
  5.5953160093908494  9.2490797155319466 22.0124835352654884
  9.5071573535065443  1.3314232250205960 34.2699399821188706
 22.1263390445161541  8.6970961100526001 34.1623142622287403
  2.1727134401789678  3.5430665583693499 30.3557722951401665
 14.6112271789456418 10.8331730506635768 30.5126292620827613
 19.0410504641422058  3.6136540493557190 24.4108251840411477
  6.4296499774324793 10.9184296727140122 24.4508295731350991
 10.4452740788888310  4.1896200398556322 36.1140616239048882
 23.0153164004931483 11.4978159401761015 36.0513942567531913
  1.6592938631206300  4.7268194114228317 27.8378750641530139
 14.1129056404977948 12.1975012587891349 27.9723507140316912
 18.4579629871132020  4.9761394330163506 22.0056768847540880
  5.8212408500850730 12.2431856251945081 21.9914980474414428
  9.1433569680916644  5.0932494086594984 34.0114723635365550
 21.7807956473891338 12.4051700209722018 33.8992255313102007
 24.1168577725000297  1.7006026316143179 30.3215716769441102
 11.3873852698897231  8.9158475788938070 30.1876285368655957
 15.9181677213607671  1.9079002360588990 24.5055706717676536
  3.2283943583461312  9.0954746236040851 24.4130835359207801
  6.5597136919004511  2.0023687873726463 36.5279513995646070
 19.1178804158312055  9.3163746955779079 36.4117628806350169
 -0.5311840711591792  0.3139098976294882  0.9076628780192301
 12.0778053576105204  7.5990022513060040  0.9078426180531889
 16.8247891113755692  0.1054025576447997  6.2720906389358628
  4.2351569501851207  7.3858883034796987  6.2717888001051767
  8.3262627293155251  0.1516752456404442 12.3486935331935737
 20.9173247899127794  7.4341301578349857 12.3278245405570157
 23.1238545144661281 11.0161816322307224  6.2536008661288207
 10.5351866862005341  3.7475454120401563  6.2955896588971250
 14.6092260496039046 11.0551551083353612 12.3354282793044323
  2.0335363303527387  3.7977683779054949 12.3362451468274283
  5.7543663202726840 11.2269892210779201  0.8965447974591356
 18.3588136006598113  3.9567078389741894  0.8825889476703204
  4.2440005842391297  0.1105581858927968  6.3027949195689317
 16.8318887069319416  7.3723550436028660  6.3013285816238920
 20.9135344219784010  0.1511289214488470 12.3274044068648809
  8.3275464234314871  7.4186615265102365 12.3405728456610557
 12.1050003532424970  0.3171216222359536  0.8835881887638828
 -0.4365802826800185  7.5626188061735338  0.8584712048218438
 23.1255218880688673  3.7381174457332924  6.2929114419359529
 10.5297447268834148 11.0150632607820533  6.2934776701382686
 14.6228896939384381  3.7869187425417206 12.3382379899902297
  2.0346163672639550 11.0605498107629785 12.3328831105323911
  5.8492398195404798  3.9501799390120174  0.9019954193747117
 18.4367034991547385 11.2118982891985048  0.8589006065557366
  3.9659768163366294  3.1282422491612842 18.9642775957016099
 16.5521335104996581 10.4187478496631218 18.9554323993597045
 21.0380574042396198  3.5979290620055857 30.8771658802111233
  8.4202422802066561 10.7988796292976197 30.9490439186794077
 12.7378008692749525  3.5743426492501471 24.8280810897865010
 25.3109434782104437 10.8581284753923040 24.8463153455424255
  2.0884229301196373  7.2009189996387395 30.8729488285227234
 14.6374982366754569 14.4784089202824706 30.9072836022989996
 19.0278455239915729  7.2254226619582997 24.8596999532915071
  6.4583608307812694 14.4819929538249674 24.8833712326063150
 10.2493824215595826  6.8216348628735259 18.9813935247993477
 22.9284919236023761 14.0773368323441481 18.9312177347394623
  8.4178561098164284  3.5653782078858440 30.9570959489378730
 20.9726089363835051 10.9366253506908517 30.8334510218857432
 25.2999756519004890  3.5259057116032300 24.8289799844343548
 12.7244424612264471 10.8414999519375090 24.8547947033757133
 16.5561555095927631  3.2008951704524407 18.9513329193891913
  3.9669558771340352 10.4236850174683475 18.9722085697062894
  2.2046087816031483 -0.0669209689398523 30.9924092084943723
 14.7311572829717168  7.1767377436270126 30.9609428216417797
 18.9915898844684818 14.4922600835180191 24.7692288121541679
  6.4292258779225637  7.2195025177271068 24.8582105872229917
 10.2808587323797251 14.0847402383370106 18.9747099944967239
 22.8525309551152453  6.7828491076434645 18.9573549051740855
  4.1352624958178712  0.2118287402176449  8.3628475890850105
 16.7262350313997707  7.4736235884728259  8.3612162141268058
 20.8724882973949413  0.2038100103544102 14.3622530247322402
  8.2953764060973185  7.4745411656501197 14.3748677911407565
 12.6758657627903411  0.5974531538878077  2.8871698246414579
  0.0884442001172024  7.7972902571047538  2.8786951696304359
 21.9587914436220650  1.7620449842116135 11.5551400206704233
  9.3694481974041448  9.0296259505097556 11.5632083124558047
 13.6310381477567422  0.7988917947861146 18.5826752347605186
  1.1108445467643719  7.9261157991595610 18.8328625971470487
  5.1954713354682829  1.7611265768570692  5.4968572240495535
 17.7804456043299126  9.0249922412095795  5.4976884504773009
 21.8248664454049361  5.6704966349489867 11.7173469100613001
  9.2286348857150724 12.9271738604597282 11.7295326753560651
 13.9143211571048102  6.3112214598794800 17.7512364888133796
  1.4006977584127696 13.5921154258332422 17.5999432244290013
  5.2263074756471521  5.6696937727521588  5.7312380126369584
 17.8156546664750195 12.9282985819862848  5.7294261099268615
  6.3807676143169569  0.2573286144946570 11.6179412274916256
 18.9726141495267306  7.5336032785056943 11.5935764716632264
 22.6108488063776925 -0.6208078196950704 16.9255126596262784
 10.0821954425525124  6.6404443853472364 16.9591538108387425
 14.9411928699523902  0.0333982411728096  5.4271706594300326
  2.3513994734461794  7.3079609702201189  5.4276475619692635
  2.1070989179431918  3.7205650039896838  7.8671495102496554
 14.6944840326177335 10.9833716092195139  7.8699191258428103
 18.8291872257323831  3.9370126670759422 14.1342883775532702
  6.2240391948108185 11.1977582103257323 14.1530622264205128
 10.5611680586298817  3.9898096853266880  1.6137474467290847
 23.1405403066468907 11.2092097965127113  1.5602446607710152
 23.0207655795341992  3.8371246231617548  8.3537740076493794
 10.4223894082637862 11.1158357307758724  8.3535901333063816
 14.5937427842744878  3.8416253352828447 14.3727472360365063
  1.9989793262756328 11.1148603665392933 14.3667778028264586
  6.4073780168483347  4.2182757834802480  2.9083128371784852
 18.9708862582499442 11.4426566169840633  2.8777864481517690
  3.0766610506924752 12.6724717363951545 11.5586157924840620
 15.6644044323354379  5.3990957854039401 11.5649278031042826
 19.9735398198944303 11.6327757596490642 18.7785972484579844
  7.3600640483511537  4.3573413304125816 18.6991085726621940
 11.4820507909258325 12.6648044604938601  5.4877925521977611
 24.0763175620338572  5.3888830731569479  5.4882421994144037
  2.9375643089439061  2.0330348483065737 11.7235288437834644
 15.5149351590594371  9.2912742574780118 11.7225917039362404
 20.1958756331190941  2.5518404510899564 17.8538821234332090
  7.6463888752825957  9.9531902493632636 17.6946030631741600
 11.5299418048329176  2.0328289340686605  5.7591341809575347
 24.1139145681366500  9.3010443827181888  5.7046343884170803
  0.0886177701393126  3.9015448551665139 11.6004001309165954
 12.6656013060662325 11.1604454357593319 11.6006820669868365
 16.4203057274876620  2.9859327460325353 16.9330555717373805
  3.7669457597827987 10.2532891557018271 16.9480524001725534
  8.6553651058110503  3.6670222435110800  5.4433631077223534
 21.2389654912077397 10.9427109429938092  5.4110659872255740
 -0.0691896714976287  0.3087839345910280 14.1387955589649135
 12.5179425123255275  7.5645601728810403 14.1475348478835699
 16.8492639677355847  0.3250857833463454  1.5884082708967382
  4.2550914685951708  7.6093266913409883  1.5810857362794488
  8.4003006467236840  0.0855724712480065  7.8811476508258318
 21.0009999460829597  7.3536659131897801  7.8637619457598555
 25.3297693683136949  0.5660364558324743  2.8919568362246553
 12.7155252880560408  7.8749786804178319  2.8953354946437582
 16.7223446212295457  0.1996127928190317  8.3341535671158447
  4.1320366435711531  7.4830276316672073  8.3330015428399875
  8.2972156243413959  0.2049384046242242 14.3831285986030224
 20.8793917480354203  7.4953917307630196 14.3624230944722306
 21.9650215919568481  9.0414137915124808 11.5522724066542626
  9.3710073660045321  1.7615207483486923 11.5719393983057479
 13.6334766189615646  8.0584440018742516 18.5766401178092124
  1.2025843783710974  0.5754671977740458 18.8085038051092184
  5.1862117172943769  9.0339880203375031  5.4641448026313642
 17.7765587189973502  1.7552891547902389  5.4690795877348428
 21.8233755721064000 12.9285148599515072 11.7121395343429899
  9.2327070403031666  5.6556460848643830 11.7238809995921542
 13.9011203190671075 13.5539553835761915 17.8385238685461687
  1.3820233505393913  6.3656108935293902 17.6915733471821106
  5.2399385110105046 12.9354316895915478  5.7635940370132328
 17.8317802817145896  5.6609231832004481  5.7639233106002621
  2.3668544996995609  0.0355214755706241  5.4482552157844450
 14.9528483059974047  7.2965735399535276  5.4482472554934649
 18.9696439480906136  0.2551608023595784 11.5900030039486435
  6.3829967529706861  7.5222526796547271 11.6058527492964583
 10.1187321963565804 -0.6678829935917469 16.9546020898639931
 22.6663310413849750  6.6038886486348067 16.9331758890996333
  2.1026053747220752 10.9863892793688063  7.8600016601152936
 14.7009841813892308  3.7154117313163559  7.8734488549943702
 18.8099849648481907 11.2020640454336071 14.1290630361336031
  6.2315061260317615  3.9313143175053407 14.1519464868003872
 10.5712552457595041 11.2581622565801691  1.6149581618498732
 23.1621818745105870  3.9555732709908011  1.6183462115595297
 23.0238037917834930 11.1068723777158223  8.3166403272839560
 10.4305383956030759  3.8500005178097796  8.3555705270627616
 14.5710501093457374 11.1112036001331571 14.3700348032585037
  2.0002077308242598  3.8576994038067065 14.3698983769535538
  6.4133388049297020 11.5135765056943082  2.8773089651756005
 19.0071134197161804  4.2035350941502676  2.8790574039631660
 24.0751901545556599 12.6659001366321640  5.4514065988327518
 11.4840164956402759  5.3974157395882889  5.4864235163586654
 15.6577626436081907 12.6624080803328134 11.5587795696961333
  3.0794722319291110  5.4056637862346983 11.5573689405765396
  7.3973550649411939 11.5890085943080887 18.7296934720674031
 19.9282928426670978  4.3783788078205221 18.4906087078383408
 24.1220737062956445  2.0252683588803060  5.7521024275384107
 11.5248548558119577  9.2996457017964982  5.7581118413752845
 15.5297985190292280  2.0247287950562920 11.7203617163759954
  2.9400732212225926  9.2980493616922395 11.7152825237614948
  7.6374210836953242  2.6822423242244908 17.7374220186524418
 20.2631420230415280 10.0801940827239331 17.6323322092720218
  0.0893591061655494 11.1633032716212668 11.5960818780507733
 12.6767914621524689  3.8878640657532015 11.6089458415807947
 16.3694211350121712 10.2408865429198421 16.9341618094120605
  3.7847719402554514  2.9968015793156533 16.9349426959555274
  8.6504232632463793 10.9415319921077412  5.4414964685078182
 21.2444968763413016  3.6650985182026483  5.4461337682102346
 20.9943713096719264  0.0763219702345887  7.8588415077149403
  8.3974720617447449  7.3525501759749403  7.8682393037338647
 12.5272072734366837  0.2937818195441650 14.1466417678009275
 25.1191837308789125  7.5720528439309494 14.1456737727772417
  4.2932055014916859  0.3597924523898916  1.6281188094960681
 16.8738842135540814  7.6039879449155716  1.6285453808766683
  8.5196884581334462  3.5528687348584382 28.8910078171282976
 21.0520720945188664 10.9518676963007096 28.7747587477482369
 25.3799289179493748  3.4289997140705681 22.7674351866812259
 12.9041520374465275 10.8180544949387034 22.8114943119101845
 17.0162123796140072  2.9355953765123308 35.2093562230042636
  4.4424599049574613 10.1779331995399733 35.2110947498912594
  1.0870004098694972  1.9067712435736028 25.6582280295728182
 13.6610431347512904  9.1919085015591619 25.6894079057184967
 17.0748323180960249  1.4914588587552426 19.8723314236789612
  4.6003251121039863  8.7370179215457338 19.8448306883771508
  9.3524899066891329  1.8850345082533906 31.7337853523956674
 21.9765334635479697  9.3059082191741673 31.6313529460516456
  1.0573320042499084 12.5650457451335136 25.5336716412656806
 13.7072554922362198  5.2475521016736888 25.5593201162693404
 17.9509200820554149 12.0794444220073132 19.3139184523384202
  5.3649396023610247  4.7777547799213265 19.3632997085108407
  9.3667095778596732 12.4987831234430971 31.6415736596052390
 22.0072451773909172  5.2685410024729471 31.6326225745489751
 10.7444942392397635  3.5365901547689851 25.3848386633920278
 23.3135204173760826 10.7863332361428181 25.4130177680994116
  2.3527536188196603  3.9740370548798478 19.7927180960469293
 14.9606731916351361 11.3013335399788435 19.7922967748680350
 19.0563407289975260  3.6105622918017084 31.5100351678173780
  6.4437308458482807 10.8258570872340503 31.5422064442206320
  6.3206757308608825 -0.0246489678080970 29.3088201322606174
 18.9117822106574494  7.2665534518146746 29.3084454586892704
 23.2376312338456827 14.4016959779641027 23.2531168035648932
 10.6749850042026360  7.1763132739083249 23.2396196203227845
 14.6459611057864763 14.1056905635372622 35.3391411732803178
  2.0677883689783756  6.8131269424789354 35.3430993817062458
  2.2770008565706656 14.4433066443638314 28.9361222772660618