Li P  S  Cl
 1.0000000000000000
    20.5609999999999999    0.0000000000000000    0.0000000000000013
     0.0000000000000033   20.5609999999999999    0.0000000000000013
     0.0000000000000000    0.0000000000000000   20.5609999999999999
 Li  P   S   Cl 
 191  32 160  32
Selective dynamics
Cartesian
  0.2242438470974363  2.5957563249948348  2.7946842294828849   T   T   T
  0.9047459270911775  7.1541313872857026  6.2596796915738402   T   T   T
 10.2340686111294126  7.2247880273447969  2.8549288072586929   T   T   T
  5.4477458686450388  2.8612152910310709  7.2249854322539973   T   T   T
  0.6385368758121667  8.3253981473830780  9.0582138499569957   T   T   T
  3.0602449834671330  0.0535043729022829  3.1693055531153478   T   T   T
  8.1567080740132489  0.6842352003153200  8.6838167238955286   T   T   T
  8.4581490314789267  8.6107156301804366  0.0033027091795039   T   T   T
  6.5862184072906835  3.2753374326140827 10.0625170716718539   T   T   T
  8.7016927212412600  9.7626640586098219  2.5756287072424264   T   T   T
  4.7443406077661940  2.9887703474605600  2.0628296248439564   T   T   T
  2.5324890627100829  9.9185965345874560  7.1892032565773212   T   T   T
  7.0261832055119644  5.2451436403279574  1.5598843233484880   T   T   T
  8.2672052165561816  2.9655748328970999  5.6820741826383747   T   T   T
  1.8989531146922447  1.7603648040165343  0.5406485236807799   T   T   T
  4.6646511669742923  7.9100715124155201  6.7965076893823211   T   T   T
 10.1642735596017673  2.2000811747712947  8.1270163239647459   T   T   T
  5.7292396181253409  7.5606090642467931  2.7083979915266676   T   T   T
  2.5687560340256210  5.3304659843346682  7.8227666513305643   T   T   T
  2.2717128626282994  2.7127440831659282  5.1283097623209439   T   T   T
  2.1311222093980620  4.7880860828169958  3.3554801859542787   T   T   T
  3.5920444194162142  7.3291351612351470  9.9835567480773584   T   T   T
  8.2169676171501767  5.2003207143931851  7.8054619380816774   T   T   T
  8.0924861328211843  6.9877282564518683  4.5695237692727826   T   T   T
  0.9590055727558193  1.0647757675170015 12.3177840444095050   T   T   T
 -0.2887132155101818  7.4103718700223391 17.2344211985672047   T   T   T
  9.8990787132394544  7.4274152522331596 13.6819485808940247   T   T   T
  7.0179329193791844  1.4641604759188580 15.4500689478951188   T   T   T
  4.9891193558168103  7.2788162456248484 18.6243969411761832   T   T   T
  4.3769434372643294  1.1146404601187829 13.0285210066358115   T   T   T
  7.5357852518353559  4.9348375380692140 18.6582066533662427   T   T   T
  8.4753366704309379  8.3625564499645257 10.7368297245585094   T   T   T
  9.3826252779821733  2.3137550770098416 19.6665039844558294   T   T   T
  7.9318272161389896  5.4959549253128372 13.5028978607319612   T   T   T
  2.6826392739429159  3.0183014448805592 10.4038251116407316   T   T   T
  2.5294615670189313  5.2341108019784910 18.3608657142393916   T   T   T
  5.7389710550953001  7.1640372968624044 12.4516483018350499   T   T   T
  5.5744502027294365  3.0022009360996891 18.7448985012950331   T   T   T
  3.9052271568722445  4.8025155286516785 12.5116835566828186   T   T   T
  2.5786400614785734  9.9960095281824159 17.7908474786976498   T   T   T
  9.8231885921684370  3.0788480456633733 17.2293592910414155   T   T   T
  7.6929450068777427 10.1694914407781969 13.2794542249993590   T   T   T
  3.2908565669500862  8.3034506727499995 15.8393627484008448   T   T   T
  0.4576930198571059  3.3892697480070515 13.4597334172565759   T   T   T
  3.0819513244671533  2.3054901614968517 15.3423708882635328   T   T   T
  1.5622689578347426  8.2581378634418687 20.1446484838755246   T   T   T
 10.8845463811221475  7.3982947335270461 17.0809509647001079   T   T   T
  6.9064814657169808  8.0303720305076762 15.1334170070661980   T   T   T
  1.4609891681264775 12.2298234531019556  0.1979794357995158   T   T   T
  2.9531233421400458 20.2448347073153982  6.9085964091367087   T   T   T
  7.4103462585467872 16.6478617470119659  0.7660200558602663   T   T   T
  9.6539993029175104 13.5692365793837926  7.7356307416227645   T   T   T
  5.0736299101634144 18.3071968664063931  6.9631974536355399   T   T   T
  2.7372421545144729 13.0479767036413108  4.5266148901071235   T   T   T
  7.3052545861727145 13.6480369727724646 10.1090194931555057   T   T   T
  7.7621458172661422 19.8029665790407208  1.1740591462247363   T   T   T
  5.7096009634022122 11.2118367707908746  7.8474874718002070   T   T   T
  8.1966703226026283 16.0309739158786400  3.5762926522853942   T   T   T
  0.7618299974546215 10.7250545880903445  2.3972060337970289   T   T   T
  1.9586339513827093 17.1911001976684261  5.3922970011276448   T   T   T
 10.5823131826321646 17.7349366289364667  3.0218676008560492   T   T   T
  7.1041424205120505 12.2007781828084223  5.4436521772501809   T   T   T
  3.6603046521160705 14.5752736890148622  1.9011082998667010   T   T   T
  2.7707414448668786 17.9788760947208530 10.0267308566548525   T   T   T
  6.5223958116596421 14.8641975799868025  7.3081703050314557   T   T   T
  5.5215032725252344 18.2994004568524744  3.4360155147380120   T   T   T
  0.2879127289894283 17.6987936187387405  7.4058244054593461   T   T   T
  4.0312676864343846 11.2199578847462078  2.6340982710230341   T   T   T
  0.2623081366378762 14.5627128074523160  2.9374397021914556   T   T   T
  3.3599543481336784 15.7142074281118216  7.7766894318561715   T   T   T
  8.0079817365065420 10.9624158539294960  9.5199579377399761   T   T   T
  7.8755116645567860 19.4049206695615624  4.7583415018204400   T   T   T
  0.1117894113371802 12.6880208235859495 12.5769715445751782   T   T   T
  2.0859861523310306 17.5579493308512653 19.8764586446828737   T   T   T
  7.1819665589422836 18.4609567896056390 14.9917487146593622   T   T   T
  7.8280269336433079 12.8755466973126023 16.0199217947799717   T   T   T
  0.0685574132066335 17.2386817672889308 17.4104076467700004   T   T   T
  1.8626193342623005 10.6819739739973016 11.9576424563643418   T   T   T
  5.2357956566654780 13.2184408466656524 19.0746748839298910   T   T   T
  8.0106307320994645 15.7790753633803824 13.7206855675436685   T   T   T
  6.3855587069842974 10.4636920969773399 17.7704224292083737   T   T   T
  5.2389300745408436 18.3122782284772398 13.1369680843858241   T   T   T
  2.2601467276192686 13.2965472216376490 15.1015585738173161   T   T   T
  2.6016363800816982 16.2807929368332438 16.1061684694731895   T   T   T
  6.9320500864544723 17.4208983207200987 10.5408495460862266   T   T   T
  8.1147681661000934 14.9894038413235862 18.3014457222219136   T   T   T
  3.5258765054693053 13.3221202774399590 10.4337843767842120   T   T   T
  2.9291258959929936 19.4210306340951178 16.0845414729776941   T   T   T
  9.2998247562839964 11.4890170727631293 18.7771147266142506   T   T   T
  8.3397050197772664 20.0396849091172129 11.9128340006214568   T   T   T
  4.5697145244340307 17.1651346554165372 18.6334177897382638   T   T   T
  4.7354768871072652 12.5342346442067800 13.0444310976904436   T   T   T
  2.8948884315563741 15.3818460113104400 12.2149363526051680   T   T   T
  1.8553117225629518 20.1434957468320448 18.4762608412931293   T   T   T
  7.3163212428908198 13.4709038945067725 20.9282258346825429   T   T   T
 10.0414579391958583 17.9765958705371318 12.8585858934194199   T   T   T
  7.2286453641750290  0.3067254576729011 -1.7280768422973540   T   T   T
 12.4615972283921348  8.2534971891022000 10.1770853883558701   T   T   T
 20.6644921758324642  7.7358823276194189  2.8345568152061777   T   T   T
 17.0984268758012696  5.3228956020455893  8.2657307467028414   T   T   T
 12.7474061108247732 10.1427469715524019  7.3511766375145013   T   T   T
 10.8795223940392276  1.5860424378736928  2.3978033441406490   T   T   T
 17.3033607962085156  1.5952302229122286  5.4628759466461920   T   T   T
 18.1572087758711938  9.5108240819032570  1.4711200386587941   T   T   T
 18.4489509220788790  1.8281667990086987 10.1971544968724128   T   T   T
 17.3797566737933096  9.1652030630563637  4.4891989225117790   T   T   T
 13.0860843829313218  4.3140291169271769  1.8817853859826541   T   T   T
 10.1940530644236098  7.5907816866716500  7.1971164328350010   T   T   T
 18.1457488778993863  5.8377276172686194  4.6136839648081232   T   T   T
 19.9735936093904840  2.9350233804621468  6.8217532691429650   T   T   T
 12.5849273019604766  0.8902104079108507  0.4507778386719137   T   T   T
 14.8574839831671017  8.2574542708161758  7.2713032806303977   T   T   T
 15.5200258399892324  2.8682084223689728  7.7431578125056708   T   T   T
 11.9531299877251289  6.7211473929758005  5.4066031311493123   T   T   T
 12.2402683523562690  3.1398456858513635  4.4077982522174866   T   T   T
 15.2882779034091385  1.5521288888174221  2.4473923870114325   T   T   T
 13.2846736097521809  5.4162043542760561  7.4595701036809849   T   T   T
 18.1951779134086102  0.2435006883055288  7.8984980339287292   T   T   T
 17.6463167402960615  5.8068176614191511  1.3714795198287477   T   T   T
 13.5767293679677472  1.7844555461500813 15.4217153351085798   T   T   T
 15.8285381712716813  7.4793537073758456 22.8830162826178238   T   T   T
 20.6097817647577202  7.7289782429664893 12.8738766368786646   T   T   T
 16.4327081797277010  4.1617188075235108 18.1893282597081409   T   T   T
 12.8215021411823678 10.1166183731871442 18.2647541120469938   T   T   T
 12.7605468009631338  4.7587082961113421 14.5919094930337501   T   T   T
 18.8701528639889489  0.2205531617034366 17.9971973402756618   T   T   T
 15.5989586492649543  7.8333809921680508 12.1424249121150627   T   T   T
 19.8841148261298777  3.9260202210148920 18.2949225652999878   T   T   T
 17.7885108472802997  9.9613081940548831 13.6460469815375518   T   T   T
 15.2379112077666701  2.8890211615785359 12.8733399415602801   T   T   T
 13.0561135309669734  5.3499900879848070 18.3768009725632631   T   T   T
 18.7090346194279640  8.1821275395553172 10.5354422831810286   T   T   T
 15.9677669203562136  1.2383235934524737 17.5914579915004161   T   T   T
 13.1748762734606206  4.4075840885823734 10.9486539556711602   T   T   T
 13.4279609891301579  7.7144918982319544 20.4723181984129816   T   T   T
 18.6230137807501315  2.4447538798088808 20.2846135244758869   T   T   T
 17.2053474208945687  5.4087171898538564 11.9918850310774623   T   T   T
 14.4260923844529803  8.3411546044521678 16.0672487022208799   T   T   T
 12.5234432274128800  1.0980615235268976 11.3143907015316820   T   T   T
 10.4212421024444524  3.2693606539955331 13.2174050487500683   T   T   T
 15.4386511301114222  7.2591757582405085 18.7667014239774055   T   T   T
 18.8612783962632093  3.3748788383027559 15.5467344342267193   T   T   T
 18.2268825832418173  6.1363348036650454 14.8601859575686674   T   T   T
 15.3379364568852790 12.8079052950692382  3.1689077749643393   T   T   T
 10.7185128288605807 17.6100488729241178  7.6602090109731291   T   T   T
 15.6241890562470847 17.8150425111427069  2.5684801706323208   T   T   T
 17.1172533811877443 12.0268744450703231  5.4357881511550010   T   T   T
 17.4257653218886865 15.4515489887793187 11.7874321936606883   T   T   T
 12.5115437169568793 10.8263552400933278  2.4247864319775529   T   T   T
 19.5898790664033875 11.2229304552311255  8.0565819821514086   T   T   T
 18.5509338339488181 18.8828066299840529  0.0128945771116874   T   T   T
 16.6779370904784976 14.6647171441487458  8.2514816754183613   T   T   T
 20.6089187282672910 17.9217894632508958  2.3351817100916494   T   T   T
 12.2946142780524088 13.1176754797397930  4.6625244572318207   T   T   T
 12.3332312434605793 20.3124014365830519  8.8417053626057225   T   T   T
 18.3804969093157986 17.1338303216046199  4.8051962508301145   T   T   T
 19.9628466244799689 14.2607852763784084  6.8733997809101330   T   T   T
 10.7739762533133874 12.9761657397367358  2.0792570817331582   T   T   T
 12.6500512923005299 16.4279059461822285  5.8632912341496972   T   T   T
 15.7276262615592071 11.9813790755801346  7.5772818239834381   T   T   T
 17.4003458437035121 20.0080462350519355  2.4532492561410728   T   T   T
 15.2752419520244160 18.1068001999046189  7.0093364190665204   T   T   T
 12.4610041518749668 15.2923079765417622  2.8159390831028275   T   T   T
 13.5583071600390106 13.6155524423483492  0.2682437718987264   T   T   T
 13.4279890736989387 20.3391373541040466  6.0407691874776610   T   T   T
 17.6966153871655401 12.8852702167819935  9.8441826730787660   T   T   T
 17.8144568393755520 15.8293279703575340  1.1284607770709674   T   T   T
 12.6525780659616540 15.1700381074430002 13.5032450090468181   T   T   T
 11.6038312483850099 18.1725092470386684 15.6209228171766554   T   T   T
 15.6081227024750060 18.3874033633665519 12.6587625980429266   T   T   T
 17.7497761287193399 12.4049350444731079 15.5471710335389570   T   T   T
 14.6443178045316511 18.3505181985667321 16.1919568715062603   T   T   T
 11.3025415475632744 12.8199163832225000 14.5352348309534101   T   T   T
 15.8531932073922324 14.3655397292625384 17.8065177088067443   T   T   T
 20.4091771711619678 18.1887918461294333 12.7676320641365706   T   T   T
 19.5651314667173821 14.3711353601026044 17.3927319810128473   T   T   T
 17.7104135173736736 19.9929101697144773 13.9202463783498285   T   T   T
 14.1394163258430865 13.1764119663497397 10.7934119015705523   T   T   T
 10.6282181218455651 19.1328099684180231 18.2499002072118479   T   T   T
 18.0896427607926213 18.9205981214511780 10.7647940557694817   T   T   T
 17.1950869548587626 13.2836613961197951 20.0042655100270146   T   T   T
 11.8789325749381831 10.4402239226000599 12.8901214175578396   T   T   T
 12.5019396838892991 15.6662081315931072 17.1881894825306176   T   T   T
 19.9662452282604690 11.9370376123663942 18.5061960932311607   T   T   T
 13.6142170688971778 17.8633354389464927  9.5907255480580282   T   T   T
 13.8401043453451571 17.5904806745976856 19.7379009788915560   T   T   T
 14.7941606279163711 12.3177942415082882 13.6073583735713388   T   T   T
 10.8023913876881146 12.7632637189020564 11.3495467084750619   T   T   T
 13.0272724090312266 20.7065710513264705 17.4158115168637551   T   T   T
 16.3991196384952609 10.9804902316452342 17.7136007749519848   T   T   T
 18.1632161677474677 17.1697918498617099 15.0257538265681578   T   T   T
  0.0302014200161839 -0.1826779732455176  5.0991141483436575   T   T   T
  4.8557864996056423 -0.0510944557203627  0.0367790594753340   T   T   T
  0.1983198050661278  5.0654186594115043  0.2350610725845516   T   T   T
  5.1155067900010440  5.2277429307187084  4.9815828768020749   T   T   T
  0.2370403112913058 -0.1303674432611659 15.2248042268460093   T   T   T
  5.0837592365852569 -0.0970421849325882 10.0760187394433398   T   T   T
  0.1128061720915782  5.1629270145710047 10.2533769086587530   T   T   T
  5.3827976805408584  5.0280862130897450 15.4042957247275449   T   T   T
 -0.0288325483254025 10.3640394728650804  5.2629625937285525   T   T   T
  5.0555255241798953  9.9852113895190477  0.3201067472804520   T   T   T
 -0.3060117031298264 15.1943986363764001 -0.1961486706256596   T   T   T
  5.3088337298440607 15.2710409302661034  4.8819573023329079   T   T   T
 -0.1404567427785789 10.4389709471635452 15.6173434255413728   T   T   T
  5.1404256201191831 10.3904809485651590 10.7350888888747900   T   T   T
 -0.0478570556659179 15.6238049066311557 10.0551610576560915   T   T   T
  5.1876321695959744 15.2390428701507368 15.5757081398529031   T   T   T
 10.1780279113146630  0.0982398546156745  5.5215367640567070   T   T   T
 15.3882763819081099 -0.0696912629796458 -0.3460634654655080   T   T   T
 10.2710790326110555  5.0136517204020707 -0.1330243653528506   T   T   T
 15.3590469778422030  4.8918935198165023  4.8887773512737471   T   T   T
 10.1953043630684270  0.0725613084768062 15.1278584366815547   T   T   T
 15.0990190495198409  0.0636123196153950 10.3333128067530904   T   T   T
 10.1664100684301566  5.3204993607202313 10.2388272087027516   T   T   T
 15.6406038357423345  5.3612446019597737 15.4775101220631122   T   T   T
 10.1177139510124743 10.5384700457093583  5.1518409299497074   T   T   T
 15.4835591171628018 10.2496122840582107  0.0255262137711299   T   T   T
 10.7492496791842207 15.4010065059143813 -0.1477297965838583   T   T   T
 15.6690327996204832 15.1491763796511290  4.9384895339710759   T   T   T
 10.3918677191144173 10.2594776993508479 15.8184206486232561   T   T   T
 15.1801994707610852 10.2507365622999203 10.4013057001653273   T   T   T
 10.1376565698937391 15.6506887235746515 10.3640109845563302   T   T   T
 15.4612155274142520 15.6919853782302159 14.9891908066402273   T   T   T
  0.9076907276852433  1.1575832575265794  6.4995478405501164   T   T   T
  1.2078851508523338  9.2243868730784992  4.0073672763422250   T   T   T
  8.7199467130647328  9.1479520372785412  6.0209529560945088   T   T   T
  9.0195921235636565  1.3258876892069482  4.3475210133155926   T   T   T
  5.9859235127682151  1.1115646176448517  1.1968108514331932   T   T   T
  4.1173994752116236  1.3513195588150237  9.0957395918811912   T   T   T
  6.2610340878784365  9.1337995712581694  9.7056814303132519   T   T   T
  3.8411090398655126  8.8357740863688434  1.4445353421517027   T   T   T
  1.3838503401670530  6.2859046483782341  1.4833734663001161   T   T   T
  9.0889493488843254  3.7972352753909626  1.0009228649650925   T   T   T
  9.1026888681084337  6.6562554022426781  9.0352687493216646   T   T   T
  0.9418570072569952  3.8568174815749794  8.7427354928430354   T   T   T
  6.4430652167531353  6.4856882340209374  6.1647772832348089   T   T   T
  6.3644270901544848  4.0897156037570239  3.7922222275150883   T   T   T
  3.9632676795955688  4.1994327953524690  6.2865568203607607   T   T   T
  3.8687893727709928  6.1366853273704152  3.7263498751728776   T   T   T
  2.5396195662802006  2.3990993029970014  2.7129088521064362   T   T   T
  2.6008876685240296  7.5439697918693627  7.9648976038996580   T   T   T
  7.9860247112758760  7.4959148361614929  2.1733634339943140   T   T   T
  7.6490113871772900  2.8862773159765771  7.9555678582657769   T   T   T
  1.5262486232833754  0.8964077336025587 16.5056086831416202   T   T   T
  1.0482978399629133  9.1714805633135992 14.6450643231180528   T   T   T
  9.1441835978607156  9.3140739666036350 17.2245375809052241   T   T   T
  8.8275614796406447  1.1718268315375393 14.0635282669550215   T   T   T
  6.2671738545327305  0.9624998448615373 11.4599523566113231   T   T   T
  4.0287376614925829  0.8634034576176128 19.0380786089833762   T   T   T
  6.3796863430557504  9.0483526644321746 19.5418757227975810   T   T   T
  4.1306170747891890  9.6201150906491204 12.1112812593951169   T   T   T
  1.5065177609404778  5.9595311017474009 11.5880551492554353   T   T   T
  8.8356765993355584  4.2345100893204837 11.3855137835299391   T   T   T
  9.4183035472703516  6.3409427783902510 19.1912932828942431   T   T   T
  1.3397392758162996  3.6098708067094023 19.7618109329486416   T   T   T
  6.7392196784713860  6.1550316595868688 16.2867592751918338   T   T   T
  6.2809082985741478  3.6460227731968278 14.0168497626724005   T   T   T
  4.1639722322034318  3.8580529232166336 16.6941549185853830   T   T   T
  4.1959624787183989  6.3147024935114002 14.3401464765946862   T   T   T
  2.6363908561360869  2.3846188675047695 12.9767610048173623   T   T   T
  2.4062579077028983  7.6485513958484379 18.1211289491639498   T   T   T
  7.7943690730517527  7.8275135732404131 13.0390073084114402   T   T   T
  7.7885355307835864  2.4077200515242447 18.0044533473524986   T   T   T
  0.8566162440465502 11.8763405653569603  6.2416476128951892   T   T   T
  1.1510932107448499 19.1416096135540954  4.0538069441962996   T   T   T
  9.1721610246967646 19.5522103969422716  6.8819774049576052   T   T   T
  9.2970618907956020 11.7511546035236023  3.7432236925247051   T   T   T
  6.3755164801139586 11.0260647510455296  1.5035495442416831   T   T   T
  3.8282568682160711 11.2261598833173331  9.4771395057594070   T   T   T
  6.3755625678812686 19.2505271052858902  9.0609849893811223   T   T   T
  3.1718032971325494 19.2952314420137157  0.7720767808648348   T   T   T
  1.1348447769523222 16.0753391048005980  1.1431374001434773   T   T   T
  9.4575880202722384 14.4340633123877478  1.1581167793258560   T   T   T
  8.6457608411714606 16.4630763060687784  9.0450579823547024   T   T   T
  1.1585215804689752 14.6604345009679271  8.8029256201571329   T   T   T
  6.4616827041691511 16.7262292116522744  5.9796398177327648   T   T   T
  6.3830290067997009 13.8809643795054214  3.8736745359568658   T   T   T
  4.2903566191053706 14.2291780487203052  6.3401535565926901   T   T   T
  3.8747887815239164 16.2909924096934375  3.8238420415416625   T   T   T
  2.1858811141237742 12.6008791898341297  2.3483279113179911   T   T   T
  2.5781230683540830 17.9229020440586027  7.4278507549724644   T   T   T
  7.8580545979908347 18.1010717288020047  2.7171425665100504   T   T   T
  7.4881812286002001 12.6288162775495749  7.7525773840514214   T   T   T
  1.0668777901454944 11.6022459317879534 16.7120354486160849   T   T   T
  1.3389958441191729 19.3817362411271503 13.9004928689914653   T   T   T
  9.1470565967332096 19.3115763621838425 16.3968250231377368   T   T   T
  9.1782619755499049 11.4771703736166852 14.6256858191109522   T   T   T
  6.5014025539585623 11.5196522649310573 11.8280789333739076   T   T   T
  3.6951562072326571 11.0945609152431626 19.7612556372669097   T   T   T
  6.1726886110871986 19.0457384588453067 19.7649968708973702   T   T   T
  3.8671798156512596 19.3715708699465381 11.3011283214230982   T   T   T
  1.0986097315279291 16.7242554492518138 11.3760823108106486   T   T   T
  9.1824825377141419 14.4934652004425466 11.7216045366605659   T   T   T
  9.5436477944396660 16.7890660158073715 19.4671785094896990   T   T   T
  0.8109371491567271 13.9209184340539256 19.1112092909833535   T   T   T
  6.1581489041371604 16.5454332736272534 16.7598147532000361   T   T   T
  6.6290431414319677 14.2637999843768082 14.5571915244611159   T   T   T
  3.8768883361753859 14.2614674841032176 16.5958801082228184   T   T   T
  4.1485949563737128 16.3868485129286512 14.2108880714867780   T   T   T
  2.5307911424669611 12.9698433693165320 12.6865833094611684   T   T   T
  2.3046892304356987 17.8820312850971277 17.7841863267037148   T   T   T
  7.5879384712025422 17.7477883140582691 12.9060102473968215   T   T   T
  7.4375571868705537 12.7330310967537166 18.4928883618272870   T   T   T
 11.5749643405252591  1.5239043510600061  6.4623285948216012   T   T   T
 11.3979730802548929  9.2925622754626005  4.0816719158592312   T   T   T
 19.7911122677628413  9.1588742204959370  6.9297584305856530   T   T   T
 19.2894023662660317  0.8494316491687064  3.7917929158876928   T   T   T
 16.8604929519023443  0.9827492488355757  0.7220864830877435   T   T   T
 13.9552168215110353  1.5936851032159129  9.3702327191332433   T   T   T
 16.1854786808810900  8.8547347365327269  9.4316489968208774   T   T   T
 14.1150591519935542  9.4433133441302157  1.3744303306808381   T   T   T
 11.5775149474188677  5.9860082870743883  1.2775802389649613   T   T   T
 19.4063136545189501  4.1387508197847307  1.4649169148260701   T   T   T
 19.5988465126284943  6.3737630970952601  9.0697738740165743   T   T   T
 11.3353945669858618  4.1682048919574957  9.1230306839794508   T   T   T
 16.1319820485549954  6.2881583370233409  6.1812363124568108   T   T   T
 16.7648876001053537  3.8031156901922287  3.9665329012473860   T   T   T
 14.2317725026075479  3.5849675701040113  6.0360078534482007   T   T   T
 14.1336508179944040  6.0719675216932281  3.7608694452019145   T   T   T
 13.1127126248831267  2.1044821862525440  2.4987850441660719   T   T   T
 12.5052616018829568  7.6410911089968314  7.7085459821636695   T   T   T
 18.1059797868578372  7.5558236148503051  2.8825694907799813   T   T   T
 17.7548542406826826  2.3386058321604763  7.6220143824896516   T   T   T
 11.2841594227470523  1.5178152968475485 16.5383039126027995   T   T   T
 11.6241295372192912  8.9474727245111669 14.7048969222283201   T   T   T
 19.1387445880741254  9.4116521157512185 16.6364215447633441   T   T   T
 19.5975364677617776  1.2464385324100027 14.3150104177155058   T   T   T
 16.5280590997247430  1.0489213346771182 11.6757584696991241   T   T   T
 14.1916828896786136  1.2711534360091337 19.2524035825874904   T   T   T
 16.7329096558865729  8.9134403571872003 19.7766677922026659   T   T   T
 13.9426693378428013  9.5225787036169915 11.9115454706752502   T   T   T
 11.4692983415661853  6.3199357767964637 11.4657761228268988   T   T   T
 19.5915759582962572  4.0166001722245737 11.5871324528940924   T   T   T
 19.5424127691691893  5.9960103606335649 19.2828188401176845   T   T   T
 11.4916888062447224  3.7176201723500846 19.4111603622897988   T   T   T
 16.9116605038431231  6.1966345931051308 16.8208557298074020   T   T   T
 16.9703656703997758  4.3069947417838925 14.2806813180424612   T   T   T
 14.4065405785344165  3.9675882819854418 16.5246714171930194   T   T   T
 14.4401324396910180  6.5753230350390997 14.4237241559493246   T   T   T
 12.9596430626098869  3.1444432196421879 12.9165335055365915   T   T   T
 13.4069242235487973  7.6485536078954892 18.1261575995180380   T   T   T
 17.9135589115399725  7.7600353836553166 12.6573522539364181   T   T   T
 17.9764591017971256  2.5212936887788504 18.0117554642898874   T   T   T
 10.9573889860668814 11.7895951693149499  6.6414891979549271   T   T   T
 11.3127257677896562 19.4604286183038582  4.3985382721224475   T   T   T
 19.4407379347660907 19.4282494829487149  6.3563863010353030   T   T   T
 18.9527143139385856 11.0967322027802986  4.1641233121306591   T   T   T
 16.6763381322108550 11.5429250585567704  1.2646814607056274   T   T   T
 13.9858766793735754 11.4860605915404381  9.1758790439238354   T   T   T
 16.2905126838328691 19.4126629060981131  9.1173489910349748   T   T   T
 14.1275131739599207 19.4966778402063028  1.0579611389210346   T   T   T
 12.0109832181074676 16.7480924485603424  0.9022095361219979   T   T   T
 19.1204608872415172 13.9262938122922986  0.9005509809474188   T   T   T
 19.0629782661615472 16.7267674381406835  9.1822585753749930   T   T   T
 11.3023959514294763 14.4384740598476498  9.1085738938255485   T   T   T
 16.7697646297749081 16.1463260368471424  6.3881923776636862   T   T   T
 16.9839782163258555 14.0705640711161060  3.8483559987383047   T   T   T
 14.4863005300008432 13.8391045705262155  5.9310797392912846   T   T   T
 14.2162985278930378 16.4477616792836727  4.0076204389428529   T   T   T
 12.9107362979089650 13.0470977924253493  2.4552380614970062   T   T   T
 12.8868383238027473 18.3195076816180560  7.4952473683870986   T   T   T
 17.9616930350751929 17.6515680689663412  2.5057354421445761   T   T   T
 17.9677366268997361 12.8351427141128376  7.4977218280070987   T   T   T
 11.5635128208805842 11.6182758862019142 16.7905643617386566   T   T   T
 11.4144216595645744 19.9548030512105115 13.7462043487410686   T   T   T
 19.4223902370224870 19.2934979285104902 16.1638683124160778   T   T   T
 19.4235034711049757 11.5604952226701680 14.2765678260932081   T   T   T
 16.4274891881046479 11.5404186158791831 11.4140373261059587   T   T   T
 14.4793485970929776 11.4684362275909759 19.3204658915381629   T   T   T
 16.3835269714123619 19.0791192443973259 19.0627664645877459   T   T   T
 13.8939713021213596 19.2947063201574167 11.2908871942347790   T   T   T
 11.5182976133762018 17.0120703876541768 11.2562270931233908   T   T   T
 19.3172521875758569 14.1057413241583092 11.1564481197759839   T   T   T
 19.0816938303862003 16.4476727716774391 19.3788204536817403   T   T   T
 11.8557784748669999 14.2975399641926391 19.0989877832251800   T   T   T
 16.5704260830672716 16.8320579821161544 16.5796337472342401   T   T   T
 16.5465399636903285 14.4915225932180860 13.8149269934365826   T   T   T
 14.3193868871156020 14.4435516641517978 16.1296443315473148   T   T   T
 14.3491201756828151 17.1848205602449440 14.0734530129580975   T   T   T
 12.4769490527724152 12.6676079458356341 12.6355290810345302   T   T   T
 12.6382083076869485 18.2646247224006899 17.6583671389543646   T   T   T
 18.0107531639691416 17.8397766816153904 12.6697122103100224   T   T   T
 17.8018354978275539 13.0233408054759501 17.5706494858751299   T   T   T
 -0.5284112943871755  0.1042804485477226 -0.3479274796391368   T   T   T
  5.5329486880577301  4.9438840255606351 -0.4741880069767344   T   T   T
  5.1551238305658798 -0.3814725236770848  5.3157105424620488   T   T   T
  0.4029835193866103  5.0083933841416455  5.1425551338077007   T   T   T
 -0.3829854929224440  0.2759407822997248 10.4951373036929070   T   T   T
  4.9590473703204978  5.3579136024865273 10.2330139547453154   T   T   T
  5.3306658178860404 -0.5787017259412524 14.9220250373304744   T   T   T
  0.1075023350884670  4.7356584989154262 15.3485241965164310   T   T   T
  0.1153742751612354 10.3218299695140630  0.2916106839496225   T   T   T
  5.4341037913894130 15.0747476159997671  0.1923694144604649   T   T   T
  4.6907098333694792 10.1043405907060091  6.0298124618073308   T   T   T
  0.0479280193507630 15.7333598105338712  5.1823125020403378   T   T   T
 -0.4747299477286356  9.9576856248427390 10.3039513432920486   T   T   T
  4.7737383033510019 15.2216644114845572 10.2301175072578996   T   T   T
  5.3517492801396944  9.8575763773449907 15.7558689882515957   T   T   T
  0.0106015612573275 15.6300778606319177 15.7203248206019808   T   T   T
 10.3298376649653214  0.3988172031599081  0.2396836975951465   T   T   T
 15.8675362545927925  5.4023378191789622 -0.2551719892811057   T   T   T
 15.8543825761365138  0.0833754073621568  4.4152337408494713   T   T   T
 10.0082931769904153  5.3789742579293147  5.2693800084790201   T   T   T
 10.4923415121923345  0.2397233303508035 10.2066989080314681   T   T   T
 15.6207587256707150  5.1818530258772073 10.1299600939182870   T   T   T
 15.4256627045272179  0.3203495066132568 15.7285273031368966   T   T   T