Li P  S  Cl
 1.0000000000000000
    25.1819793006824639    0.0000000000000000    0.0000000000000015
    -0.0000000000000009   14.5388225279766061    0.0000000000000009
     0.0000000000000000    0.0000000000000000   37.2126966544236950
 Li  P   S   Cl 
 287  48 240  48
Selective dynamics
Cartesian
  3.1625271818244727  4.0053717054049249  5.2033732386719524   T   T   T
 14.1668393914221475  9.5257290460891966  6.0134342417617423   T   T   T
 18.9431649439787364  2.2788010880270231 14.5442547760902148   T   T   T
  7.0602799163558556 11.7825532489255203 10.8769730013877641   T   T   T
 13.1652281457294453  3.3875269021303951 -1.1702929347194844   T   T   T
 26.2557881715246282  9.5089413938871203  3.7411635160831516   T   T   T
  0.2756674497087116  6.3877827124223598  6.6990541045115126   T   T   T
 16.1807385130165677  9.3252743247662302  8.6372299110014819   T   T   T
 13.4270095924011628  1.6304107372559382 13.1400569379860777   T   T   T
  4.7291579501143826 13.4136185924585440 12.2344040719492266   T   T   T
  8.3021075113483604  5.4730005551896168  3.4073452502737527   T   T   T
 18.4899628939340914 15.4547063177968269  3.1719713612815545   T   T   T
  6.5386199209764362  9.3137519435664444  6.8180055456087505   T   T   T
 14.3111757630163208  7.1127005273829296 10.2956918661456207   T   T   T
 16.8930135173627178  5.2355175482529672 13.9392066058827133   T   T   T
  5.0307298571151975  9.2971933988132669 12.0275919534355626   T   T   T
  8.7853070797261239  4.0450718995231201 -2.5019409062200073   T   T   T
 19.7381066056840204 13.0439982260271279  6.2347283807558656   T   T   T
  3.6718605791568284  3.2533950262243265  8.6059252168191289   T   T   T
 16.4757476081890140 11.9482701935051807  6.7848929810983485   T   T   T
 19.7127162386545081  6.5706901730785692 14.3394967128016564   T   T   T
  7.5462172039422377 13.1775703727265672 14.6846916009335224   T   T   T
 12.4542136870008449 10.5179913270994803  3.4516407324082188   T   T   T
 21.8082701751365811 11.5923203913617137 -0.3734711486132334   T   T   T
  0.8567814387708673  1.8931456062120806  6.3289426213085234   T   T   T
 12.7360180360088169  9.9453268814179197  9.1038310447918942   T   T   T
 21.3983688380856094  4.7750563185527888 12.4780961882303529   T   T   T
  7.9025716964344133 10.2173068585438571 14.1067945296646879   T   T   T
 12.0263196764455085 -1.1446542399698232 -3.1716740558501439   T   T   T
 21.0465150806120569  9.2025561919914765  0.7411141008110164   T   T   T
 -1.0494997073036245 -0.1757556911621055 10.9183788732331148   T   T   T
 11.2993066841536578 14.1535042087699878 10.6375313053306222   T   T   T
 18.1176106749589856  2.9553683653704050 11.4057794811214173   T   T   T
  4.5141746323229039 11.5382987685267864 14.5283533832328384   T   T   T
  5.0258389611123082 -1.1127286144129989 -0.5313264039249408   T   T   T
 24.5632801512848715 13.6817451661377483 -0.4974398337872636   T   T   T
 27.7692765693804127 15.5937955385383802 12.4887894130828681   T   T   T
 14.5507694395566816  8.3813055685218600 14.9165711504520075   T   T   T
 17.7823272713498746  8.6255473765748469 -0.4811469795304711   T   T   T
  7.9269474167394227  0.2364837697049199  0.6794154150017553   T   T   T
  6.2665053247550384 14.5704249023105632  8.2214957305506360   T   T   T
 19.9814727841468347  9.3670157890634620  4.8293055269536689   T   T   T
 27.1465339338542009 -3.5339016502593279 18.6514122540520653   T   T   T
 14.0308020562787519 10.0757525278618623 19.5290126999425944   T   T   T
 15.2347254927666000 -1.4148576528640768  3.1566658318071359   T   T   T
 -3.0265499109771525  7.7717891662849938  5.1740698668782974   T   T   T
  6.5134105939800575  3.4775690681447835 11.0203846944551831   T   T   T
 25.5052451815929828  3.3918118553913943  8.8255137866559856   T   T   T
  0.4405095122782448 -1.6912742511808068 13.8779741304753799   T   T   T
 10.6773938392184480  7.0090854935690885 13.1764598115719380   T   T   T
 12.1495588592642836  4.1112755611180569  3.1888701458641204   T   T   T
 11.4128413432887914  9.3219579403566328  0.0280189450178748   T   T   T
  8.2764095755029476  2.6560851318242498  8.1170336190588603   T   T   T
 25.6009341910608192  9.5456695870928492 12.9150660986953447   T   T   T
  4.3426340409821460  3.6663757412901345 14.1580246921826909   T   T   T
 12.3744081307985105  9.0565236290637046 16.8817826131522715   T   T   T
 21.0361492869115843  1.5575975133594999  5.3983094019200593   T   T   T
  3.6400716837179674 13.0400966011499513  2.2508837447054311   T   T   T
 10.8782474713854658  0.7011122587254085  6.6857025043592238   T   T   T
 19.0669175054852360  6.4841340192633865  6.6900567732158507   T   T   T
 -1.7618351607615401 17.1526941162719133 12.5103914464157704   T   T   T
 11.3002298316200989  4.8273405559156828 19.1215845669062858   T   T   T
 19.8447718582104891 13.3880765790616820  9.2274356117206988   T   T   T
  4.1836264066739597  5.1567253658733803  2.6239065622011801   T   T   T
  8.8669392275240213 12.8597288826361407  8.1996869756885165   T   T   T
 20.0137922459386814  9.5978138513800282  8.7854136057399135   T   T   T
 22.9558800824117881 -0.5626832292004799 13.8666189794609611   T   T   T
 12.2654585014857069  9.9076571861622753 13.3739299420443061   T   T   T
 18.4892210028156505  7.5126049774946431  2.2433256551915224   T   T   T
 -2.3593558866959552  1.8980796605087331  2.8766247714963686   T   T   T
  7.4525676801680980  1.5625768960130235  5.1729208763652776   T   T   T
 22.8040442903341720  8.8730282111285987  7.6544936374935588   T   T   T
  0.7516988487404388  9.1034349953629139  6.6852897289627862   T   T   T
 13.7912937835715859  2.4006056988731830  5.6695143671288841   T   T   T
 17.4308403209382305 11.6132296335268457 11.1855922487946167   T   T   T
  7.2351224191466210  6.3719496003320995 21.0729687601894753   T   T   T
 12.1822493437649477  9.4970641960682229 -3.4272103113788210   T   T   T
 21.9833934338073398 -1.2364967817665768  3.9193216969303473   T   T   T
  0.4211652519246295 13.2925981839233458  6.3775576655285899   T   T   T
 12.9207309480949206  5.1449292574011674 13.4065583636806505   T   T   T
 17.0244669402867217 10.4089610218240267 14.7659669839371173   T   T   T
  4.3009523132320728  4.9236879690015174 18.2829757485105873   T   T   T
  7.7717830176321439 13.2638943310648827  5.3174781913390419   T   T   T
 21.1420842495816892  2.6471997909398568  8.2966913838243883   T   T   T
  3.6777484870926682 11.8074253084130483  5.8203400741395548   T   T   T
 12.3908381768440208  4.1967831278602059  9.0137653508856559   T   T   T
 20.0668152483069626 11.3001335312803519 15.1014852424612922   T   T   T
  7.0329584801506879  5.9021023826968086 14.7099844817537839   T   T   T
 14.8149052232379717 13.0364346432836591  9.1980947295436053   T   T   T
 27.9987963413774175  6.0454643432616439  7.5518664249755236   T   T   T
  3.8336729786250561 10.2204547324390482  8.4591202418187645   T   T   T
 15.8394769454852415  4.0929908320426387  5.6772067783393814   T   T   T
 20.7920631979184058 11.4091675203713940 11.9002882832728627   T   T   T
  6.6038615330693125  1.4691908644061367 14.2397410041008499   T   T   T
  3.0832660541237686  5.9322281118088638 -0.5435051211795171   T   T   T
 23.3493938117756024  1.0083068392085544 -2.6043368916163501   T   T   T
  0.1151240115903162 11.5774057761593241  8.8825813692195972   T   T   T
 16.2678443447038141  4.9840939150551540  8.4860974369667481   T   T   T
 18.4090012324857639  8.9055066922318957 13.0286842153040450   T   T   T
  3.5660180182816688 -0.0866379025299659 20.8372312678911129   T   T   T
  6.9921247226675467  5.7133232163550627  6.6355703117126383   T   T   T
 27.4565188744185100  1.7217026562711031  2.4176045542372999   T   T   T
  2.8418122484061374 13.2723915018404526  8.5742070829985835   T   T   T
 13.3070992334649656  6.2482159058892428  6.4179399947362397   T   T   T
 18.2916442408917170 13.2878544242402334 14.1219392036562912   T   T   T
  8.6930900290375099  4.5802768359497357 12.8123818878796261   T   T   T
  9.8611969504095711 12.8926591770215637 -0.2830005405273041   T   T   T
 22.4864890779057234 10.3247684614979498  3.3769087694804085   T   T   T
 18.4628237443859149 15.9158855157475614  8.6489572904400305   T   T   T
  7.3842857413406886  6.3169284182997920  9.2793401693424364   T   T   T
 10.8256982634310734 16.7527078188429854 12.2630140865994246   T   T   T
 24.3748497068948922  5.3622162732073759 13.8593882583766455   T   T   T
  7.1344769516069535  7.4318189103171015  0.5401965731196525   T   T   T
 14.6893083421716213  6.6973456484352489 -0.3292811687872177   T   T   T
 25.5960211235888515  2.1670872700535568 14.6630342158963316   T   T   T
  8.6541785602486758  9.5957087620736807  8.9683346056851221   T   T   T
 14.2689632850469206 -1.1865209875655296 13.6430127814046163   T   T   T
 22.9958330435451401  8.6550005737580626 14.7379352608610130   T   T   T
  2.7496830039640918  2.0731980368640213 -0.8188851563799726   T   T   T
  8.9991654832292980 10.4543757417144612  2.9198722423917314   T   T   T
 25.4681922165478447  6.8057525328914554 10.5316052459471390   T   T   T
 14.6662591648398575  2.1123838499474412  8.6649476895053095   T   T   T
 15.9646716589180802 -0.0542433789092744 16.1697543148911009   T   T   T
 -8.6374712560493112 10.6631729566749271 18.2003248355579004   T   T   T
  9.8581656891308498  1.2199294073619749  2.7926629234189306   T   T   T
 15.9958939231989064  9.2107036324178821  3.0353528116507369   T   T   T
 22.4864278798339896 -0.4550279251824715  8.3253767125459177   T   T   T
 10.1412638063028897  6.6749500722111819  8.4366126873767868   T   T   T
 11.2874036392753414 -0.0800296855595281 15.0421581420965751   T   T   T
  4.2239627791384713  7.5700014396309259 15.9890192697771738   T   T   T
  6.0313718618854013 -9.6866329656131569  0.1859857540912528   T   T   T
 21.0040464454633202  4.8775087419229548 -0.3514223357035320   T   T   T
 21.2591696885394832  5.7469334579333378  8.4138323770423362   T   T   T
  5.4661970317617783  5.9688556292147839 12.4210780715897187   T   T   T
 18.3023125469869932 14.5989648406301171 18.2349532669990992   T   T   T
  1.9299726550972995  6.4738420701754356 13.3855220229635474   T   T   T
  5.4379701902394286  7.6975612481198166  3.3156001380699971   T   T   T
 15.7594975797404917  5.8457423642516684  3.0173328553794394   T   T   T
 18.7654878022222888  5.7989399883856212 11.3896156214005444   T   T   T
  9.3384850334070428  8.2300224636735670  5.3660224063706101   T   T   T
  9.8918393963405844 -1.3947780933976366 13.1787301850761018   T   T   T
 26.0366962292955115  7.9663155014456510 16.1475573954167189   T   T   T
 -1.0391824109209999  3.0886795139396517 -0.7307512078347167   T   T   T
 12.7553710734748229 12.7529907358178534  6.9624905890969870   T   T   T
 13.0841696979125910 11.2045378811023220 30.5331991910510396   T   T   T
 24.3644357141644825  4.2517750121629740 27.6485676433307468   T   T   T
  3.7625163353341828 10.2438056394330381 25.7385721674473658   T   T   T
 17.4081212152568341  3.9252034826959679 25.4310703378231295   T   T   T
 18.0289826798762682  9.9083946564577623 33.9836573247412943   T   T   T
  3.0598306034605365  5.4888752537111269 30.6373511110717267   T   T   T
  8.4908586492974365 12.0260908383044693 29.0564805989921382   T   T   T
 21.5611682371883226  5.2941855646494460 22.4670614858267399   T   T   T
  4.5991468585010713 12.3231646794064531 23.1589976640496715   T   T   T
 14.7275374126442813  2.4080255935411712 25.7903505675722329   T   T   T
 21.3872813944155951  9.0020393575829836 35.2088762603289567   T   T   T
 -0.1091826145342547  7.9618300308047409 36.6211189047917713   T   T   T
 10.7700753951352457 13.3256679376060703 28.6337781310534183   T   T   T
 21.4515753513872092  4.1237603588560949 28.0636567143438462   T   T   T
  3.6527222551935754  9.1621720843729868 22.2263608407180087   T   T   T
 14.0506760799622761  5.9630034833476850 24.9595875204943525   T   T   T
 14.9047200620007381  9.5116274946776471 37.0197950307355867   T   T   T
  5.0005844425525385  2.3660356526128656 34.1347147235944703   T   T   T
 10.2020842417462809 11.9292464590656131 31.9600807353221761   T   T   T
 25.5363604050675441  2.6120976230249133 29.3861036972839003   T   T   T
  1.2889650321138291 12.9055746027479579 25.2825200239334720   T   T   T
 13.0923977231597526  2.9791375961321425 23.4013502006304535   T   T   T
 21.0356045878431068 12.1744678570133651 34.1905923168352075   T   T   T
  9.0035456683882522  9.2528468497518936 30.4445384452138370   T   T   T
 14.5198806230135578 13.5835841378204307 24.2600868798845255   T   T   T
 22.9373657958947064  5.7029793554892407 29.9629794580601150   T   T   T
  5.0479908112097114 15.6788714755627367 17.9149591854769419   T   T   T
 16.1950979921713056  5.2738367989478991 22.1366790354647911   T   T   T
 22.2990068680527749 12.5491154137854615 30.7800215959823156   T   T   T
  5.2047886841800448  5.0183406518690710 33.9483789986540216   T   T   T
 11.6992513863790393  9.3056146067679713 28.4001997131904353   T   T   T
 22.4059961988475109  2.2054261499602057 31.5326575753223430   T   T   T
  0.7577921192302673  9.3139244205780543 24.5403749083873564   T   T   T
 16.6797359455835661  2.5593684618843393 23.2318938922422937   T   T   T
 17.8411724713358808 16.0273496683736738 36.5021219833347317   T   T   T
 -0.0255806069913376  4.8155431900388628 40.8480167702949188   T   T   T
  9.2186363704648375  2.0045076662969463 22.1585506648454214   T   T   T
 21.2855425878242492  6.6222324737583245 25.8753500178666975   T   T   T
 26.7201333528630940 -0.3367857644696869 37.7854480291261154   T   T   T
 15.0261557759336384  9.1314516839137880 34.1829473590391402   T   T   T
 16.2456691430257401 -1.4408573908229183 31.5500783401388318   T   T   T
  6.2133734537817196  7.2063147222921033 31.7189455249383876   T   T   T
  9.5551636712349310 -0.1505490274090495 17.9714471833008069   T   T   T
 16.5017612130342641  9.7584910337329838 22.9805743456868186   T   T   T
 24.5174829403181000 -1.6420357373321497 33.9706752292562584   T   T   T
  8.9931479150732869  1.7859115751369192 30.8592327915309212   T   T   T
 23.1925282736857525  0.7339033238019406 23.7871606626256096   T   T   T
  4.2291479505558511  8.6227030012883503 31.5914589354123692   T   T   T
  7.1924900272257100 16.3224568704430268 24.1362635464829900   T   T   T
 19.8982169577923038  8.4878779522311483 21.8351845359636982   T   T   T
  5.2207166942838663 13.5754563948521003 32.6429419536956402   T   T   T
 16.0689101796620086  2.2590880391977377 30.5498790544411527   T   T   T
 22.6610687121154619 12.3079461213757106 22.3359534972145077   T   T   T
  6.1413143548315938  8.3695129147912404 28.3950049435730705   T   T   T
 11.0315121884102645 -0.8757832334595724 22.5745018442489460   T   T   T
 23.4584067870430815  7.9505031835739475 24.0179707763060257   T   T   T
  2.6306203048091121 -4.1522795159604398 35.6046085932403074   T   T   T
 11.6312556615374287 13.0858474935530538 39.6339107857492152   T   T   T
 19.1733192121034861 -0.0573364800218131 31.1530095801055431   T   T   T
  6.0451203767103010  5.6408618156840866 28.7472309318596437   T   T   T
  7.5864154658971916 -0.0579084192229834 21.1145883331281858   T   T   T
 19.9991477088871576  1.6926704820633067 24.6578511027265534   T   T   T
  1.6404291086868827 -0.5663686893190986 34.5205086702157047   T   T   T
 16.2859510095788735 12.8271016475791804 34.9773911617331876   T   T   T
 18.4422337466091655  1.7690152222830184 28.5791644885478924   T   T   T
  8.9131998663031347  3.2221061788011722 28.4774896690281629   T   T   T
  7.5763161751387269 12.8008110399206601 24.7798505119220955   T   T   T
 20.2175676561201598 11.2982266852672275 18.2493300595344827   T   T   T
 25.0168434437022498 10.7406588443229793 38.3185271050633105   T   T   T
 12.0152819907765434  6.5777862518604957 34.3350676964264991   T   T   T
 18.4464138217945965 13.4747941751647673 28.5191851058443824   T   T   T
  2.5665015445883719  7.6419627950218896 28.8205660895802467   T   T   T
  9.7977040653788148  5.6448757708978121 31.1795287890762971   T   T   T
 23.2466905874202325  9.4966458355002707 31.9766284957841158   T   T   T
  1.9951267040639806  5.4689653827019065 25.9459029738592406   T   T   T
 13.0206549941046212 11.2804876373466207 23.0499046973186701   T   T   T
 20.4850712415478924  5.9136726041058871 40.7748516458591794   T   T   T
  5.5254495422642984 15.3614376451874435 40.2541124582834726   T   T   T
 10.0191063256034383  0.5695943393230090 25.5057844449719582   T   T   T
 19.1690563550532183  6.0649279135443122 23.2849851786758322   T   T   T
 -1.2776172290131267  0.0352128936283954 19.8697221997896953   T   T   T
 13.6268783137116802  6.6141447527728854 20.7873239950299009   T   T   T
 18.6689597540816337  5.3916203120354416 34.4968016605952315   T   T   T
  2.3584944084518877  8.4547862516119530 38.2384269033377677   T   T   T
 11.9780850725017203  2.4858824548413714 28.6320400304737603   T   T   T
 24.2175050688778661  8.6845992604973290 28.8185054326776182   T   T   T
  1.7113507988876404  1.6107477979431333 22.8285952232164071   T   T   T
 11.8320204403889910  5.8339252653406861 16.1347873706319831   T   T   T
 17.7465940190151699  4.1410446493683208 37.4299968869112689   T   T   T
  8.4257039191369731 10.5912189658398219 34.6790276627536755   T   T   T
 13.1394472538391867  4.0458439775721411 30.9019200903135740   T   T   T
 25.6200855362501727 12.0078299535886508 28.6192316627238803   T   T   T
  4.3771355770865483  3.6976552227149142 24.6178267679541385   T   T   T
 14.2827366677042331 12.0528048672314121 26.4079895393995017   T   T   T
 20.8483731260799310  3.5378655796593281 34.0079688838401566   T   T   T
  5.5343140162793745 16.5112630516964174 37.3825849677785982   T   T   T
 11.1834926479057604  5.3645678784525277 28.3623120966582896   T   T   T
 21.9470820712698504 12.1418450949884651 28.2757962846170230   T   T   T
  2.8249953657022995  5.6120441728918129 22.9388143542484961   T   T   T
 13.7607009658583195 14.1488240811973291 19.2022500583091436   T   T   T
 17.8894338699560791  2.5963585064615442 33.9825689840715839   T   T   T
  6.3930119094124906 15.7503223255706679 28.2293266950968338   T   T   T
  6.7988511156517024 -0.6188283733260000 30.4584806649209199   T   T   T
 21.0772772426226105  9.2551646392999984 29.5544957433675854   T   T   T
  1.6375533550202563  2.3533074634483646 26.0710997456553599   T   T   T
 13.8478709732927836  8.8872783525456889 24.4219538327148982   T   T   T
 20.5599336722131554  0.4924486327899159 36.3461755082497717   T   T   T
  4.6698924861252795  8.7571511477817126 36.8089743726962766   T   T   T
  3.2743636715098030 -2.4391658805833782 30.1861514442086651   T   T   T
 16.3370191306604120  9.5106492011272863 30.2304975684183361   T   T   T
 18.4145967584328041  6.0265528968868116 19.2532027454710217   T   T   T
  8.1190234074777354  4.7540768001764846 24.1742840945647934   T   T   T
 10.5916237080529108  1.7635958963524099 36.7186461766126371   T   T   T
 24.6941220277557036 10.6324297990134546 35.8291761289394515   T   T   T
 15.0519187948278645  6.8624509362412853 28.6106247667613047   T   T   T
 16.5546721954186644 -3.8851606361820514 25.9776927803192947   T   T   T
  6.7130168062186639  8.5145765151767918 24.2994777171288234   T   T   T
 12.0490232649709661  2.7648614357278669 33.4100865950827028   T   T   T
 27.7260618660294575  7.5307233977599086 33.7998029853753792   T   T   T
  3.4983249414996700 15.9204789525342569 31.1561858556065552   T   T   T
 18.9137753710362055  7.4827341981798643 28.2061084265888198   T   T   T
 25.9591045253890265 11.9114958690868988 22.5614163036552604   T   T   T
  9.3633167743207277  8.3509236643225755 26.4401146511066507   T   T   T
 18.1292279494615123 11.6166613485668684 36.7067592723426515   T   T   T
 -2.3804176541587942  1.4866564659533830 27.7096530775518559   T   T   T
  2.2855112277400069 -0.1281727681608194 28.5742892064503060   T   T   T
 16.0488814985940635  6.4117720595375696 31.5464251930006689   T   T   T
 18.8828852780579446 -1.4456236214017688 22.9230050412602644   T   T   T
 10.6976528158137718  8.8729909510731844 23.5379764953364834   T   T   T
 14.6089886190414973  0.7188806535983924 35.3689065196183279   T   T   T
 -1.5948492396279479  6.1886886512677961 34.7762575606616267   T   T   T
  0.1388106489466465  4.5104892541304054 23.8459996454055769   T   T   T
 18.7643396343567765  7.3317995969833882 31.5550934962921019   T   T   T
 19.0361818939022598  2.9309599377084536 19.4971283758212337   T   T   T
  8.5727635188175668 11.3742360284913211 21.7477982444454767   T   T   T
 15.3592700033188958 -1.1136742159287509 28.8618341391668061   T   T   T
  0.7405991001699468  3.0072009589525401 33.8919957389806257   T   T   T
  4.7968425566104687 12.4621172377889167 28.1571263879062528   T   T   T
 17.0261190011983956  4.8748802415143260 29.2347164939497510   T   T   T
 20.3603231820087274  9.5379454872379270 24.8164479729124672   T   T   T
 10.8452390468175590  6.2151315096858486 23.5512631677403625   T   T   T
 12.7979472988651857 14.8374189389764126 37.3224319326891916   T   T   T
 23.0956582168682978  7.5353409770154691 38.7536597009189521   T   T   T
 -0.1267397687711954 -1.3479454541954299  3.3114951599468414   T   T   T
  9.3587065297633263  5.0358937827764452  1.1333213025578259   T   T   T
 16.5473755375431821  0.3532610046925024  5.8411646662269092   T   T   T
  4.1458273874885512  7.8995925757568353  5.6928839831741840   T   T   T
  8.1802138278017118  0.4323469529377776 11.1746249979153642   T   T   T
 20.9409662796704197  8.1694456986252035 11.1198308850297281   T   T   T
 23.1942362372161135 11.6071369159715445  6.0710117561090415   T   T   T
 10.3071822678045706  4.0450492049049513  5.8746913667509766   T   T   T
 14.5011785440644374 10.9787761669862078 11.9988247804272454   T   T   T
  1.7214538157872774  4.3811374186673762 11.4939067522537730   T   T   T
  7.0109576120148498 11.0889292363548329  0.5771418096676728   T   T   T
 16.9419016455495566  1.9424796127086081  1.4119884086680654   T   T   T
  4.0370181200837001  0.7774585989400471  5.5104646018031858   T   T   T
 16.6760963581362951  7.6064687824858348  5.4037981754489639   T   T   T
 20.8555052440603710  0.6640217485617419 11.5756269659979143   T   T   T
  8.3019870337188841  7.9134901214633455 11.6567957053413078   T   T   T
 14.8862190102961947  2.6359348599778389  1.7272204424313922   T   T   T
 -1.2522218659803248  4.8467203614646985  1.4437522570466044   T   T   T
 22.8765187164399926  4.1458641675483445  6.0033923386005856   T   T   T
 10.5186115442633046 11.2509323375079120  5.8728635392284945   T   T   T
 15.2094574244617196  4.3447043005082726 11.3514609075996056   T   T   T
  2.0388410317820544 11.4656340817815483 11.5554985590611405   T   T   T
  8.3822116094110886  3.0657944117100242  1.5168469353377647   T   T   T
 16.4508316197695343 14.2688251409354478  1.1505359510199005   T   T   T
  6.4444838064015455 -1.7867246685729217 18.7093927803052544   T   T   T
 20.1112807972107959  8.2946686977477135 17.6917449002032754   T   T   T
 25.4216775374911634 -0.0475848840518715 31.3335064817874489   T   T   T
 12.7923527141433322  7.4924034320927939 31.4606371653032362   T   T   T
 16.8891418496153278 -0.1746486791027484 25.7188363521504861   T   T   T
  4.4843426678951683  7.2595232801428979 25.4446580263529576   T   T   T
  6.4110850958403036  3.3583981015070807 31.4997895086173365   T   T   T
 19.3015474069123769 11.0156138593633663 31.1449687034578666   T   T   T
 22.7314664153947952  3.3164254920321508 25.4379546375697245   T   T   T
 10.6397229417080705 11.2306913600404314 25.2923833286569710   T   T   T
 14.5612764079786920  2.8915039967835172 19.0250420381615868   T   T   T
  3.3509868232088067  7.7687971576465680 19.2382323957560324   T   T   T
 12.8458827704040317  0.2587646155858737 31.2225474827924856   T   T   T
 25.6917272655734941  7.0709642254867040 31.4574906875721183   T   T   T
  4.4692777420173879  0.0890772803877780 25.2378251130443942   T   T   T
 17.1784162186620932  7.2661831317361827 25.3976745440336558   T   T   T
 20.9116615275945641 -0.4867251797426518 20.8326418545407464   T   T   T
  8.9672353974493859  6.3259410011893245 18.3864657392375115   T   T   T
  6.4280616429858046 10.9544608149432214 31.6477773321372453   T   T   T
 19.1835679035859101  3.7532496059543030 31.3278234202401507   T   T   T
 23.5120915463164337 10.8214244007336262 25.5616823669915618   T   T   T
 10.7772964921124288  3.9008520502332589 25.4411365151330280   T   T   T
 14.3703259930034122  7.4457399606746453 17.9937795554938411   T   T   T
  1.0396827259227379  0.3150534776579801 19.5311248719078989   T   T   T
  4.1720642678572890  0.5269924108044635  7.5465069091574257   T   T   T
 16.7494884825100989  7.3751861608055673  7.4382029854203351   T   T   T
 20.4532622477217956  0.3984328645899212 13.6373044352223953   T   T   T
  8.2891368897040127  7.6754990368415585 13.7321720691480831   T   T   T
 10.5509988253519609  0.0738746199455384  1.0998114075168404   T   T   T
 -0.2083706493794821  5.2531679965104523 -0.4775109247848381   T   T   T
 21.8791925076343325  2.2387124445981001 10.8955028306514539   T   T   T
  9.2559161242998105  9.5650530329840358 11.3283988179342376   T   T   T
 15.4232212220290634  1.1941103856466395 20.0341512156095298   T   T   T
  2.1523157120092051  8.8706013908714176 20.3755063016176763   T   T   T
  4.9675608966999754  2.3662243104591574  4.7532528481942613   T   T   T
 17.6049080714246280  9.4963087362217173  4.8921942656943882   T   T   T
 21.8577288083514993  6.3208001182970985 10.6731039509998222   T   T   T
  9.1042936180641174 13.3901679101190254 10.5246442063107910   T   T   T
 13.4039672666929714  2.6131420092332469 17.3696497131676040   T   T   T
  4.4552301162528662  9.2059656362643345 17.9766036202461699   T   T   T
  4.9404824655611232  6.2057083274194280  4.9519714804557156   T   T   T
 17.6246833570303600 13.2949933706919623  5.0604532122350498   T   T   T
  6.2565606148525950  0.2799208061984868 10.6357837288051371   T   T   T
 18.9438322511642987  8.2339124052783816 10.7541336609239622   T   T   T
 21.4269534504449339  1.4253048474925645 20.2335857742621563   T   T   T
  9.5084317464354484  5.1323022397378422 16.8361310782499132   T   T   T
 14.6289698388988310  0.2703926669373395  5.2551578016337688   T   T   T
  2.1688489463301464  7.6425383868472272  5.2510765106243840   T   T   T
  1.6561200532690215  4.1209907982447014  6.9691417907011362   T   T   T
 14.3887595326015578 11.2493321324547040  7.6841177432632906   T   T   T
 18.9236586912441602  4.4589511323657733 13.2950524796011162   T   T   T
  6.1274889486788116 11.5008578113002038 12.9694246048858730   T   T   T
 11.2116613684190263  4.3098553570440457  0.4682322902347436   T   T   T
 21.0421544153702946  8.2909110214886397  2.9267001182044230   T   T   T
 23.1594423075206493  3.9280770966552470  8.0290785048519044   T   T   T
 10.6009613438137933 11.2439433725824465  8.0554355108944389   T   T   T
 15.0163497004301654  3.8739969995020678 13.3749268843664648   T   T   T
  2.2111644292557813 11.2946983862826329 13.7166045019305809   T   T   T
  6.5090276731622492  3.5720744504713764  2.3802234146549779   T   T   T
 18.1711365501380939 13.8507233691252729  0.0891280100544671   T   T   T
  2.7726376989207639 13.2713366924107312 10.7816375113545977   T   T   T
 16.3658775196298478  5.8796370404092162 10.9207058585563228   T   T   T
 19.2287547128627345 13.1181941413195098 16.3933982194289811   T   T   T
  8.8408278574243546  5.0184720434799104 20.0187055255676434   T   T   T
 11.1158268424298274 13.1700224111320701  5.1573242574628848   T   T   T
 23.6316331849067574  5.8883652583784949  5.0286888099598173   T   T   T
  2.4063752238692264  2.6634867498854775 10.5661367485764881   T   T   T
 15.5256426760441411  9.4200577119753532 11.2650605506294443   T   T   T
 19.3914220984435559  2.0863430535012015 17.4024801629745021   T   T   T
  7.0025838645873790  7.1006279983434091 17.7525905943465681   T   T   T
 10.9721209578655117  2.3903032156447868  5.0592015535327883   T   T   T
 24.0092973225850663  9.4969222403008331  5.4427190222577835   T   T   T
 -0.3060354083499570  4.5518456397462232 11.0171588715475028   T   T   T
 12.5258692881239675 10.9782180349309293 11.2319543665751418   T   T   T
 16.9441396010851939  4.4561458955362392 20.0406088732387424   T   T   T
  6.3814847783462918 13.9532033378343527 16.8580558330668389   T   T   T
  8.3703734887488803  4.0412631170839504  5.2898897840777179   T   T   T
 21.3257343230551015 11.4263577312743081  5.0549764970755069   T   T   T
 -0.3324076652792274  0.5879451761322735 12.8773960798005440   T   T   T
 12.5285358228105519  7.4676611443070353 14.4109232427268985   T   T   T
 14.7520929739835864 -0.8599477492371514 -0.2124108721219748   T   T   T
  4.6240313188634925  6.7646321766060717  1.0470736844901301   T   T   T
  8.3331241365856048  0.2743315434325395  7.0493481232494064   T   T   T
 20.7859036807525932  8.0612579314781385  7.1897766477643987   T   T   T
 26.7682586044828632 -2.6059312621147948  3.0571569912126524   T   T   T
  8.3235207537472338  5.8135168653996336 -0.7555385146378563   T   T   T
 16.4668010328790722  0.0020772109542438  7.8959152150621152   T   T   T
  4.4160476494596637  7.9181683695693339  7.8022324588771959   T   T   T
  8.4675267384825474  0.3740363125497775 13.3336826749144723   T   T   T
 20.9332384018314137  8.0020539684460594 13.1682821816274380   T   T   T
 22.0034161548031655  9.8232201335830958 10.5166719783298745   T   T   T
  8.8675624247211431  2.2814152833416905 10.6146886456577239   T   T   T
 12.4209841613367598  7.3598210721455661 18.6584178413203219   T   T   T
  1.7586308367915360 -1.5323223042792395 19.9939041187887945   T   T   T
  4.8718231926012532  9.6160523856370794  4.9367857579839427   T   T   T