Li P  S  Cl
 1.0000000000000000
    25.1819793006824639    0.0000000000000000    0.0000000000000015
    -0.0000000000000009   14.5388225279766061    0.0000000000000009
     0.0000000000000000    0.0000000000000000   37.2126966544236950
 Li  P   S   Cl 
 287  48 240  48
Selective dynamics
Cartesian
 -1.8841558496536039 -0.8331569959085018  7.0167386581247451   T   T   T
 13.6572050300905232  1.6435556930431576  6.0415842502430923   T   T   T
 14.3521032946056888 -3.4806218811123570 18.4859298992959715   T   T   T
  2.2236920277160666  0.9787677787192038  8.5579668726671549   T   T   T
  6.2568586119148382  7.5169589729101238 -4.0562517679932331   T   T   T
 25.1934632079110123 17.8229048207832257 -3.2660232409942824   T   T   T
  4.5922399801225833  1.0222753280527173 13.4465905907318195   T   T   T
 14.1313669780161071 18.7903061819628512  6.2021650528902601   T   T   T
 19.4678695473574095  5.0299638255052779 14.5224959497134201   T   T   T
 16.6869775937744649  5.9141431771298931 19.0156313706256235   T   T   T
  9.0212513786689108 -2.7155670258016666 -0.2593876212851238   T   T   T
 10.8239452259026852 22.5432903855097102  2.7890585466630489   T   T   T
 -1.4258979305783941  5.1524581629610351 13.0349396328328240   T   T   T
 19.2494858216765152 15.4608443119752579  7.6545118754612362   T   T   T
 20.1206643605411877  3.7724909567418585 19.0034484715243508   T   T   T
  7.4719463946480298  6.2578329564525310 24.3019521516632118   T   T   T
  5.9834106849815418  5.0519658512809800 12.7084973773838819   T   T   T
 26.0095710481274942  2.0502690101086958  5.5446772234833945   T   T   T
 -2.3978038063189819  7.4663001900327357  6.6403773964098187   T   T   T
 17.1496242427842844  9.4856670076848033  9.1204254403437304   T   T   T
 21.3620636853991854  3.1011472616712541 12.4641933184843303   T   T   T
  6.6317441090980500 12.5597704658022558 13.1846543850966906   T   T   T
 12.5684891500234741  2.7375936097182709  8.4079879711738119   T   T   T
 28.5266054987162399 15.3295367846389681  2.6476029247629942   T   T   T
  2.4317788533333400  0.2270029951482691 11.4463584727988632   T   T   T
 10.4254572905238607 15.0348424987000264 12.6120685603900284   T   T   T
 20.9243665229713294  8.4513501111398988 22.1514512942393687   T   T   T
  9.1387795166125105  8.4551423165070467 15.0237070866824514   T   T   T
  5.3043276395891130 -3.5930603845560265 10.2143850582741980   T   T   T
 11.6936363268623111 -5.9723452936685568 12.9669353978623256   T   T   T
  1.1146963098317597  5.0153108901119259  6.1772941166455064   T   T   T
 14.8955507117722679 11.4163798427465437  9.3970499180506852   T   T   T
 19.9309641361388650 -1.9523214934357422 14.5477420780714226   T   T   T
  4.3683072559743854 10.9582742046435726 13.9514755551337846   T   T   T
  5.8435701440893135 12.9498102846499208  0.8672854156348879   T   T   T
 19.7428034540767641 11.6828490461579015 -0.5975967050583577   T   T   T
 23.2473341731452230 22.9216228760756664 13.9073993619243907   T   T   T
 10.9384449379760138  6.9462872288739712 23.5961227973989551   T   T   T
 19.7098691592583855 15.6752201706181822  2.1079913318888832   T   T   T
 -2.7524914143864554  5.4410680336578432 -8.8408455714988765   T   T   T
 13.1035707872106713 15.2391698446335084 10.7759248713628004   T   T   T
 19.9248835394175856  5.8344352149224958 -2.0644955644107719   T   T   T
 24.6890638372639373 -0.8649527834925160 10.5879009232944110   T   T   T
 13.5153719645650323 11.6180061394700260  7.0025500251160793   T   T   T
 11.6130343801127314  4.9352489311215093  2.7211246543727552   T   T   T
 -2.7987207102470029  8.4875667569572677 -1.8237481352852751   T   T   T
 -0.9161593450186357  0.1794622199399243 14.0888691434668765   T   T   T
 20.2298921493034278  1.9458564154101556 15.3222633501998118   T   T   T
 -2.5833134468786016 -9.8835963361688925 18.3125345526040242   T   T   T
 18.3503475859540721  8.4875638445673793 19.7095667964450776   T   T   T
 13.7802441626070049  4.6825393251584817 16.2421748436738049   T   T   T
  3.5034535148461035  3.9459331116752145 -2.8339049894426558   T   T   T
  5.4061756494335524  3.6622893166181534 19.3198745162068803   T   T   T
 20.2978679187127788  4.6166978962062553  7.6247411029482821   T   T   T
  2.0047472295448068 -1.2962214312226454 13.7828273995459245   T   T   T
  7.4663671474735098  8.5279784782607209  5.7247961929822715   T   T   T
  9.0650598406539302 -10.7760760636374080 -0.5285390472993676   T   T   T
  4.1215649543896991  6.0340238728919475  2.4524169761767900   T   T   T
  7.1478180426460014 -4.3890603866501161  0.2991438889042441   T   T   T
 22.6942427307978356  5.9744094928855640  9.2681704443093444   T   T   T
  1.7241289628856760 20.0469777295284928 18.6567289164909980   T   T   T
 13.4279109571136352  8.3886898114213402  6.5384598656395445   T   T   T
 17.1630821838157601 15.2613152745117517 -0.3537862767704570   T   T   T
  4.1478712546467769 10.5131541456003994  5.9750287594690050   T   T   T
  8.1582541801736799 12.3698622291424698  4.8746309432682633   T   T   T
 21.3805843649404643  1.2032466941665356  8.8635424506886338   T   T   T
 24.5923441816710309  1.8292913380809608 12.0150372933833101   T   T   T
 12.6035828785291208 11.6934004610609570 13.2472738278675770   T   T   T
 22.4752984018996429 -0.9252780731883683 -13.1737091363886005   T   T   T
 12.5645594339386104 11.2143244846045071 -9.3458429644900001   T   T   T
  8.4649765489525777 -1.2408556545822054 -2.3685728766717027   T   T   T
  8.8694120832247734 11.0748776445369508 12.3808554711524668   T   T   T
 -1.4705004362208955 14.8399135621628453  2.5470163708023534   T   T   T
  6.3114085012332035  7.5748123251253636  8.4666234483681730   T   T   T
 18.3360797909014650  8.0605389970805916 13.6148685591043712   T   T   T
  8.5508868945564096 10.7982010359899192 18.3385461083256267   T   T   T
  8.8682652674285247 10.7808278524144185  2.6323911683118730   T   T   T
 22.1096522891987632  4.9471321873652769  3.6482551806820043   T   T   T
 -0.4395361926633710 14.9254730865558436 -0.0876952861805161   T   T   T
 15.3870514769479296  4.4778618349135551  9.5403169824245388   T   T   T
  9.7485059047934666 22.4967923306807478 26.3618239613892413   T   T   T
  6.7989342630408585  3.1657308589536912 24.1347330696210456   T   T   T
 11.7203322786334034 13.1267580656649159 -3.3754124932723699   T   T   T
 22.6555733788889100 -2.5357489529335289  2.5849187193898557   T   T   T
  5.7360215776949923 16.2979616656235358 17.1510536145489461   T   T   T
 18.4642485183912939  4.1965482748791967 11.3422316071529341   T   T   T
 20.7398189476669650  8.9065501694802940 15.6817708975344932   T   T   T
  3.7894730032231911  3.2400115274025678  5.2315079429964912   T   T   T
 16.2868183876089745 10.7274059863841877  5.8380948207828141   T   T   T
 37.0829292222481328 11.2459852276654644  1.8294201192094368   T   T   T
  6.4806263683052805  9.4986799110391118 14.9999848213916369   T   T   T
 19.5694259056296715  6.4823880376803764  5.2295145514016772   T   T   T
 12.1535413920766260  8.6412128798840904 16.4499119167709047   T   T   T
 12.6813375587625270  1.4005153262228209 14.0502996972186907   T   T   T
 15.9979924595209422 12.4599573579226970  3.4569706757871348   T   T   T
 25.8857982696237627  3.7097618741238483 -0.4213516362971350   T   T   T
  1.3646311561717435 12.0289438002869602  8.2635085175934755   T   T   T
 11.0433396178052217 -0.9818889588767935  6.1366155583329780   T   T   T
 21.1645151115499495 10.5793964391858992 12.7091957870384817   T   T   T
 16.0611224776320114  2.4774839201325496 22.3433618466818231   T   T   T
  5.4827772123072718 17.2465249555398898  2.2737987593615290   T   T   T
 22.5128630098593625  3.0402938531680528  1.3240377579639371   T   T   T
  1.4877543746367559 11.6909209719948350  4.8739914371797459   T   T   T
 17.1275251302333267  3.0456717294846896  7.2168507460856075   T   T   T
 25.3014430793708698  7.0676697971038784 16.0037233192884969   T   T   T
  1.9486921336877807 -5.3884735784871882 15.8755735641541857   T   T   T
 19.7234400320383614  6.1686267617862045  1.2585838610982374   T   T   T
 19.6657983519389354  9.2578157596811543  0.9273290326232595   T   T   T
 20.4996750007237694  8.0133398574876473 10.0239124494917338   T   T   T
  7.5462268367905621  4.9407480267466619  6.2400963588334299   T   T   T
 14.9018036066338606 14.0903672806318312 13.0225506697653728   T   T   T
 25.4589438300749613  4.4024935537832164 14.3022641638815227   T   T   T
  2.4608647467072076  1.6704381703122773  0.3818369975784670   T   T   T
 16.8993805935552750  8.3088159532333243  3.1286584396156578   T   T   T
 21.3153093997744136 -3.1801423506115021  8.3450458564427823   T   T   T
  0.5316764934001715 -5.1407233197156446  7.9390921682040485   T   T   T
 11.5475148146646625 -8.5749489484046109 10.4022759643782923   T   T   T
 28.4174802066497776 12.3624749043247739 17.0094216944179522   T   T   T
 10.5832932612778770  1.0893795400865811  2.6362979509630922   T   T   T
 17.7352624575936915  7.9773393810336017 -0.5288635584870106   T   T   T
 22.6455985806992039  4.6263164120918558 -0.8950800998754100   T   T   T
  8.2698572950370757  4.8017120950374022  8.6297147871076660   T   T   T
  9.8704768443659550 -6.7909689589399065  8.6561079266643599   T   T   T
  3.2668228423821106  9.0259990713713592  8.3917933086836847   T   T   T
 -0.1814664165220155 -2.4492321038189995 13.0374947059813948   T   T   T
 14.7203380893964759 14.0528386616011822  0.1459937671565002   T   T   T
 18.5276258405866940  0.3638024124181111 10.0438735291982333   T   T   T
 10.4905522835082117  6.2411211862254827  5.9197017411998267   T   T   T
 13.4621207819528124  3.4433024103308982 21.8125822985945632   T   T   T
 -8.4949151848536424 11.4422632935905568 14.8966619355110108   T   T   T
  1.4770843735737000 -5.8823060636805504  5.0126866635526781   T   T   T
 21.6123468326197603  1.1921102436621798  6.0704644648054034   T   T   T
 20.2453184030898257 12.8291880563863323  5.2692078870333310   T   T   T
  8.5356645408469465 -2.9057037109224266  8.3523050187190453   T   T   T
 14.1846326317885971  7.8782786464102132  9.4434659431150614   T   T   T
  0.8654351460147510  2.0695535100573101 19.0764172274358330   T   T   T
  4.3727314316370265 15.7225771720705119 -5.0119164987795042   T   T   T
 15.3912562740271319  0.7847700677638102  8.6906830442130172   T   T   T
 28.3383314101287915  6.2156040637820773 -0.2718552018470417   T   T   T
  9.8952828980542371 -0.1568046118202892  8.7291054455647110   T   T   T
 12.1135585837699775 -1.7998922125656538 10.8736722520817199   T   T   T
 28.9907389663259245  5.6717969060421423 15.0279473528245440   T   T   T
 -1.2751716039965335  0.6009167292800303 -2.3337051092917571   T   T   T
 24.5022160229839194 10.9755930216793693 -5.5992609166093130   T   T   T
 15.8341577996768361 10.3976383322465047 26.0518654406104169   T   T   T
 20.7724430062600405  3.2422990144266586 28.9380082682610791   T   T   T
 -3.0622389247177777 15.0384264135780690 26.0222928753316651   T   T   T
 14.2266988321723851  6.5101575127419391 21.0352618772963069   T   T   T
 15.9460383183291263  5.5142158971198203 40.6314402009848976   T   T   T
  1.7226252783797991  3.7138602273464745 26.4017433770677918   T   T   T
 10.0295311288508859  9.8285715891973702 24.1714667657037481   T   T   T
 24.7343437903150587  5.0938791254542091 30.2081778606240299   T   T   T
  2.7039946728944688 10.8510841189725014 22.0015189131864126   T   T   T
 13.8681146619379341  6.1025420482888846 25.0411302478484430   T   T   T
 22.1893077570602486  8.2504473365302076 38.5873968952799089   T   T   T
  2.3832768304085663  2.8618200969646148 29.9325446301793185   T   T   T
  8.1450675505011283  7.9622625106386877 21.8508256826791616   T   T   T
 28.4457607670171058 10.3760437529519685 30.0610482279029689   T   T   T
 -0.4106323348079564  7.5985821091545906 11.4820897493487113   T   T   T
 14.9811759446872035  7.1900477818739796 13.7613874608112390   T   T   T
 16.8816455138640826  6.5039231113755536 32.3492521452078421   T   T   T
  2.0885753043564743 -1.1301893612275820 30.1828827101990953   T   T   T
  7.0578772274353287  9.3072667181955921 25.2334820750904214   T   T   T
 22.0740656152374015 -6.0545827733066941 30.6120457851444883   T   T   T
  1.2373434883331347  7.0805996763282728 23.3540592048602882   T   T   T
 19.9665103810315223 -0.5455309137445400 27.0072776221160211   T   T   T
 16.5183046086848933  4.6190556669145355 35.2629134679844185   T   T   T
 15.7288526110568885  0.2306660386934407 32.0269578363695473   T   T   T
 16.6578230651409882 19.6070012100888604 23.6149999423737178   T   T   T
 18.6422781459376665 -0.4995762955631305 24.0828051275401194   T   T   T
 -5.6634120800440773  5.9346412529082384 25.1619802411341951   T   T   T
 17.5322651958206954  1.0345574605717796 13.6064425945166754   T   T   T
 17.5361963884326499 11.9475029308294793 34.4237002600701913   T   T   T
 13.0344972557092316  6.8543380620116174 34.3481258335996813   T   T   T
 10.0670114942533839  8.7958989203554019 29.8216813370759972   T   T   T
 21.5623953113294782  2.3418601539783488 31.3894433921687401   T   T   T
  4.2455970563132439  8.9777414404682538 18.6320240665545924   T   T   T
  3.9220317422827020 12.2194241987866299 24.2009293027772543   T   T   T
 17.0234167843599344  1.9765041433121739 34.2442477790903013   T   T   T
  7.8336406362972371  3.9778873848415106 39.8762976631555972   T   T   T
  8.4062569250019177  4.1982261282710933 21.3505878215817226   T   T   T
 13.5227836706150715 13.2695924616695535 24.8200554282365360   T   T   T
 31.9355193643349224  1.4090575549498210 37.3839143917493999   T   T   T
 13.1198000617769157  1.7133322934595834 38.8100091461204499   T   T   T
 16.2779128229346775 -1.6679658245781890 29.2589132431090277   T   T   T
  3.2904059646049366  9.2904714548157941 27.4825629176587185   T   T   T
 13.1931924428995604  0.4541414760750672 20.2208063672614742   T   T   T
 24.6489030585353888 12.2801548916070367 22.9270865474331771   T   T   T
 21.7823073798488380 -0.4212179966942887 38.1713240336610795   T   T   T
 13.0532975902152728  3.3655233090301166 36.6533150978427358   T   T   T
 14.9315785867223809  1.5320653363631500 29.3022021274558071   T   T   T
 -1.9656583762963973 13.0777748569982251 31.6317219659589277   T   T   T
  2.1687050599742328 21.8164527232251189 12.2991174650629489   T   T   T
 22.6521319650031820  8.5740732713222414 24.5581335748680267   T   T   T
  9.3624846535065736  7.5112008662418850 36.9661397599452783   T   T   T
 15.8480908680285726  0.9591893995635289 41.0537317788618310   T   T   T
 15.6974435447124137 12.5714885683549404 23.1260993808831046   T   T   T
  3.2413262533685590  6.9620108771174447 31.3384095179627096   T   T   T
  5.2330278581069596 -1.4783576302910639 19.7098859421237940   T   T   T
 18.5836360255440596  9.1380068260918677 24.3357665122264208   T   T   T
  5.4678192674372514 -1.3181026490179195 34.0982362133050287   T   T   T
 10.1253143339319038  8.2277635786565355 34.2776281503636824   T   T   T
 12.3938181891720696 -3.3387779210110184 31.3098590578079552   T   T   T
  1.7185683014512434  8.2680197045698485 29.4912447421314283   T   T   T
  3.2251028775118460  2.6124546235689983 21.8066104350158660   T   T   T
 20.4410447012226975  8.7783263088080119 26.7020859160607777   T   T   T
  2.3674022107999981 -4.7377701140769704 33.8986361316237748   T   T   T
  7.9343068516105175 10.5329045961005718 28.3937139390736029   T   T   T
 12.8682192554059700 -4.9474773267647407 24.5197342911046512   T   T   T
 10.3671257246321051 13.3970441385432757 28.8705522306202944   T   T   T
  6.3326645277268216 15.0472522069835257 22.0151677580660383   T   T   T
 23.2303910265502900 14.5163737013962759 20.3101584208706143   T   T   T
 29.8295215838386980 18.9243669739912299 44.7703279328650439   T   T   T
 14.8611345698304564  6.8456008373741719 37.9555562239645923   T   T   T
 18.5996876124210111 14.3972851234464692 31.2095667930118630   T   T   T
  1.1469033751564932 10.2030477451611787 25.3984619824018587   T   T   T
  8.5419708864742532  5.2165573818548268 28.3941334429780241   T   T   T
 25.9210480256996512 -2.4199582509600264 37.8900199358552641   T   T   T
 -3.4581610017820048  6.2854117004690631 23.0305004126950017   T   T   T
  8.6853312527948301 13.9269852843671202 22.3536543226337550   T   T   T
  4.1640704582496939 11.0572661672499208 40.0870626964389061   T   T   T
  6.3841618403696216 14.4437065312603039 45.9961319759151195   T   T   T
 12.1377535266669128  5.5845321250124638 28.6383707850738709   T   T   T
 19.9105506839380304 17.3155579300286817 25.0761820169619334   T   T   T
  5.5317704980375222  7.9458906210299780 11.9072332117374522   T   T   T
 16.3769038066801471 10.6472185930190903 20.5484319659352934   T   T   T
  7.7517230809178486  0.6752265794650244 42.9529355683828271   T   T   T
  6.0070959827684369 14.6757171887581528 40.4932555456167762   T   T   T
 10.0479306139618316  1.6201226561499289 30.1661118476509955   T   T   T
 18.7367131055809146  8.7350179901093448 34.7529929636861254   T   T   T
  1.4930315610154565 -0.3243387315027382 23.1724455500489483   T   T   T
 15.6533410973612526  9.6527037004126299 23.0069132055286225   T   T   T
 20.8822673594252493  9.2928604704093196 41.3446999374540098   T   T   T
  6.1931627523327277  7.8471149781473066 29.6164106526387947   T   T   T
 13.7849460342402494  2.0693679741001390 24.7462847548499028   T   T   T
 24.1685049254182722 10.2480626667893873 28.7151605197396016   T   T   T
 -0.2593714241197719  8.9341011070205063 19.9916176245944222   T   T   T
 17.7759361623767624 16.2988427326641769 19.0694392705591618   T   T   T
 26.4021783240859982  4.6342825555331704 46.1684721677858647   T   T   T
  8.7997292103013383 11.1256039855745499 31.6779348862267192   T   T   T
  9.9413178193239577  4.9684109942621149 31.3124332374827574   T   T   T
 21.1321689021876864 10.4986634269164973 32.6744471797889418   T   T   T
  4.6592755601301459  6.3174804298448057 21.6837042959309301   T   T   T
 10.1532167211965376 16.5246775096097167 22.7401263598922192   T   T   T
 24.9795077637426601  6.5748706334763014 38.7724499023811404   T   T   T
  4.1530628508659602 15.4808882660343805 27.7903057842395249   T   T   T
 12.0350554026567007  3.1019391705937225 28.6138360252551358   T   T   T
 20.6769105874469830 11.6048955015132762 29.2614611713005104   T   T   T
  2.2243938871692550  0.2920221667636811 17.2227163297390931   T   T   T
 12.1426618227288774 13.0835838654413124 22.5423039836124559   T   T   T
 17.1589026194529808 -2.6205326743243917 37.8031102227360378   T   T   T
  7.3540310740443227  5.2072907437364879 34.4649174993301983   T   T   T
  0.5851277812382835  6.5395431790489305 26.2633526714552907   T   T   T
 16.2304699608850491  4.8365857532679408 30.0999523387828845   T   T   T
 20.9042794368914251  1.2261776092937655 22.5596311883977307   T   T   T
  6.5678660217565437  0.4875726823236006 30.4573684369868722   T   T   T
 11.3445084061550414 -4.0393514908584240 36.3409100697010388   T   T   T
 26.7554503708257982 15.0226829200579211 34.0449436461138504   T   T   T
 16.9829668445601101  9.0512750094784273 28.9453499737286570   T   T   T
 24.9164590717809133  2.8042819231084546 23.6660347795279584   T   T   T
 10.7497793115078704  5.1480144189147774 14.0083499433338812   T   T   T
 13.9846081318985895  0.5339053297053400 34.9546437146448170   T   T   T
 22.9132696445946635 10.8766469617986559 37.3713006272525945   T   T   T
  7.8181731784920494 17.3232258673085617 27.6981764313879069   T   T   T
 12.4477213561551618  9.2728399378425870 20.3809931863130309   T   T   T
 32.6653797146962219 20.2548754664826056 16.8791629460230617   T   T   T
 -1.4546952332565928  2.0921856554869542 28.7461797388123408   T   T   T
  9.1879215633953777  2.1106538874585103 33.0282744054769353   T   T   T
  7.3277488004409523 -4.2256310397340728 34.2099051609690292   T   T   T
  4.2315398584156849  5.6704908581615872 28.8296191739830832   T   T   T
 14.7941075714582784  9.1436427174202421 30.1720094381417105   T   T   T
 15.8351647563947449  3.8740405505756859 26.6596737980794565   T   T   T
  1.7983086464035745 13.3056026808686276 26.1451717045749916   T   T   T
 16.0456513106700100  3.1209745315046851 38.6799202138534213   T   T   T
 -0.0693500605915475 20.2543316134585965 35.8889170365262373   T   T   T
 -2.7190653612839184  5.2100698511001529 32.3225673855569369   T   T   T
 14.8824309504171133  6.7259749725617199 28.3912892969182309   T   T   T
 17.5298027397650316  8.7149984571886812 15.8752803253145558   T   T   T
  8.6696145083165455 17.6158424745519966 12.1052783632698677   T   T   T
 17.8616622446313151  1.6880250362549596 28.6339242986142430   T   T   T
  5.8660859220564463  7.3812399735525460 36.3390837759410488   T   T   T
  1.7739163390411781  7.1545674059008855 34.1314988038537308   T   T   T
 18.8603577545829530  6.9703260253504133 30.2461624612254028   T   T   T
 24.3357047874976224 14.0824116573269258 16.9458498945351579   T   T   T
  7.3872658674670788 14.4960160600776717 25.6268978029363588   T   T   T
 12.3095797426205138 18.3694993501903987 32.2500971621382178   T   T   T
 20.1159301434612630  8.8134611118966468 44.4772662782609416   T   T   T
  1.7636795486977772 -6.1092703673444584  1.6323155958421722   T   T   T
 11.1551607354671489  1.5422736684567897 -0.6980247293673452   T   T   T
 17.0590790410588475 -0.3812482017331428  6.1769992889165302   T   T   T
  4.7137448377595597  6.8248389910784990  5.3080545467217890   T   T   T
  8.6723974360413685 -0.7832308628032745 11.2408080706325340   T   T   T
 21.1019911118826364  6.6830963320742196 12.3292888721235059   T   T   T
 23.0759592464769874 10.7557445625856865  5.9234295336393279   T   T   T
 10.7483066174279127  2.8953814448535300  5.6588776240152958   T   T   T
 14.9559026196528642 10.4632397990296155 12.5103718372266002   T   T   T
  2.4568830940826509  3.2873056034689818 11.5213861304474214   T   T   T
 11.9435901666483186  7.0675738507101338  0.0482059284990574   T   T   T
 19.8892422726317086  3.2944083028548645 -0.8349046819643873   T   T   T
  4.1833510703173014 -0.2976179394512787  5.6783195315497643   T   T   T
 16.7251603130494431  6.8008672494889622  6.0175199157629011   T   T   T
 21.5884543130342692 -0.5086750549917122 12.3355035172729792   T   T   T
  8.7386394327039607  6.5233192951227128 11.4591295584895807   T   T   T
 11.2651084653977094 -0.7054175223228621  0.1654970455253695   T   T   T
  0.9928624053550533  8.4762711139084317 -0.6686542251581201   T   T   T
 22.9472589270827463  3.7392266324322732  6.0762302793310612   T   T   T
 10.9193669245204834 10.3759647997031692  5.5556793602714460   T   T   T
 15.1563426123668830  2.7084841246283382 11.7577072753167275   T   T   T
  2.0473708633765542 10.3476429514583010 11.2557973220020280   T   T   T
  5.0192969875065021  3.5953818802499296 -0.6402633443108368   T   T   T
 20.7488414874460645 15.7626795186373911 -1.3626422532456555   T   T   T
  8.3448595320540626 -0.2456052679946307 19.3841809520110573   T   T   T
 20.8267467449328549  7.2157936803833742 18.7022522123527573   T   T   T
 25.0251608537414825  0.4216814112279587 31.5269895177389188   T   T   T
 12.4626889504982117  7.7097714491265865 31.5151292332770332   T   T   T
 16.4464951409912103  0.5538971888461272 25.7520717658889140   T   T   T
  3.7568561653930743  8.3292561221885890 24.8420034084696795   T   T   T
  6.2471762251451652  3.9523352497937552 31.0991039411654100   T   T   T
 18.2608420818719601 11.1375927893419657 31.8123787195807637   T   T   T
 22.6426771010044625  4.1084317688821237 25.7720702987254349   T   T   T
 10.1906938238491431 12.0942185088136505 25.7330514402546093   T   T   T
 15.2083997061920062  3.7634364301927548 19.6182387735532409   T   T   T
  1.2028439281179342 12.2724640377435783 18.8939926792564457   T   T   T
 12.4089742705165822  0.3358753024476022 31.5291223913585981   T   T   T
 24.9190262799188531  7.5299546015215624 31.6301261251466101   T   T   T
  4.0046902385342671  1.3231112529849480 25.1785201602895690   T   T   T
 16.4261992586970358  7.7041449762428709 25.7274550987738984   T   T   T
 20.6719780258132673  0.6051463362439510 18.7875711093875140   T   T   T
  8.6553382660929916  7.6510701036698592 18.6775964900547571   T   T   T
  5.8634422427479587 11.6721638566458523 31.4872988552767517   T   T   T
 18.6731716426066825  4.0202714052937720 31.7655211129055566   T   T   T
 22.8451642436927109 11.2973776750601864 25.9142048946129151   T   T   T
 10.1949004696925822  4.2081423019140587 25.1069326897984730   T   T   T
 15.4765109383702608  8.5223371434480164 18.2118716529488864   T   T   T
  1.4673481995065003  4.7876859290535982 20.7959292638302706   T   T   T
  3.8866548405492085 -0.5828092828363763  7.6413919505036239   T   T   T
 16.9684050829631445  6.4097578505224089  8.0500388056087964   T   T   T
 21.4403592316614926 -0.2189069300951057 14.3679107396232784   T   T   T
  8.4564847646432586  6.5781553689851435 13.4876804602958593   T   T   T
 12.7846514766164017 -1.2361167635687971 -1.2549818358657727   T   T   T
 -1.1449000065598951  8.0484427871035109 -0.0465883031439941   T   T   T
 19.5309632588156745 -0.9876916363471183 11.6709647054714800   T   T   T
  9.9427723652543367  7.9649592216776570 10.9475630219617539   T   T   T
 16.8369931194827096  4.3889512148288645 20.7488749055602888   T   T   T
  0.2340801286424002 14.0398339200103592 19.1266784374912042   T   T   T
  5.3643935060372803  1.3846394197871481  5.1724594812930214   T   T   T
 17.7000767259412193  8.5917223685329667  5.3589144044472832   T   T   T
 22.0305918133989245  5.1372959790504655 11.4161152949253371   T   T   T
  9.2130400990193895 15.6470847660635819 10.5669583693699085   T   T   T
 13.3724839035827916  4.7635634822974335 20.0676242760900152   T   T   T
  1.0117742333541366 12.8260529768381204 15.7588752188772325   T   T   T
  5.5917625433155083  5.1086637988048365  4.7796431620826585   T   T   T
 18.0012435028095155 12.7954326916159644  5.0433219527180961   T   T   T
  8.7296561238359143 -0.8459408931400105 13.2969924945180580   T   T   T
 19.2080608869021567  6.4787932138837503 12.0317703279380908   T   T   T
 25.0612125764900462  1.3036058406027882 15.9104992092667761   T   T   T
  7.8959434495351450  8.0846524316505608 16.9558371439208884   T   T   T
 15.0704567053944256 -0.5248877475146916  5.5753307742082372   T   T   T
  2.8451677118445771  6.6377736508848484  4.4756440038765639   T   T   T
  2.2023111201048691  3.2845779366519334  7.1304145370717089   T   T   T
 15.0640048645239126 10.1662382919395284  7.8118572825981953   T   T   T
 19.3033475041520788  2.8858116391555333 13.4362984352456429   T   T   T
  6.4152328156770722 10.2960962414456070 12.8648150580373102   T   T   T
  9.2978033347317268  1.1303171667289889 -1.6687176113859443   T   T   T
 21.2813433497403004 10.3080792632965519  1.7124623266291903   T   T   T
 23.0991160999619858  3.5609754172435406  8.0582746920451527   T   T   T
 11.0836156045004355 10.7572920791438236  7.5382416429450059   T   T   T
 14.9552068825408710  1.9356566013659506 13.6366790001781357   T   T   T
  1.8253296309548315 10.6745278607334804 13.2481344875790388   T   T   T
  7.1170639723448748  4.0823205878116697  0.3891495247851425   T   T   T
 16.3139481942931894 14.1360864253214338  1.5931128867629805   T   T   T
  2.7271163251213406 12.0738371574146193 10.1918810005859157   T   T   T
 15.9559106197160077  4.6103084283943208 11.8098111968788153   T   T   T
 21.9830508103605560 16.4679705833680288 19.6425857099149717   T   T   T
  7.2569631392098524  6.6955726225666039 19.8901153489629401   T   T   T
 11.9300882877086849 11.8702935871694280  4.6188209738056702   T   T   T
 23.8775438106230524  5.4432181136484905  5.2275210907037257   T   T   T
  3.6924438970453233  1.8406767568613107 10.6593558265704615   T   T   T
 13.2129737806997465 10.2169746542267319 11.2530013288846469   T   T   T
 19.4448703488983483  1.7643202967109113 17.4837096790496389   T   T   T
  5.9700511757716219 11.6340055969396978 17.1020570273121457   T   T   T
 11.5715658050916321  1.1088218989703360  5.1716502193298979   T   T   T
 23.8157738401655799  8.9800022198986440  5.2059493555741270   T   T   T
  0.5974744474343610  2.9334021606788672 10.5704094610317600   T   T   T
 15.8336016927983909 12.2931610415746171 11.9293678500636968   T   T   T
 19.5128720136161000  4.8174777255576524 16.9764311942267341   T   T   T
  3.5828407084800342 16.2142500003598009 18.6006931885179476   T   T   T
  8.8285968162966633  3.0872381249769369  4.9136567937980615   T   T   T
 20.9523482187193473 10.7421290172575965  6.0069835659705708   T   T   T
  0.3699236512933631 -0.2052645712326204 12.5106862046507246   T   T   T
 12.7276274054915000  6.7833330961250109 14.0538374764569234   T   T   T
 12.3613888814304556 -0.5745235425739595  2.0295665654256947   T   T   T
  3.9450364189034741  4.1394826809343703  1.2790215793647668   T   T   T
  8.3300689157159038 -1.1436896050802041  7.2733225470857130   T   T   T
 21.0886826473083708  6.8910556507315137  7.8623529433571919   T   T   T
 26.7467672313397600 -4.2017800951484281  2.3578750322228936   T   T   T
 11.0303791621051506  2.6348661917424447  1.1321870281990012   T   T   T
 17.3364722522131984 -0.7284858406770217  8.1951457626796174   T   T   T
  4.3854918537160161  6.6551027943618770  7.5421000804801466   T   T   T
  6.6634762793698004 -1.4303396464370908 10.6454951230194546   T   T   T
 21.2881848503083191  6.7200363734417161 14.4163190512279744   T   T   T
 22.3303246622107388  8.4601545957110886 11.6053038277923708   T   T   T
  9.8970178193433220 -2.2893213875553520 10.5905157728155324   T   T   T
 11.7216957872660021  6.5314775666506080 16.0552571318148374   T   T   T
  3.4855250111880212  4.7324217564816715 20.2406231439858573   T   T   T
  5.5142243017092953  8.4029353245453677  4.6390640324649786   T   T   T