Cl32Li191P32S160 E=-1730.659109 eV
 1.0000000000000000
    20.5609999999999999    0.0000000000000000    0.0000000000000013
     0.0000000000000033   20.5609999999999999    0.0000000000000013
     0.0000000000000000    0.0000000000000000   20.5609999999999999
 Li  P   S   Cl 
 191  32 160  32
Cartesian
  0.3938493683603352  2.0150463596384594  1.7914973320111829
  2.5592772684796832 10.2710307314921767  7.6124517437537138
 10.0879850447673718  8.2137500575144475  2.1561130102638630
  7.5597686609449131  0.2362351735844646  7.7537188946067781
  0.1243117131020095  8.3760261413126269  7.9870308296112222
  3.1708521905735378  0.1721739725099622  3.0234051392295567
  9.8882581625759034  2.1649480043611153  8.0590984283865428
  7.7854841989996739 10.0724279668054262  2.5680046356250608
  7.2125486722947922  3.0340904992314379 10.0135765938617247
  7.3245146710973490  7.3277244313332579  0.4024288117911076
  3.3607587504154730  3.1366454823747145  0.1948243047102593
  2.5389556910166222  7.8110248420024400  9.9685505618813348
  5.4288222381632956  8.2006415612736596  3.1131287407302768
  8.2550911588893232  4.7919302824409193  6.9594274638238725
  5.0005656071881530  2.2469522586475055  2.9909434569289082
  2.1515566265287718  5.6174841023443935  7.3009904116062438
  5.2611158859561975  3.0481871715948072  8.0860087593804124
  8.3744835906640152  5.4175522279851327  3.1388375937346065
  4.8307753792391583  7.8083690702061936  7.6661507908462569
  2.5610259928218193  4.8890208768537926  2.5402579186870184
  2.3959481988502325  2.6629369243592316  4.8030900567170915
  2.8277339601831910  8.3394553612887474  5.2547066931224728
  7.0425813267898238  2.0504205970768972  5.3491855716562284
  8.2163769495513979  7.4272802659123034  5.0191748563052867
  0.2270039314745564  2.1087887611951111 12.0587533991915272
  2.0006058309869492  9.8311913713796635 18.5514170369090756
 10.0595944854259987  8.0089957487092516 12.4853931402992870
  8.4101816420531019  0.1988199003768860 18.4824714135452304
  0.4809191437963566  7.0797095456812835 17.2956135579758730
  2.6503273759076147  0.2376520433186738 12.7233942474918376
 10.1151476036250454  2.9888919037445456 17.5659055073015011
  7.7037553824630365 10.0941832112707051 12.8239482821977280
  8.1188944577777402  2.2290274229641627 20.3220372989020923
  8.0635134352277600  7.9725833430835458 10.4750501799466349
  2.9576734346264772  3.0646054617027318 10.4063027774721046
  3.1934684664162609  7.1615364031940167 20.2097176290857803
  5.3388735555031079  7.9789730594711212 13.2063857580107342
  7.2025210458458941  4.7066138459771443 18.4244544334545068
  4.8662609276025499  3.0469998209482072 12.3607122275441679
  3.2032468121262188  5.2895036623197766 18.2305625739573749
  5.5558783648570369  1.8903631046237599 17.5197081226069855
  7.7413311606865811  5.4382283723054803 12.8787875174549420
  5.0286191101052324  8.0904035967879970 17.5372448363808218
  1.8084250635471490  4.7980837974113335 13.4072705162898789
  2.9424130480585982  2.1519903944153449 15.0388300026895809
  3.1138121178165297  8.0480315217932219 15.5768250665959389
  8.1800336620808007  2.9130170842018326 15.6436941937847660
  7.3523522208221319  8.0088373007367970 15.1982063708503947
  0.3773833271164143 13.4654663119810110  3.0078183354802235
  2.5061097915464874 20.2200163713032595  7.6543708659334913
 10.0284309607587101 17.6008879121691315  3.1475941263135190
  7.5525723743811159 10.7297372927241756  7.6520988031943062
  0.1345198664074032 17.8539650533065135  7.6616233359689643
  2.8610043434734682 10.5249037947835777  2.6714346422618847
 10.0261030273147149 12.9234925575522652  7.6395480332106853
  8.0264129182604282 20.3534852868750704  2.1652191588472283
  7.7229995728427205 13.0795039147133458 10.0205205485339626
  8.3315464873420844 18.4243691796078330  0.2500889734536255
  1.9689060793822870 12.3277623356748141  0.2273883200816892
  2.8500173160356748 17.4587921427475088  9.9831260723549100
  5.5821515405596989 17.3074756913645977  1.7600468223074270
  8.0522049403845024 15.3925457168849942  7.2272685194013846
  4.9245302641556679 13.3119855066238504  1.8383338869444872
  2.6499710767881948 15.5307223575866900  7.7951381621913463
  5.3228440536417017 13.6239655862177838  8.0514904534308940
  8.1190276103464836 15.6986553940794717  3.0495311258849567
  4.8345076856293980 17.5678706404991942  7.8803837656339057
  3.0007634243815797 15.1724282483103501  1.8419937272385896
  3.1143461559904173 12.3420191249414657  4.7291009956337327
  2.5070133277046232 17.8253956257659638  5.2986280121026645
  7.5209738030794728 12.8495962595088198  5.3527262377671150
  6.9120130866906138 18.7637870999034106  4.6089920289732111
  0.2181572389585817 12.8227794644613642 12.6546506622631227
  2.7407033916190429 20.5141492305686306 17.6852214538344121
 10.0151681199810039 17.8483331515838088 12.8698383093367692
  7.8084463867909744 10.6365744756236769 18.0409824881283889
  0.2333018592853524 18.3129488105938165 18.0876468012193605
  2.5186057714976053 10.7076891996006314 12.6870855820523332
 10.0235838073769745 13.5929467382783997 17.6160090612389126
  7.7065311824654570 20.2913979732025354 12.8445282252329775
  7.8451006964533505 12.8032959508984536 20.3242514607328459
  7.6712108839597919 17.8228764822359551 10.5613947618651576
  2.8990189137236393 13.6088619488241669 10.4615452940040310
  2.6494998109616610 18.1351848640013600 20.2510126600220062
  5.4255831637964214 17.8375926690283322 12.8116214996221949
  7.2113325229957059 15.3108618195734678 18.5165648317237732
  4.8901171773296701 13.0816952963598396 12.8386707851498496
  2.5789574154881643 15.8387393613442153 17.9530323992286966
  5.3159297430354755 12.9191285451673838 18.1128755586890478
  4.8987143693585535 18.6558003848826459 17.5612225763813079
  2.1263883739668894 15.3475708036034391 13.2047333096564312
  2.5284558421627699 12.8874463575979838 15.1661461680102079
  2.8376115747102069 18.5690908529064380 15.6071342877589316
  7.6157903557835098 12.9788388294651522 15.6571599125401395
  7.7435573254418220 17.8391806544195077 15.1514991476588872
 10.5973876554127742  1.9229216647093506  1.9844429472079899
 13.4071054128121130  9.8354904051022203  7.1396147019938736
 20.3773478087989162  7.3079212248933549  2.9626268217261909
 18.3168810991207351  0.2317123563697954  8.2411239640994616
 10.4347783202365889  8.0506749232708543  8.2555077869954552
 13.3791254500850574  0.1884442001906909  2.9507356311706814
 20.2688182953274918  2.2898429705076517  8.0419095044421489
 18.0328790301848692 10.1080850494921624  2.5976014564119185
 18.2877281182271396  2.3884611340662922 10.0929692474992958
 18.2446506035142058  7.6784753429593353  0.2692393397929128
 13.4002030227841651  2.9349351758930724  0.2237949754576587
 12.4009194966124117  8.0723352573514244 10.1688836897413246
 15.7007820909400166  7.6712196408757976  2.8093732803837952
 18.2321304720717343  4.8696958178493048  7.3941029147521879
 15.1910118630950191  2.3451089858774270  2.8118621673759279
 13.0581648389897964  5.2927300022797565  8.3510100356341841
 15.6314452281294525  3.2233392284682871  8.4524898326593743
 18.4075135574130542  5.3122619677595662  2.9886388811707860
 15.0696386214624241  7.1371630518101883  8.3441293005348598
 12.5884293018850819  4.7704940601897015  2.7592025071666755
 13.1877773104297269  2.2473002817828287  4.8960760835548331
 12.1611537839675368  7.0833888953234565  5.6165437280636237
 17.1817912639832784  2.0327865701007748  5.5111450548892398
 18.3705597932347793  7.3356431108414828  4.9475250483101076
 10.5104259604372796  2.9186017114712732 13.3215638556331744
 12.8048806885659872 10.0942907314933574 18.0077940018314528
 20.4256100828915201  7.4397805650340372 13.3605239890532310
 18.3598476334148870  0.1772943134804798 18.5201292628349243
 10.5132210597394256  7.5472349276793338 18.0004255373416342
 13.3367220002628759  0.1989574018288636 13.5456567058466586
 20.3122705097855416  2.2349682711703349 18.3455177920979793
 17.9796041411676839 10.0711763903262952 12.9362056503778824
 18.2459943015259647  2.3278119280981957 20.3368923522012750
 18.5171059676650991  8.1871160298927723 10.5676346838769906
 12.3939870223715847  1.8927313257905816 10.6966227780464251
 12.5767429093516796  8.1761064797007101 20.4277592116767721
 15.8153141963918564  7.3017363372841162 12.4461795049946211
 18.1964783523027229  4.7645944467890535 17.7093391483683007
 15.1939504027657879  2.2273184752616944 13.2462302162749790
 13.4379139335863389  5.4202174006343204 18.5825707815367949
 15.6514969258997496  2.9458999041294591 18.5340324715853200
 18.5587215544324380  5.4311495918175527 13.5352124389512749
 15.2741800550504472  8.1887204685736421 17.7181365459272833
 13.3129126841197287  4.7074312974984798 12.3001066518586875
 12.4279793415511062  2.9885890833936828 15.2584847811801687
 12.8455163938618568  7.5465692749372737 15.6621848812113758
 17.4331172365890197  1.9331122550978794 15.7216610494220816
 17.5643710527865693  8.2058023630533459 15.2336670243305168
 10.4867615380468386 13.2262119741311448  3.1418681567714559
 12.5844794870116878 20.5213724249992779  7.8831898309514159
 20.3226676596998423 17.4685173541094159  2.8674126794358932
 18.0864516357544645 10.5218384383269257  8.0162457321586160
 10.4635419159019669 18.5812458828074831  7.9363290511765001
 12.6224873078151649 10.4745449704905269  2.4957509134145810
 20.1463113845655357 12.3181562895236372  8.2532904103050484
 18.0441246839940632 20.1194472691560691  2.4707473045151307
 17.2521859350978950 13.3014452025341026 10.0606934660746408
 17.6407484308148419 17.2521545354496624  0.2561463217612707
 12.2450571457432993 12.1946202065546316  0.3749340917358822
 12.4044939454793717 18.6754215451490992 10.0394379326285836
 15.6911419241557848 17.2802755531652288  2.2216387543675236
 17.2745588956036613 15.1732495306049238  8.1393440165336752
 15.0361393756771093 13.4873303476289443  1.9935369159394341
 12.8131828500735132 15.8445605339970026  7.7158314252699638
 15.6461324677068188 12.3275737765528728  7.1117132155991980
 18.2088542780592597 15.4661121623206697  2.7815737329299490
 15.1147193896311673 18.1020473054260584  7.8221881852583515
 12.3712596523327765 15.1540161542109058  3.1476548742427273
 13.4653765377800827 12.3572087337207641  4.8606686614323555
 12.9933158471777084 18.3423842271748683  5.3767404754416726
 18.4236366493934725 13.4517774923121252  5.5131524438213138
 18.2583314734828654 17.5283847100827543  4.8797184537000673
 10.5092913770374370 12.9990223242428797 12.7689145400429158
 12.8540394346203897 20.1257625366275654 18.0034804444681455
 20.1412118970641565 18.3486368964453952 12.4567020215860040
 17.9159601887633002 10.4673297807377921 17.7546203897640638
 10.5509575218706768 17.4371885272725891 17.6962503611036936
 12.8916239874032037 10.6375535871736027 12.9489929237450117
 20.2815185665336095 12.3439534512492468 18.6071015688048682
 17.5997739357260201 20.3159049063737989 13.1867192402563269
 17.4101184023292959 13.4821022760608518 20.1793837882173364
 17.1923680367674656 17.2992817480994567 10.7338375308631129
 12.9511374683175919 12.9084012905134760 10.4580530848259414
 12.8614188178719946 17.8550152789276240 20.3584799195778068
 15.6410058697798693 18.4285328159226971 13.4956972682722061
 18.5521345036062080 15.1407921943899719 17.5240452960268343
 15.1702676990616254 12.7925750716053024 12.9852931157662876
 12.7763645929408227 15.4391017105314834 17.9291781616314800
 15.7919521595416743 12.1791608744846958 17.3861184954187706
 18.4137958295672277 15.6425914356416396 13.2858289597998311
 15.2069352403038085 17.8846464952940174 17.9867881069707920
 13.3835373315269184 15.3118880309531846 12.3345828353232214
 12.4665089421966098 13.5921336665481594 15.1681885632040832
 12.5124754442685635 17.4000065535332453 15.6994398346337025
 18.5652944852086002 13.2141324492866179 15.6392056058860067
 18.5139458753335759 17.5607404119723931 15.2160523398263940
 -0.0465674446216221 -0.0409947500956209  5.0833149675726146
  5.2180527368852632  0.0067953187731663 -0.0288123646340080
  0.1152193774920672  5.1069311296148978 -0.0975951473319804
  5.0901675806271669  5.2249752595261407  5.1481125220108064
 -0.0774986460071507  0.1015850169069217 15.3046280375526305
  5.0985332680788957 -0.1245056873395851 10.2400342636137935
  0.0119134090042930  5.2675707157542693 10.2365365033604618
  5.2002388064578779  4.9912583221872397 15.3514910208083286
 -0.0877534353415426 10.4553560558952388  5.0513043989373445
  5.2223185201269144 10.2219202564240845 -0.0607304894918893
  0.0707078313596707 15.4347422056790524 -0.1219486199698257
  5.1038166189007992 15.4461542021040579  4.9637116187750516
  0.1534754845710203 10.3007853592780876 15.3990836578317865
  5.1162264291351658 10.4479587929153279 10.2454896158760924
 -0.1760911854530268 15.4155698522651896 10.2499644032802397
  5.0903140342941517 15.4845296832834265 15.4507306975990968
 10.1707357062576715  0.0998377020899793  5.0607201130542192
 15.4364649600483634 -0.1781882908175013  0.0177179799531334
 10.2602492981478974  5.0968306131402032  0.0328441695534971
 15.3201536298435883  5.1219084914487620  5.2497020205837384
 10.3209013263518905 -0.1752340933932824 15.4659151737646781
 15.4034261602272782  0.0092558074089530 10.3636257393776052
 10.2028699228401525  4.9840352107474581 10.3424600192067455
 15.4497084878732966  5.0991013978819248 15.4051414160374254
 10.2517804693584331 10.3045595347208021  5.2902976623399960
 15.4983360955926575 10.3200299343011590  0.0810534642501869
 10.2821480649210582 15.3499248054460136  0.1031530796409725
 15.3081025516653106 15.4411990563119179  5.2067782204187525
 10.2992107649764755 10.3733803439012675 15.4436307734334122
 15.3494468265427138 10.2200005779243188 10.3651564506868485
 10.3144512686528493 15.4933169207451016 10.2214943184575091
 15.5022688972877187 15.3345782276116118 15.4400162029689394
  1.1471859045850341  1.1615211844734190  6.2863201739213643
  1.0488371479287897  9.2627878147440050  3.8177711716795319
  9.0099586604959327  9.2019596333378679  6.5239963618874732
  9.0061435742639944  1.2748942021439773  3.8529396249172660
  6.3276745224016366  1.2730014411280171  1.1418334090189453
  3.9075419813942420  1.0401897333026029  9.0464021742886374
  6.2976499342029069  9.2401685225892152  9.0678863856972587
  4.0906282435914356  8.9892972501458033  1.1212685263670599
  1.2537808218416284  6.3678547448733553  1.0793674929825434
  9.1266405051758070  3.9047755190799514  1.2673456373820449
  9.0086943572216907  6.1173970762271077  9.1067045146557195
  1.1776849135823830  4.0894813655857485  8.9886571715701447
  6.2710869488200611  6.3744260961380599  6.3869681967169898
  6.3361593434300545  4.0579750073853713  4.0078840458560387
  3.8178207991181012  4.0499901995726368  6.2961896282355960
  3.9096646725014423  6.4209519938151365  3.9510536479235761
  2.6781572225268881  2.5170302258193993  2.4885651958707986
  2.5006570504675896  7.9365740156949167  7.6357116218956698
  7.7634976846622594  7.7636611434633247  2.6695548950655810
  7.5787095342426873  2.5544995759903149  7.6718075791797764
  1.1011333153689622  1.3159541947345248 16.4653720011035425
  1.3840060339753846  9.1987454001966960 14.1548391500751602
  9.1181924880832934  9.1645250293402167 16.6274238425920231
  9.1371687686104579  1.0048728136674081 14.2765310371561185
  6.2738405704592131  1.0605311343418811 11.4243118817884941
  4.0070178366988083  1.1838398278757625 19.3530962756908380
  6.4910985334354123  9.0619303111380809 19.3434924357174651
  3.9445839443636586  9.2375384559350451 11.4303306849776440
  1.2381572711806572  6.4209442797079603 11.4309429779339151
  8.9934515210710284  3.8230747485982759 11.5563739683155422
  8.9791143828372491  6.2552191781493915 19.4314188038898692
  1.3239860407318156  3.9002536717869751 19.3272588389673743
  6.4052750154478986  6.1510551187222191 16.5637719877942082
  6.4108069832764354  3.8294846668801346 14.1399204713427178
  4.0763990432200732  3.7329676084470984 16.5310060045376268
  3.9652510107533203  6.1219536647997392 14.1552946826479058
  2.5273202787944715  2.5545680102730448 12.7223426786340035
  2.7263554448166589  7.6308414163115081 17.8812631222522320
  7.6970746156600294  7.7800809578770789 12.8355684713243008
  7.8240485109813607  2.4644446531059456 17.9708393583481367
  1.1135042515471567 11.6481615096881903  6.2511066896727039
  1.1853254683306191 19.3259856628175868  3.9162235238447054
  8.9299863579617202 19.4436910029216250  6.1949180730350477
  9.0425710665509520 11.4805831427516907  4.0700491745812277
  6.3941911182424871 11.4531107027714487  1.1337869822280418
  3.9565789860587053 11.6910819503338761  9.0906660051147625
  6.2803710321083903 19.1949690721074582  9.0620263706069721
  4.0967717387927829 19.3227468907597419  1.1823431691782147
  1.2302646393667505 16.6705398068558033  1.0658931887363710
  9.0532670842084944 14.1914161347206829  1.2691316369482410
  9.1608731119500284 16.6962393878767514  8.9901031544945003
  0.9907116185818079 14.2128263388780187  9.0490356164245807
  6.2858308179457740 16.6886695335896214  6.1363567078379901
  6.3085796111490193 14.2300500409665407  3.8209158479426679
  3.9171069056564973 14.2340020438643471  6.1422913005610100
  3.9642927003577473 16.6328033561308466  3.7471229674914270
  2.6458021959966169 12.8903567170961590  2.4491402211526592
  2.4860498032359311 17.8768476151781108  7.6468831355144040
  7.7594652994368021 17.9969991696022795  2.5137289965774721
  7.6671127572787263 13.0842699774927542  7.6858206879302733
  1.2717710146761376 11.4974293560612111 16.6205076553657136
  1.0971558030499633 19.4326707532083987 14.0984777064786009
  9.1381836779346770 19.1793186850780550 16.6659112934706499
  9.0876507571447274 11.5635007044786473 14.2317875983806008
  6.3297790869425414 11.6296245772376423 11.4548016782946895
  3.9948687090609920 11.3552995256722866 19.3217963573212153
  6.4222854524675359 19.3811244156038178 19.3433303949913693
  3.9188948209171102 19.1906502001399524 11.4160899440391379
  1.0478573037155088 16.6212139031135742 11.4312614245629121
  9.0913779696666968 14.4119565956770774 11.4462932330482232
  9.1157097107735172 16.5328643229177956 19.4169396718443181
  1.2810662048446826 14.2812751991981290 19.2465466922193968
  6.2227384267350194 16.6856880747165128 16.6896890351824503
  6.3126122501161221 14.4003397052722555 14.2294460917696934
  3.8963382449673141 14.2679502285655442 16.6265937682342084
  3.8612885566861821 16.6893737658053247 14.2952267085450018
  2.5539300448463411 13.0544257816917373 12.8069671129747409
  2.5533532156487526 18.1567846537620774 17.9340114843271330
  7.7143720424635118 18.0067640173875496 12.8522006321664666
  7.6732151197753344 13.0027948976702543 17.9940485327847348
 11.3276668183765619  1.3068450339195545  6.2555480623936850
 11.4020269347718592  9.0461078706369538  4.1558338624926510
 19.2417507830199028  9.2697421136054441  6.1947102167180681
 19.3483630941647853  1.1290326407095501  3.8794460149496519
 16.5961673293131433  1.0702805880486028  1.1780584392783380
 14.2483456886463546  1.2067629599318506  9.1566712352887691
 16.5270314337034598  8.9849805186501168  9.2324749823617775
 14.3690198934527196  9.1127864436970452  1.3182200541603299
 11.4398670953224908  6.3236991119826600  1.2026773026720465
 19.4751287605237557  3.9676567222415962  1.1400312913027881
 19.3846785525424217  6.4417017448042833  9.0299500843043567
 11.3778428739482109  3.7232751321513646  9.2181108192166548
 16.5060306534698960  6.3598796105841533  6.3976445237016630
 16.5473412165720291  3.9769008879096077  4.0427114746384767
 14.1650937143395677  3.9280888376793732  6.4559708244716099
 14.0637538537178983  6.2796166882932161  4.0728588144792033
 12.8323050975624113  2.4809199770595614  2.4993661313897300
 12.7408511623093137  7.6318708697981812  7.8631044850406697
 18.0274948248407512  7.7169328750425557  2.5959198537985881
 17.8835750025959435  2.5673719007608238  7.7533631397919063
 11.5072051419366463  1.0086447418584736 16.6553279376041097
 11.4817884765641836  9.1651604181874351 14.2617637527127421
 19.5802034992215752  9.0416054529391232 16.5474125138527555
 19.2984604115710106  1.2501971077915819 14.0945314086541682
 16.6011140232831416  1.2434826710259088 11.4848071991030825
 14.2373413395150354  0.9733130373172961 19.3695932170904968
 16.7339004854699240  9.1137490849043790 19.5094489547214422
 14.1930996197023518  9.0615524300533608 11.6342474396794540
 11.4155332752217031  6.1442266854792669 11.5456711106032230
 19.4170361570525607  4.1114197818133231 11.4816590931232465
 19.5000269762273035  6.2577662531455491 19.2010850840015301
 11.4558266658994885  3.9617671862705763 19.3773046103812909
 16.6175741036197060  6.3219056302842471 16.5928876995183678
 16.6888586358706767  3.9101466183743074 14.2695727412095383
 14.2351371210183224  3.9592488587243579 16.5986513530657049
 14.2871546974318324  6.2575996762878914 14.1275427960171882
 12.8397531361079622  2.4694298209141681 12.9674147224972334
 12.8671181880421326  7.7550289509571497 18.0181737838173781
 18.0767255611761435  7.7633130067962330 12.9083000552535605
 17.9319252406507914  2.4723477163255345 17.9678354618240625
 11.4727454032499150 11.5021638064963163  6.4067359767747964
 11.4074141441727424 19.4684590733694627  3.9024056183924976
 19.3195474014241348 19.3469681665878994  6.3060941275966718
 19.3328020407299093 11.7293250901344557  3.9062005134461799
 16.6179138407344986 11.6261280577849480  1.2008525285118479
 14.1768072862040810 11.3599637215667961  9.1366906093176805
 16.6087497597866474 19.3115453716612286  9.2479657794567167
 14.2862041188538367 19.1758911585588407  1.2366301871637333
 11.4394402028805544 16.5812610138823118  1.2642890642556095
 19.4894846096002752 14.1791849177063511  1.0192102760828892
 19.1768511889297883 16.6302298049383062  9.1348503715273850
 11.4910424129860047 14.2718511759997160  9.0330349833973180
 16.4987086921557129 16.6754820409595439  6.3674089885507001
 16.4485064980230931 14.1836463386342331  4.0647952180175855
 14.1162799333651758 14.2897635981709268  6.4196367251790862
 14.1246192071268997 16.6374828833698807  4.0004622310736675
 12.7766689442907388 12.8600015782479513  2.6206594462463211
 12.8019246190026124 18.1619601918803042  7.6943524353576072
 17.9924533634441026 17.8117522695685437  2.5459241253309566
 17.8697149992201361 12.8891742179670370  7.7838074182041144
 11.4478269531328305 11.6249317158001997 16.5933571305326772
 11.5222129263376747 19.1745215787897898 14.2896977037424691
 19.3124160813331649 19.4721777885862011 16.5300459811249389
 19.4935936228092501 11.4782624465023524 14.1915333713182168
 16.5465303035626548 11.4505338659629849 11.5368593033257181
 14.2670107677929945 11.4512442422462595 19.4112536872320121
 16.6542292139820347 19.1699684793264460 19.4320542551611481
 14.2047527642917100 19.3877714549764484 11.5641011996165659
 11.5544932484212595 16.6921427400729385 11.3553512264251300
 19.2382519234892975 14.2097351330857062 11.4579431228398505
 19.4264060896346358 16.6318804108281881 19.2526277438663840
 11.4643726331258122 14.1007043060141228 19.5256347910948165
 16.6629113977903494 16.5610923461181621 16.6059153299855460
 16.6676880867206272 14.1621089772155315 14.2218741207751318
 14.3659793386639194 14.0885232986468800 16.6235134812504555
 14.2623762682663919 16.5184981097402783 14.2690325583443496
 12.8450937793970148 13.0057823979561107 12.8152392793353265
 12.8785289683160862 17.7992046405382851 18.0243650485844782
 17.9080361052115116 17.9464815879938193 12.9429978260455663
 18.0394810121931890 12.8506551505191791 17.9235170811888054
 -0.4433870963643446  0.6005658906787563 -0.4080064191766471
  4.7068440134495848  5.1981347814292587 -0.4216680688191273
  5.2645010956080904  0.3752126888310212  4.6346199624966919
 -0.4718851215446496  5.6659939039764762  4.7266011402429609
 -0.4428402201675299  0.7438895152157130  9.9819000868900378
  5.0885803793502227  4.2433239171377650 10.2277957946263811
  4.4791023993900412 -0.1109193321012606 15.8828035682595541
  0.0430908775683277  5.6501320581091434 14.9304402324627290
  0.4416960047758900 10.6809393468131315 -0.4602013937093050
  5.0317028144350919 15.3010238137100814  0.3882953663082938
  4.4098805697631231 10.1436842282187367  4.7300909210429598
 -0.5907542462211791 15.5112223462376004  4.5256123921487799
 -0.4454257039702921 10.1590327445211948  9.5714541404593305
  4.4524620293319339 15.4308183822279918  9.6262058614136041
  5.2860979072955061  9.3510215812868793 15.3140146027393733
 -0.7145507408902817 15.3941371596289045 15.3012706423369380
  9.5563465182847285  0.1258817929516583  0.1363225910695051
 15.0071183126537520  4.5489848947401335 -0.4166334957917763
 14.9882355480673297  0.6067908446193185  4.7236748690325587
  9.7701063387720062  5.6375893274373592  5.1915327527373689
 10.7650505439266979 -0.1189375577487179  9.6400620447758936
 14.9161112739438781  5.1923090470576110  9.9200903491811800
 15.5634510189835371  0.1093017565168126 14.6980842062673567
 10.2860197154936746  4.1956977714018437 15.4302729048259266
 10.9775542306072840 10.0103156953605268  0.5337535317187935
 15.9379573913003085 15.4042721112601857  0.5143056684732020
 14.9536648584387262 10.6897011478277992  5.5796951386724896
 10.1573622776410293 15.3874747509839889  4.4474116911854962
 10.1667709767527796  9.3495334059283461 10.4227769227284135
 15.8141287763255320 15.3034596928824236 10.1772513810746794
 15.9757171198069532 10.0101780111014698 16.1108518043152067
 10.9124151365213571 15.3733938421950818 16.0619493634742803
