Cl48Li287P48S240 E=-2518.665198 eV
 1.0000000000000000
    25.1819793006824639    0.0000000000000000    0.0000000000000015
    -0.0000000000000009   14.5388225279766061    0.0000000000000009
     0.0000000000000000    0.0000000000000000   37.2126966544236950
 Li  P   S   Cl 
 287  48 240  48
Cartesian
  1.0000554285128624  1.6574019590174893  7.0004895921905783
 13.5437995465888950  9.0696183162170279  7.0079995047624628
 18.0258081795610039  1.6623248594445825 13.1130613424879670
  5.4518047817055431  9.1426279380228479 12.8022444378493763
  8.5665408842499957  2.7681454108735144  1.6807904013896404
 21.1246960727943396  9.2452998605238115  1.0791000172078737
  0.3357630924487933  3.5701461454541867  9.3953451948251612
 12.7400066598488166 10.2785773527371802  9.3827843456794735
 16.9074058437569974  2.4826808185615681 15.4497884607905966
  4.2650527569847725  9.7666422228861123 15.2810047591497256
  8.7403514990322027  4.6568079670705984  3.6165967026855803
 21.1803650767648612 11.0215482804288882  3.4597477890220052
  3.1788157730870541  5.2658812595324180  9.3249170603933464
 15.4560403897753140 12.6123083629877524  9.4104363939308335
 18.9705093954775528  5.9622337929486422 15.3917738356730673
  6.5022911652484066 13.1298789132362526 15.2483861143405512
 11.9808514493600278  4.9795364839803247  3.8141278785192965
 24.1509961978738943 12.3784021676210259  3.2211217697334953
  4.3758050627177463  3.6862515977385715  7.0025597825347665
 16.9199643442181618 10.8992553686630878  7.0773438853550292
 20.7983231125808210  3.7879922063333624 12.8531124958422609
  8.3874075758482434 11.1038997264460146 12.9298113737389215
 12.6627031880045813  4.2703145374656053  1.1225957346501285
 25.6535182379437039 10.1687981055164389  0.6969364077219065
  3.3006039120559150  2.0457164504159566  9.2917603280762453
 15.9566526716818551  9.4412307441110954  9.3932606504390552
 20.9142725051129581  2.4867768029313644 15.3681072502036020
  8.1705574423727345  9.7819281274901009 15.3823717674697686
 11.0064247654170337  1.7867660788161792  3.2700570931127810
 23.9087860067640250  9.0306550039923579  3.2992781741939998
  0.9993309531811574  5.5939873503716662  7.0485694964392138
 13.3845207109093067 12.7576765457933483  7.1132920912449045
 17.7529362702836160  5.2020339879307649 12.9122676563613705
  5.1014292248025592 12.6041590769004124 12.8953349018632561
 10.6480821164662132  6.2087696311191163  1.7180456674357723
 21.7802140012828538 12.6568650977845536  0.9351384808519251
 24.3662658313231262 12.7465446534446407 12.9487811629242220
 11.6227615091914256  5.2179850035689617 13.0370692302422224
 14.5790826197895598 13.2668513837321260  2.0294629799406443
  2.1456627789611820  6.1246205958793896  1.5478935145916055
  7.3776383733252047 12.5618341872883992  6.9069289659378921
 19.8506990820864324  5.3549885188576702  7.1919398915049984
 23.1817775295262365 -1.1455608330857188 15.3770097164057571
 10.6328671163867448  6.0777872167394955 15.4563335749355755
 14.9563977230881466  1.0180727188581191  3.4958232622504326
  2.5378388106055603  8.1629655382133350  3.3992628386306247
  6.5481420812188720 -0.5411967936046481  9.2839019901173465
 19.1217124867223021  7.4828967379381561  9.4657589147383430
  0.0370565850592059  2.3252886340733268 15.3795478663952103
 13.5634275104279052  8.9937296765027188 15.1905436241449170
 18.2097188219050352  1.3003563690483386  3.5958443535128448
  5.5983679833292985  8.7307221018929866  3.3015286307376335
  9.2402764569167619  1.6304113111173835  9.3309726506072153
 22.0731662615657420  8.8446938382907074  9.3982032844336487
  2.0687750100639941  0.2399695292431449 13.0126457684786807
 14.2469769370987471  7.2829952205624098 12.4256381238497475
 18.8683771872762946 -1.2522408827321523  1.9015181700175880
  6.8277683692581084  7.5159945401180543  0.5690091980145874
 10.4990744930924720  0.0594336247181261  6.7968449404289508
 23.2561491566597027  7.1763484796168617  7.1436004305312917
  1.9722445613611250 13.3728371391302225 15.3584967548070566
 14.7305996529404819  6.0282424713774150 15.1452156726818004
 17.0286588749098726 12.4671654296234795  3.6634822583706144
  4.9704583233471196  5.4702746290187294  3.3425541639578649
  9.9806786682739173 13.2406596632651077  9.1849102504022895
 21.5277792979111489  5.2834271530073451  9.4093009953159079
 23.9506402715434774  1.7220553059052996 13.0661629168079223
 11.2964573767806282  8.9946901018946708 13.2475415625488591
 16.8987083989790925  1.7900070020694383  0.8222821371375453
  3.7625097504073253  9.1652778738565726  0.8974908392466223
  7.2249300454890131  1.9866644474531363  7.1426872649661348
 19.8102212539692495  9.1453630728552842  7.1028613622915238
  0.9674089513431305  8.9409747131436248  7.0249140788368782
 13.4373612130973044  1.5389080571980149  7.1790970172365487
 17.9322813713465550  8.9355969520548300 13.2428159605598541
  5.4141876966513864  1.7877663560189438 12.8499936469132408
 10.4811883503216769  8.7319185227920535  0.6755091192832168
 20.8461166308090320  2.1020998955241157  1.4008533624407540
  0.2269300259388577 10.9538599319316674  9.2998832155806657
 12.7883842465753919  3.4654795454900071  9.5154212765735391
 17.1462787056610004  9.7989859079063155 15.7923249039990701
  4.3083186763652401  2.4696870672533882 15.3208985463086584
  8.7388564548344796 10.4281756802162722  2.9905522438414791
 21.3266667085454316  3.3644497442618206  3.7065710086975772
  3.0090166442670956 12.5616672330398416  9.2984557088740836
 18.9118513549691549 13.2151045702225112 15.4288422754395054
  6.7731617712652197  5.7250956943014089 15.2675777317541232
 11.3159538174595209 12.6153279973548607  3.1641591362395394
 24.1919997984704196  5.0953977301596964  3.2277135328664408
  4.3642674776446446 10.9817469165717583  6.9478244257691300
 16.4677216679062823  3.6656346442922945  6.8632497469274210
 20.8709418139061604 11.0591167790891820 12.9470150743493662
  8.0682342827341973  3.7861586497651478 12.6223378015302430
 12.8716514514765556 11.4589451012572106  0.7157995669495082
 25.7019696889786715  2.8329680776205208  0.2562599476057226
  3.0406939870470975  9.2780254441365155  9.2825483251070597
 15.7816603759575695  2.1610214501822140  9.5155882834737699
 21.0053550830401292  9.7605323986686159 15.4369220278818258
  8.3166993218286844  2.4966819760076246 15.2833105559285194
 12.0653356737969872  9.4970173304909355  3.1631988328537188
 23.9819002559971821  1.8494667984442748  3.1293075678897067
  0.9730774963176914 12.8464282901053028  6.9181514797922388
 13.7250282986086702  5.4517742673493563  7.3268034402232605
 17.7097873028838606 12.4748994088308134 13.0514752619344137
  5.0171171679498583  5.4094378347575720 13.0776377573952232
  9.7453066638163044 13.4062741469577364  0.4233852586826041
 20.7648171003935111  4.9055086800766023  1.6434533140161576
 19.9167014854225108 12.5346266223027634  7.1963301942484454
  7.2214353771780040  5.3940711694625918  7.1883981036642499
 11.6168109235410100 12.6157162064397479 12.9890638422942963
 24.3690047959708629  5.4782901583983490 12.8471999321293833
  3.3029361671365640 11.7517731020270570 -0.0376969102415168
 15.6465841323073338  5.0334078110266480  1.0838706712500015
 19.0923964235995740 -0.2628373482621122  9.4552118321884961
  6.5630765454599613  7.5649743992364922  9.4127148160521052
 10.4128733660926489 -1.1994474697854891 15.4305551195641399
 23.1851807987531764  6.2388918865323273 15.2882122782032823
  2.5245900985302212  0.1931843463646950  3.1520296886968122
 14.8910865917275022  6.6114543034527653  3.7595116531740027
 21.4983255264546393  1.9790601488799529  9.3895121266316259
  9.8620684929582296  8.7327010155837730  9.3284652714663459
 12.5805172925661175  2.2888064877512102 15.4068146196453135
 -0.1052406588279017  9.5411226031575129 15.3292941061577217
  5.7824402903186902  1.5151065778872499  3.4838458086194075
 17.9423823309828627  8.5862840780070844  3.2196424237965160
 23.2077737243316697  0.0486179995594240  7.0284827472250626
 10.5601906830120793  7.4583929086737806  6.9550850042850572
 14.6945923474002758  0.1051462643478848 13.1580119763823671
  2.1435468832380469  7.4942084780265832 12.9970735994305961
  6.7394220487031342  0.7270320341186393  0.7914322894072630
 18.3834586119122960  6.3123991852507837  0.6726977009335682
 22.3198540544628656 13.1342450946823650  9.4269375729275335
  9.3314494508477690  5.6437818953356311  9.3490250472149832
 13.9708461535295712 13.0222791070175337 15.4722287958045452
  1.9608780031009088  6.1087291969172970 15.3364157252253097
  5.2318951430651897 12.8629044165479254  3.0857082195233847
 17.8899680578967981  5.3684816422658912  3.5244384056631057
 19.8675210312553148  1.9155834123219559  7.1807505538952885
  7.3594708487691545  9.3337703054331627  7.0560584667535799
 11.4310428695083726  1.5375790721745026 12.9097487716449173
 24.1338694540328298  8.8286217656855399 12.7295934649033313
  3.9464992143328219  2.5235263566188650  1.3935547618304263
 14.6631513024465363  8.2768259824934240  1.6045334715441508
  9.3512185659873523 12.9014424177410980 30.1147131286068372
 21.9396835844794431  5.5818667801091522 30.1029774238363430
  1.0971883930650392 12.3411718724384478 24.5258593857810183
 13.3856474965648431  5.3943358461056112 24.1924043728544689
 17.8713103986356785 12.7183936188025744 36.4300088581433812
  4.3513730320635586  4.6453782670787787 36.3371083167583819
  8.5631800317132747 11.1221734988308700 27.8282093115634481
 21.2129849010132752  3.7328107871368155 27.7778198390892577
  0.1943173985122188  9.7451606307353202 21.8318277459344685
 12.7134372881365927  2.5906321049680359 21.8293601186410271
 16.4412414316574989 10.8785340747533823 34.1057937916851515
  4.0523968584487049  3.8719949530532567 33.7600427229543172
 11.3828532171661561  9.3747641156254833 27.7397623802096831
 24.2373101510308864  2.0587263426011275 27.8419741756180095
  4.0039216030723006  9.7437455762624072 21.7882984004744209
 16.7289062232828520  2.7083958207400523 21.9599370681430344
 19.6347557784418036  9.3237423264220425 33.6273253516962569
  7.4947815377658884  1.7307153355591323 34.1253098277009954
 12.7780035951325992 10.9492238859263065 29.9667191986241761
 25.3019318639873987  3.6788372786764869 30.1691293859066434
  4.2488394635009286 11.0114093323837849 24.1729230632968743
 16.3797535730381441  3.8100023705544741 24.5965452697542304
 21.0231611924183426 10.4756954985179203 35.5663655009667536
  8.1204412259533445  3.9537993676831444 36.1424172094807190
 11.4194589818875158 12.6845651318805608 27.8294681143780664
 24.0874530902332999  5.2896581577160431 27.8445142779402808
  1.9643289874915222 13.0960853416602756 21.8925736067864030
 14.5946614075191867  5.9059827799990199 21.8153921808225633
 19.7821112105646932 13.1073317349117904 33.9706933790307417
  6.6856823146021362  5.7800817150637522 34.1155446991372955
  9.3614411276770078  8.9443804864748309 30.0026037432128589
 21.9751522398439576  1.6262063327996432 29.9616438712519724
  1.2532024054027755  8.9107826179385885 24.1746146399985413
 13.7362066131334757  1.7872085772340878 24.1984769856012107
 18.8492175436171614  8.9700507739541244 36.2006714815236350
  4.3937134187512683  1.8429684089398577 35.4904709636223359
  7.2760620879317761  1.8776099261694785 24.1873092925377797
 19.8128603201617715  8.9780018122358491 24.2915958573706092
 23.2125939193917077  1.2391047519064768 35.9320712178436779
 12.8366854225352274  9.0756776757299225 36.1144915884927755
 15.6428074050306840  1.9580332573955608 30.1368982410312825
  3.0649609174086319  9.2131028541435480 30.2350869058963951
  6.5546482832665651 -1.1695508790789859 21.9297306022895278
 19.9509767663978543  5.7453933845656247 21.4232421819848184
 23.0187078228404403 -0.3229430821505891 33.7457687579856156
 10.3346006807995749  7.8607801853196317 34.2267249986374509
 14.8884681151785205  0.2438753331573873 27.7608326242775441
  2.3000998882799042  7.3786687757684017 27.8934623610813865
 10.2937357067039787 13.5573451246489896 21.8389570508010245
 22.9795029005556835  6.2381637050370280 21.9812374108304525
  1.3590583516877524 12.7613041809043803 34.1025501068448946
 13.8151038215815500  5.5303636829384235 33.5371032295139031
 17.6630540532186160 12.9801037264846908 27.7409785696537803
  5.1576309665148408  5.6225059102757582 27.8981743594423328
 10.5286653604894251  0.3085202723470689 24.1949224636371447
 22.9027215728021396  7.4434876578764273 24.5177030794055248
  1.7798634276746665  0.7184006463182832 36.1509377112812231
 14.5283429483276549  6.4264386594623852 35.9214325700839865
 19.0633324973943949 -0.0127195190566463 30.0101689249891592
  6.4288252769508167  7.2045717010529042 30.1729168931802647
  7.5996960809912038  1.6863644878629749 21.3781900668486955
 20.9103893102523308  9.4250000132404264 21.8109360818233320
  0.9783624337808403  1.8433414524961595 33.8106191146772090
 13.3327037713193324  9.2831027467655236 33.5960868968619550
 17.6281128049081310  1.8266773829058136 27.8375782764656030
  5.1431552441393160  8.9278372646835376 27.8878280175402615
  7.6377282343668869 12.9926764371809114 24.6068149968648413
 20.0180377507581220  5.4572093475141177 24.2785768676466311
 24.4113984851732368 12.9376858436194890 36.2907775063331286
 11.6439266687202352  5.5203492322546817 35.8899756248740758
 15.6715513727349087 12.6218910386038647 30.0160708623548835
  2.9866612065279337  5.3343722979023589 30.1349249241657802
  9.3214632196140688  5.5828240124529307 30.2696088302067388
 21.9406274895758102 12.8195462071697932 30.1409868657229296
  1.0287193189170387  5.2758285127215476 24.3563991750858975
 13.5564537684581907 12.8314169280791930 24.0314064375349616
 17.2634354219089694  4.6690329791260954 35.8798873504392546
  5.7981162323791233 12.7192591311978767 36.1373515936738343
  8.5616686770295853  3.8588146314043263 27.8499955250471629
 21.1483897038651740 11.0332364175208415 27.8512034415816458
  0.2272797938114652  2.4412245066798470 21.8580641457337457
 12.7190434422783145  9.7817349364007704 22.1216082623299322
 16.8942196830864440  3.4279748872460050 33.7028402942622023
  4.0872972964469989 10.9085161910890811 34.0251269796498335
 11.2490254391964495  2.0105981652440730 27.8059631051200888
 24.0973754749505709  9.2777115677233351 27.8422760303831289
  4.0049254995454771  2.4782517410968099 21.8220554808507643
 16.3686890246703420  9.6441603564717955 21.9194055225388240
 20.4245407362899201  2.1619104995736800 33.5599568227508058
  7.6767334213102929  9.2678581705515430 33.7002176615930082
 12.7595309578338494  3.5763146357428170 29.9880100221410366
 25.3421520124063058 10.9098783523022238 30.1515373501427568
  4.2474390181165722  3.7954469546161587 24.1822192201497508
 16.8564974957177895 11.1662377667721540 24.2071945027161277
 20.9816066639722045  3.6966757545799203 36.1159535186209624
  8.0223967429631102  9.9562259015959640 36.2203819279615118
 11.2760702674989037  5.3774359640099734 27.8563491957179252
 23.9526406320859238 12.6000309023316994 27.8309041474353052
  2.0660764686918722  5.8256038174200953 21.8366133407173848
 14.5751854934051792 12.2111335237278240 21.0999046707460955
 19.6448358552253559  6.0141166956946224 34.1925665289886851
  7.7564632316147391 12.6485166435471186 33.9614291500734211
  9.2591301433353408  1.7464630213570869 30.1255836914691528
 21.9515435356442481  8.9300056676667072 30.0441605343987099
  1.2929014208431873  1.8376656042328048 24.3641167474975262
 13.9598203238922824  9.3522350192649828 24.6760637045239868
 19.0180951525250812  1.6122975048736159 35.8709081527091911
  5.7320008026463540  8.6189340710081179 35.5039390133574742
  3.0343823234883667  1.9658991964267174 30.0466072630807481
 15.6920359415466564  9.2936047333825584 30.0412616474553609
 19.8256890872918525  1.6939351490524970 24.2435103602411104
  7.3070061937820956  9.1754995130980248 24.2116645315313974
 10.8025460534520299  1.0918086992041907 36.2335827553338063
 23.6019373079877326  8.8183317411408986 36.2710437634091676
  2.3366429169161362 -0.0518705327736713 27.8211215827421512
 14.8085490084063807  7.3591465209095990 27.7868328449792834
 19.0862622704678984 -1.1158702930091349 21.8577670875645325
  6.5554363052436972  6.0517564142818223 21.9820468321952376
 10.4736341332790825  0.0294761511584782 33.7927642818901646
 22.8337193735083730  7.4985513150124037 33.8483312490161765
  5.2204905119323257 12.9485451302476573 27.8410793223799864
 17.7031417297594444  5.7088187916276079 27.7225725599084960
 22.9736930279424207 13.5166822835090628 21.8314547062375581
 10.2713073259047523  6.2537875824230751 21.8319454972819322
 13.8346711093487702 13.0057194216474468 33.6329784534359391
  0.8536214725253705  5.3535715191321076 34.0820353696480538
  6.4239097943734560  0.0167482642285708 30.2153491665491849
 19.0419396474405112  7.2482965935836692 29.9875423050058210
 23.0048388700575011  0.1616574221314457 24.3377118805618800
 10.4848402356325323  7.5389067064080537 24.2344988027903234
 14.4195474580398066 -0.6500336232327708 36.2329727155856602
  1.9649977864758108  8.0044599182756748 35.7937907006458857
  5.2766575270803573  1.6037887282830445 27.8496579083875559
 17.6468989501243492  9.0169187959730532 27.7641781455825196
 20.9980300919787943  2.2208278108174304 21.8319846937720321
  7.5578715975353958  8.9403216981967724 21.4138532237364636
 13.6690658003380907  2.1451001823605105 34.2870793751670817
  0.4986314341078892  9.4124268552848225 33.9684591670641680
  3.0800988110266503 12.5598289275796056 30.1292204573445765
 15.6638150535811320  5.3213698383489882 29.9685356818259585
 20.1646233276383491 12.6678305473396353 24.2357305034828840
  7.6480880070398962  5.7600013276386557 24.6838389943222580
 11.9040550067951951 12.1197829529185039 35.2030685633753677
 24.0751355707402439  5.7667764985304286 36.5341596896945333
 -0.2627271635007513  0.3347836215861050  0.6359585410392928
 12.6808278204319791  7.0635835499327531  0.4889956807458696
 16.7449874442206017  0.0200858332317636  6.5799307945695809
  4.2563016049151878  7.3215516597909174  6.3879911105889757
  8.4005956818920087  0.0065125522647224 12.3948070992261723
 20.9918663534823580  7.2700799092100921 12.5244029525038059
 23.0652603056324246 10.8750460946691110  6.4196594238640250
 10.5161993221899071  3.6941735193911245  6.5618433440684862
 14.7161270766858756 10.8531355057264332 12.4963181310034717
  2.1138098195526553  3.6462989600511388 12.4651734074992167
  5.7989758833010789 10.5664162960235242  0.3729904103383491
 18.9041895751656313  3.5692937559497353  0.4830820276341165
  4.2459896878114689 -0.0054686235149453  6.3324320957483744
 16.8036936480819250  7.2659155510377733  6.6005660320333099
 20.9995652613706412 -0.0229426063973196 12.5466265833658817
  8.4412352926557457  7.2859276822416241 12.4571747644571147
 12.4085094542363841 -0.4737023960147814  0.6820533837719911
  0.3110619677027939  7.6401928280405889  0.5896938867388030
 23.1512190676514038  3.6237159622488946  6.4688624411674196
 10.4906359244977594 10.9291140124422217  6.2463689912636928
 14.7193153203915923  3.5625049733145904 12.5995559279288063
  2.0883877824481560 10.9404081286964381 12.4391161844949512
  6.2730501173863464  3.3208778153349279  0.6421487776575652
 19.3752854427155583 11.1606113734964367  0.6282881515470230
  8.1454397439683159  0.0110760993059210 18.6040995964604221
 21.3027586638300583  7.0620545516927447 18.6242650203649838
 25.2135065122153286 -0.0290721953996755 30.8055090313438598
 12.5178361072022994  7.3378542538282714 30.6801057575879419
 16.8459094452265639  0.1092340245331426 24.6394705444795257
  4.2212333950488201  7.2564667900590756 24.7564691722240084
  6.2712798584770573  3.6414893550057386 30.9124773732741218
 18.8062554987371016 10.9751417234778028 30.7839820559967023
 23.1268537695857823  3.6354489986295078 24.6878661525951131
 10.5452049678244357 11.0650724188915799 24.6878631658684249
 14.6858828679028726  3.8103649617213793 18.5909438452488232
  2.0490257306914796 10.8459055939121907 18.5623709922010960
 12.5906231738863106  0.1078458134611973 30.7740235053449211
 25.1486622713954056  7.2748843514219805 30.9100598827416526
  4.2074711768885171 -0.0212700867208995 24.7005563746171362
 16.7149893556992097  7.2950714912739540 24.6246327951615953
 20.9291773840078434 -0.0079209137242807 18.6047698758377784
  8.0197764283294450  7.2106654886373276 18.6311532159458864
  6.3070080497421106 10.9327948402679471 30.8391447244235479
 18.9091633221272488  3.7362426772173301 30.7141388667280033
 23.1254474602064093 10.9009498651534518 24.6884054266100570
 10.4898662201422646  3.7529996094832052 24.6991166325202052
 13.9731499868793509 10.4104066067917422 18.6631937723631545
  2.1234548570593188  3.5745246057707285 18.5808499052645573
  4.2409000641816297 -0.0635673954260605  8.4172447993974018
 16.8585654283263473  7.3084177601435210  8.6319794025220951
 21.0103972562615340  0.0006915573555058 14.6051139339925147
  8.5045694067190674  7.3175960107336264 14.5108121145572273
 12.6949413001799556  0.0403996526270949  2.7554924033603112
  0.2564317466704257  7.2520489647711077  2.7290234426883457
 21.8360720087319002  1.7228332091199876 11.8296331535857053
  9.3075564006419924  9.0020189031623001 11.7231233836079394
 13.4046522092571880  2.2080263217349509 17.8108063426946153
  0.7327890921636797  9.3013171893069462 17.6998500292948684
  5.2048393760441449  1.7245147761097355  5.7508296803396020
 17.7194672515454918  8.8800034021009449  5.6955770535384138
 22.0602205644328997  5.6420037842201189 11.8179959325259869
  9.4791249133854762 12.9580988653253026 11.6445277019098103
 14.0178225714215827  5.6581942441142035 17.6367758772044674
  1.3653671047277105 12.7809774595731316 17.7397467596556169
  5.2386689419770693  5.6380998601277481  5.7224015092010729
 17.7946072684649046 12.9252091676732999  5.8850506945992338
  6.4507444244957961 -0.1145632220382761 11.7031956811220859
 19.0408025229402895  7.1578261778509589 11.8600361908672394
 22.9442960284952164 -0.3764065865203108 17.7584618158551493
 10.0880030705439800  6.8786320040991704 17.7732406309186111
 14.8357242343428322 -0.0370451338176331  5.8205778657951726
  2.3300049679018300  7.3007664876229583  5.6840894541650675
  2.1689742494218773  3.6269892662583696  7.9726023141801674
 14.6654644913508871 10.9073458970381285  8.0527382165739301
 18.9033723747126636  3.6159909101296557 14.3123792758908799
  6.2541914782729435 10.9079127163001317 14.1657728301887040
 10.5724149927105522  3.9286744918174330  2.2617824092562047
 22.9807356272831065 10.7224407621123294  1.8694263675461036
 23.2735807938536396  3.6071684651453091  8.5307080004264755
 10.4364180981153609 10.9674111344106073  8.3106271732457149
 14.6914426077908864  3.5282628536702534 14.6670578016707527
  2.0736890058402659 10.9136054484734260 14.4946300291333223
  6.5759680509485428  3.7493090221846250  2.7666625131008207
 18.8414658809189923 10.9107713356853910  2.7132153789223556
  2.9267460963485683 12.6958271745582536 11.7408772842363813
 15.5535545883356168  5.2692518459482276 11.8675726641358352
 19.6049383500222056 12.9406177870895736 17.8224852462082133
  6.9902610085546337  5.6964641680109391 17.5920284769998290
 11.4437973509658644 12.6191412663977971  5.5466283951017914
 24.0737216779857341  5.2962300956429402  5.6965206015059300
  3.1801424176429682  2.0284515181416372 11.7393181681603860
 15.7579115488780239  9.2058974561073832 11.8135174098631399
 20.2474185900781691  1.9283381522085385 17.7418602534912822
  7.5059152913897886  9.1623399270679204 17.7117589973092358
 11.4645476044498640  2.0708636217400302  5.7163677945731610
 24.0043914493538679  9.1818286340949946  5.7278460912030251
  0.1646391309235311  3.4963238586576719 11.8020074492614757
 12.7522764161751763 10.7163682194399321 11.8692738989546580
 16.7029137042000109  3.4071419102993183 17.7897416137785953
  4.0538811439145572 10.5105067876279854 17.7204500922034534
  8.5931753772266379  3.7769104490061678  5.8516343152664545
 21.0946749856710802 10.8510716669353275  5.8141943911067013
  0.0113223444480381  0.0200884310634891 14.3095239899241697
 12.6171837190279277  7.1057813120722910 14.1529080306267563
 16.7473028081537478 -0.1442563699964478  2.2871454278443037
  4.3480131522967822  7.2120516727755923  1.9528861496689607
  8.3850488484967443 -0.0000032929468114  7.9196381876466804
 21.0027206847242844  7.2497233055317700  8.0928327236855395
 25.3345487466267407 -0.1329946985850011  2.6773707066969061
 12.7320152345335149  7.1015263831755524  2.7732653622259247
 16.7487577304254565  0.0134828544562817  8.6562688639663339
  4.2713511843275125  7.3224247529244026  8.4746778991886824
  8.3867936132822827  0.0188032050111786 14.4476775611899182
 21.0246285957468153  7.2903208491296771 14.5733827121239159
 21.8666857891291393  9.0125610165494461 11.8095169050289783
  9.2657590656365016  1.7725174726193222 11.7344404311120361
 13.1449629890210797  9.0793746331895289 17.4604460321953390
  0.7936467057274313  2.0195502963659329 17.7437181218776878
  5.2235560904937932  8.9919573123555772  5.6784236596064392
 17.7014318619909155  1.7400521119892469  5.9301702121991200
 22.1004565345799975 12.9042310881984754 11.8537036728085976
  9.4538307472819323  5.6157797377585901 11.7606924353823246
 14.8440261221081649 12.1978499428294622 17.6641291257461255
  1.4238857502270090  5.4848068975463233 17.7434002235055530
  5.2346681553795626 12.9028733551475678  5.5670502188083635
 17.7261377952131625  5.5226978301155416  5.9318009643759604
  2.3232988805403245  0.0200272823514211  5.6096102079134083
 14.8114163641172585  7.1980178499495580  6.0210470372166052
 19.0566413531245438 -0.2068066019745892 11.8692380948039347
  6.4727109247547103  7.1528312118552826 11.8096193222085546
 10.2862709021765841 -0.3185425592622675 17.7496037320365119
 23.1086272460605180  6.9610233869173399 17.5441765065855080
  2.1060706890900760 10.9158277126286940  7.9114333619765889
 14.5334801785431758  3.4135053242868998  8.0557614761444789
 18.9530223052145779 10.8916394514170687 14.3939012204725945
  6.2765985559409421  3.6051814565037730 14.1654119670404395
 10.6865486872043078 10.9256237287098870  1.6131626316526337
 22.8090137704705214  3.5994446068434822  1.9466849114572080
 23.1024008701162131 10.9177375373684278  8.5031106880732423
 10.4782752593392932  3.5872962665974026  8.6336201263097561
 14.8394319386861131 10.8933070307640065 14.5485271543843098
  2.1447816706319185  3.6435256385106811 14.5261081966517267
  6.3817597741563192 10.8415905230069196  2.4341743681676431
 19.0850744997898616  3.4038561027782195  2.7779612034474943
 23.9778685825851774 12.5460319270983653  5.6510907580901426
 11.5571840220551092  5.4071636521657815  6.0633736452047575
 15.5727670171597588 12.6076219239076881 11.8121204004755675
  2.9514584023152710  5.3934508418839036 11.7481820544427702
  7.1697062194106547 13.0338823346329615 17.5039603088740492
 19.8326480872291242  5.6938862121286578 17.7106260911616005
 24.0408029832232728  1.9531765613317225  5.6478311031653456
 11.5137163971206711  9.2751465172775447  5.5509009515575887
 15.7922296521100680  1.9287436274745111 11.9151028359335598
  3.1710865904767536  9.3342451259384038 11.7103063811117192
  7.6640368720101293  1.9480356345866694 17.6671801039706047
 20.5873491627131031  9.0371505049294285 17.8170757253179204
  0.1424628290573073 10.8170153546549237 11.7380253256499216
 12.7629773874524837  3.3841419314912322 11.9096672737182132
 17.3111047797196065 10.2510245647468263 18.1805054611494583
  4.1254926622364989  3.2252417277565018 17.7365995146611155
  8.5773083973540061 10.8710334051467328  5.4810473872396024
 21.1555971877242150  3.6508985939890706  5.9519448456630153
 20.9885181037441590 -0.0093900174196938  8.0988415883742935
  8.4126072163765873  7.3421280241547171  8.0214390686277941
 12.5034819842142895 -0.0737663829245673 14.3150447069975311
 25.2155822476874469  7.2796597497831641 14.1857659515379382
  4.5978068457412888  0.2747048177018639  1.8691282166288439
 16.5787691729121462  6.8694360391438085  2.2014002533404007
 12.5849170415777412  0.1537934919478703 28.6896930661005776
 25.2058260571307216  7.2634894856352314 28.8185438974627921
  4.1849774397424033 -0.0491592658960246 22.6533035515099890
 16.7056616466824188  7.2827495343802084 22.5937148904212393
 21.0554756472740898  0.3745669021178681 35.0346866036297087
  7.8970689612723532  7.5253911355979755 35.3700706408402965
  5.2710270604113312 12.8860727869166389 25.4159637850989704
 17.7733106682165101  5.6540467524582843 25.3382122603694775
 22.3305821301474516 13.0458509677016483 19.4572919434746261
  9.5241472885949250  5.8195559410949977 19.5095372269727960
 13.5536034858130794 12.9052668876039647 31.3200377842404407
  0.9341512033212831  5.5779214680513434 31.5956578815273730
  5.1084912986424920  8.9873676973802432 25.4574386554838163
 17.6811549508821066  1.8520469778928985 25.4118265633333422
 21.7948437724323156  9.0658166692397515 19.5445857579071216
  8.9407435575546579  2.0254333571064302 19.3532105855839518
 13.5736525613250159  9.0062134750368390 31.2790429818717470
  0.9815104443877599  1.6912473669194068 31.4196353994024093
 14.9032101574012277 -0.0283249631866134 25.3520781373201984
  2.2846350827502837  7.1361911285434791 25.4915106596291956
  6.4105232086446797 -0.0299710433785586 19.8328384827962658
 19.1273403079412780  6.7844432506484278 19.3745769103926868
 23.2393180809615316 -0.0088450594113533 31.3863376451624809
 10.6220969885294956  7.3735232670898716 31.4652845779876067
 10.4788929320142241 10.9814532313336919 29.1503637581998731
 23.0959722148351823  3.6336447060279142 29.1547017214762576
  2.1157256332397694 10.8471818048557207 22.9931915415393995
 14.6457773696984113  3.6878281609847745 22.9992142434170042
 18.6992060554412838 11.1003655386302285 34.9155325401847350
  6.1049678200929165  3.5428219804890762 34.9380229729337302
  6.2742174928161001 10.9515429278431391 28.7492512440358823