Li P  S  Cl
 1.0000000000000000
    20.5609999999999999    0.0000000000000000    0.0000000000000013
     0.0000000000000033   20.5609999999999999    0.0000000000000013
     0.0000000000000000    0.0000000000000000   20.5609999999999999
 Li  P   S   Cl 
 190  32 160  32
Selective dynamics
Cartesian
  1.1301716260882011  0.8447335591134535  2.0789099151909807   T   T   T
  3.1112255362294503  5.5426380778541144  7.9915846754764548   T   T   T
 13.0027163011673377  9.9192620611944200  7.4161600823757770   T   T   T
 11.8783910866868521 -0.0745239449902768  8.6734890866173568   T   T   T
  2.6419375163233823  8.7670290650819922  9.1661062082031588   T   T   T
  4.6207255076601941  1.7397236743757751  2.2550518472639234   T   T   T
  5.2895832792005866  3.3116414921968347  8.4380535817035582   T   T   T
  8.6054310614122791  6.7824405281902997  4.7570622234105686   T   T   T
  7.8383811961738878  0.7578651725490460  8.3160577131308457   T   T   T
  7.4766995394397631  5.5783829363510362  1.4124036035918142   T   T   T
  9.3145617220229724 -2.9962964609385025  2.8427294915585883   T   T   T
  2.4220841056949927 10.2401464335323418  2.2879270365435418   T   T   T
  8.4286312307517210  8.8389253546927335  0.4847244853775329   T   T   T
  1.0108283563389200  1.6649086104299482 11.5197393234248597   T   T   T
  0.4580395012288687  3.4630002412793437  2.4440243316801831   T   T   T
  1.6399911889786425  6.4539627842545801  5.1708431004916378   T   T   T
  8.7283761760435397  2.9457506775942672 10.0449999439702218   T   T   T
  3.8339354293022110  4.5219484371084180  2.4391306399986341   T   T   T
  5.0115882184296519  3.4067593757477703 11.9245471390550222   T   T   T
  5.5033203488265361  7.7902666882806386  2.4294078328320690   T   T   T
  3.0002203718338878  2.2293195142965243  5.0164469400435232   T   T   T
  5.1481210835764433  8.5851204676479149  6.9639055806520824   T   T   T
  6.8173233135527900  5.7333993507405765  8.6449926273571727   T   T   T
  6.9185165359408236  9.3397761941752258  3.9417122258963047   T   T   T
 -2.2079878857891417 -5.1182249898305914 13.3189526176810489   T   T   T
  0.4632494397582383  7.2987072862741185 16.0518361208573559   T   T   T
  8.3635063121973090  5.1696572895436299 13.9473527672464712   T   T   T
  7.1145904468489540  8.6228660053961121 15.1104868281515241   T   T   T
  0.5578766566012103  8.3623251776873833 19.9583375268700927   T   T   T
  0.5594734032745363  3.1389520710603338 14.0188560005094907   T   T   T
 10.2218007602675751  2.2579036583951253 19.0011522515077900   T   T   T
  8.4745365686044174  7.3654996667858823 11.1920891118911499   T   T   T
  5.4546615434026551  3.7617799735371116 18.4741042998056386   T   T   T
  5.2785461579380808  8.0349212479992822 12.6386160673342474   T   T   T
  3.2288129882846426 -8.0191154570237408 10.3228378389845012   T   T   T
  3.3347880238585024  8.1936177944864248 15.9552984125820725   T   T   T
  2.7150904816024228 -2.2869237959932467 10.0278993761703887   T   T   T
  8.0181602992508729  5.3232085877845048 17.8726822020073151   T   T   T
  3.5934726846488299  2.5407959871825598 15.2031637602410843   T   T   T
  2.3978254849257654  5.4743445845559568 17.8574956218405951   T   T   T
  7.2253659446618537  2.1171572606683400 16.0120388032098298   T   T   T
  8.1957994476798213  9.8735347106754716 12.5545007001798385   T   T   T
  2.7484191407716954 10.0787524611675909 18.7228648056991851   T   T   T
  3.0287208595059303  0.6856422721899623 13.0399657470417694   T   T   T
  2.6240445949602353  5.2589350871130414 12.0893598001921045   T   T   T
  4.1194774487954708  7.6421534696806841 19.1274544044383426   T   T   T
 10.6386314281030678  2.5502899769023499 12.1231185946356330   T   T   T
  9.8846977679335826  7.6316414115211488 13.5058580209804386   T   T   T
  2.3915107018033930 12.3786280789507668  0.1261993853892776   T   T   T
  7.4546861739105026 20.8273031773335333 13.1942921877326249   T   T   T
  6.4331409283424126 16.8547814523959154  0.9616097682103539   T   T   T
  6.2099969759573774 12.9121915508565692  5.8432662303628673   T   T   T
  3.0339821753891321 23.1781482080526260  0.0960213973071034   T   T   T
  0.5333209626624135  8.2352257510653235  7.8238983015887937   T   T   T
 12.7876788914030541 17.9112803494707222  5.4103693103968586   T   T   T
  7.7880516620247526 16.6047703406909619  4.4522342308436063   T   T   T
  7.7146242904504279 15.2755451985711090  7.5006341755026638   T   T   T
  5.6499235332513704 18.8494181657933346 -6.9364689416241596   T   T   T
  1.8526672841825595 14.8130126637039421  2.2605870872902529   T   T   T
  2.3187774398276599 17.3259418080990066  5.5457386145888199   T   T   T
  4.7768053713914336 18.6282778191434950  3.7085580375278493   T   T   T
  6.0249053721948762 13.2998677500552471  9.1468509294105420   T   T   T
  3.2923278296327978  9.7795235711379327  5.1526578028022545   T   T   T
  3.5990561119750137 20.3856247740730225  7.1862676150261695   T   T   T
  6.1484500218874665 15.1180407449385612 18.2419534697198138   T   T   T
  8.0093393006520088 20.2533149826438823  2.7230375226810062   T   T   T
  0.3900904689648448 18.0087780511704700  7.6791898086335539   T   T   T
  2.0402515343815759 13.0479383867090437  4.4128771765145141   T   T   T
 -4.4548142747789585 18.0959247706625987  4.9589025790947048   T   T   T
  4.4107236400996390 16.5512203268758924  8.0496744846600112   T   T   T
 10.1148348646473405 14.1025285075116056  6.9151640581039304   T   T   T
  6.7056928412202543 19.2179799270677840  5.4594743877865701   T   T   T
  2.9934806804427505 13.1103501077667683 14.8481800131531863   T   T   T
  2.7540175384217225 20.5266665084404245 18.7593296215585603   T   T   T
  6.7126047750850129 15.6417150002175820 12.0165705979095758   T   T   T
  6.3077355534955810 11.1049334147367063 17.6476371477732243   T   T   T
  3.5748745416082643 17.3958406918724506 20.4015821751817157   T   T   T
  3.2147775694066718 10.3410338286091790 12.9294352028244202   T   T   T
 15.1368359268559338  8.4909367987259188 16.7312541380126518   T   T   T
  8.2844655014104482 16.3778684612837573 14.3791408715732931   T   T   T
  9.8461016794038265 11.7220306117331337 18.0744476537980674   T   T   T
  7.3600496469477097 18.3682935121077477 10.6946862605055166   T   T   T
  5.1350262188939535 12.2915083385970760 12.9012842030782444   T   T   T
  2.3281471069080628 19.4274901985570914 15.8676565383359236   T   T   T
 10.1570254744715065 23.8849424033822721  6.9764239955889762   T   T   T
  7.7894551875374871 12.9012690102915002 15.5278324941535235   T   T   T
  0.4487677480439611 19.0575742251367473 18.5109591095385611   T   T   T
  5.1644522841888634 13.5083929452114351 22.6227774564527522   T   T   T
  9.2964604977895249 14.1991066742080143 18.3500193377275238   T   T   T
  1.7543594573320853 16.0293303466330066 16.8996740080826697   T   T   T
  3.2974105720136975 15.2532681118801410 12.2346796609976725   T   T   T
  0.6154513400378728 12.7476734323343912 12.8879417583757672   T   T   T
  4.9125211949748646 18.5161356617624087 17.7193132705757179   T   T   T
  8.0660026360884398 12.2297904689718884 20.2679087176517676   T   T   T
  9.9532060411233143 19.1179392470386240 12.3528979687104261   T   T   T
 10.3634588668834926  2.9263240348735575  3.8082259428585425   T   T   T
 13.3872200150977534  4.6965752634577340 12.2213753101420668   T   T   T
 19.9728297236125911  8.8056281560543219  2.2949843307440196   T   T   T
 15.5640949944602092  1.9133601363162402  7.0420351466124620   T   T   T
 13.4899581767113066  5.1237061816616185  8.5909541112160834   T   T   T
 15.3955620670035653  2.5934811200323633  2.3537587251957368   T   T   T
 17.7064464865991837  5.0284380363549195  7.9816992259183577   T   T   T
 17.3546332564891159  7.2125461077605681  0.3539908098855833   T   T   T
 18.8266083745974981  0.6405447347023103  8.4399070986804290   T   T   T
 17.5896235166876593  9.9966507674853400  3.0679897156866520   T   T   T
 13.2485987704227721  4.6056749374995274  1.2951206073626864   T   T   T
 11.5573148388729710  7.0961534598180371  6.3166635238899458   T   T   T
 18.9484603830039049  7.1528760973085532  4.7366582893841249   T   T   T
 17.1636489513012336  2.9859691560315751 10.0102503980005615   T   T   T
 18.1221913127568612  5.1242342013036017 -2.9157875335858190   T   T   T
 10.7908513905626648  8.5178538593294331  8.4011805232214734   T   T   T
 17.8369909112485772  1.7189611109033072  5.5966814270799707   T   T   T
 15.0408908288124454  7.6218919072081377  6.9107973564015941   T   T   T
 13.3523034753254244  1.3372644842241754  4.5520321990326229   T   T   T
 13.1193952505117934  4.2721598040929987  4.5053113718029882   T   T   T
 13.4901924391699204  7.3496904890189727 10.4031993041243034   T   T   T
 20.0806600596965907  3.1478647950963885  7.2683086356200377   T   T   T
 15.6259540705746272  6.8797056214273908  2.2296716005593380   T   T   T
 13.6818275016254471  0.2584970999991236 13.5834237234730182   T   T   T
 13.3737374767483637  7.9558807634101258 20.1801057120184559   T   T   T
 20.7961247967780665  8.9024775362303910 12.3697731727856439   T   T   T
 11.5856836637477478  1.5068074482554261 21.4895329977035807   T   T   T
 11.2907396586024653  7.4380127894678516 15.9292755903414456   T   T   T
 13.0605475183300150  2.7146980240274416 10.4793047345090748   T   T   T
 18.4216993016556287  3.5014899024866000 15.3093194566814095   T   T   T
 18.1355819734129824  7.6570670875940019 14.7186565916985650   T   T   T
 15.0449127529954403  2.3592720481385498 17.3089138543639081   T   T   T
 17.4450703465756547 10.2867711217582620 12.5615574946017539   T   T   T
 11.6809267188218371  3.4499966011059837 15.2604517817278698   T   T   T
 13.3406236612167337 10.5457796052872119 17.1070409880880590   T   T   T
 15.9991500205098784  6.7860772798565803 12.0038919494184313   T   T   T
 17.2100261708622710  0.4888769073286449 17.0837707407404125   T   T   T
 12.6320791318016088 -0.1026594981678273 18.2169873385895578   T   T   T
 10.7962403554841107  8.3570043728879355 18.6002967303615137   T   T   T
 17.5409428589065399  2.0910098059716358 19.8198009529425860   T   T   T
 19.0625866771282872  6.1070980609376306 12.5080329840470270   T   T   T
  7.5697287974728269  3.1318438475736707 20.4399389100788298   T   T   T
 14.2317254898898753  5.7993805459774324 18.1307544157905056   T   T   T
 14.9806059175048016  2.5844797646912738 14.2014971825148919   T   T   T
  7.9789974972767386  0.4364196281995230 18.9474730243367908   T   T   T
 19.9107567829012808  2.0051934160796980 18.2579478492414857   T   T   T
 18.5534541653621758  8.4250580790260958 10.1288369498934276   T   T   T
 10.5056156777846592  7.9863883016876853  2.6219692680145026   T   T   T
 13.0955271844377368 15.1984254472915037  7.8883918592393290   T   T   T
 20.1108975578366298 17.4341222835421661  3.0537133762060016   T   T   T
 18.2338108320758252 12.6327497730064842  9.9127938141476939   T   T   T
 10.3035274157898069 18.4460050582434931  8.4215965848679026   T   T   T
 13.4257819283400242 10.5106576606169977  2.9346686262846240   T   T   T
 20.5781536741052236 11.8183319928447936  8.2426419197676672   T   T   T
 18.0646898492420718 16.2227692099908367  0.9790324145903275   T   T   T
 18.1758112150655862 14.5941824847611752  7.7700283580340415   T   T   T
 15.8639777166751870 17.2859769124875768  1.9063567770461187   T   T   T
 13.5444113316998251 15.3047734608072084  1.9062672804969414   T   T   T
  8.6905833468239351 12.7719970496606514 10.0690215188663945   T   T   T
 10.0020773795419569 18.0943322367072881 -2.1909410867552559   T   T   T
 19.6124695743875321 13.4828083723181233  5.1457100124308939   T   T   T
 18.9685462579782751  5.4283564497844674  2.7939107155371006   T   T   T
  6.5242797899528133 23.2500049957464441  5.2506650244888027   T   T   T
 16.4703440220476693 12.0502376089383940  6.3595446959658046   T   T   T
 18.4810939242820993 19.8682630124682795  2.2755906476985128   T   T   T
 10.6998709476918066 13.0191960005796084  3.4087454327232845   T   T   T
 15.3440278105240449 13.1806230804888624  1.9893487715592835   T   T   T
 11.6185820744265893 12.5479715703089632  1.0807888123232732   T   T   T
 14.4869610734158627 19.3684315343189049  7.3156087325558161   T   T   T
 18.0424825008425742 10.2599607841854290  7.7531610175147332   T   T   T
 18.4015359715554538 16.0305947406084712  4.7078250849447789   T   T   T
 14.4465378204613479 15.2242113287848930 12.6627189968151317   T   T   T
 12.7823211040345992 15.4896394085114029 17.9762801090040156   T   T   T
 18.4534558257257757 20.3017013940292088 12.3983738058003450   T   T   T
 18.3691596200438099 15.1449541887676400 17.3984126916389066   T   T   T
 12.3222687461732274 18.2468156220266984 20.3028501662536023   T   T   T
 12.5182909505262856 10.4984402525825224 12.0094398133908005   T   T   T
 28.4811696694168148 10.3866887894273301 27.6674769731539705   T   T   T
 19.9840255953262798 17.5433386378513596 14.0825985911311733   T   T   T
 19.4451196803286805 13.1915347084345829 15.6661235912477057   T   T   T
 19.4413342438490773 18.2930350255986056 10.9435661882957174   T   T   T
 13.0994572694491023 14.1804679098954569 14.9954860465592592   T   T   T
 13.3205802698959968 12.1916437051707476 25.6406501109684477   T   T   T
 13.3217172195277094 17.4306379052316132  9.9361877813268098   T   T   T
 16.2099909845698278 12.0844734636942785 16.8888816856507304   T   T   T
 10.7741940099985207 13.7068965555194531 13.5807367127761758   T   T   T
 14.6064659373080463 18.4745585470853833 17.3827882970717233   T   T   T
 19.1038729895850565 10.3230726151030421 18.0857999207594133   T   T   T
 15.6568019378135084 17.8055353493926773 13.4668997294929564   T   T   T
 16.7249612142706710 13.3433742111929341 19.3898034208836449   T   T   T
 13.2021762677223222 13.2644023150295034 10.6613483726904139   T   T   T
 14.6106164475028830 11.8972107054004699 13.7191829931314881   T   T   T
 11.7533634400966953 17.3649919663512655 15.5715337974413508   T   T   T
 19.7866912267789061 13.1799404022002555 19.5863502737516697   T   T   T
 16.8735923562899544 17.2704146903015179 11.0518708493312268   T   T   T
 -0.2187773159517353 -0.2967064373570801  5.2892039304373286   T   T   T
  5.2087105321018816  0.2304126251619514 -0.0316801978388505   T   T   T
 -0.0457130648161657  5.2401633406396586  0.0802514610670032   T   T   T
  5.4213602438710735  5.2243920270201745  4.9591673175213566   T   T   T
 -0.0132245685725765  0.2693800812686087 15.2674862666756219   T   T   T
  4.9167507110070749  0.1050397310516515 10.3137453806260346   T   T   T
 -0.1304151500504859  5.2906870130432422  9.7405156594267606   T   T   T
  5.2516448348197677  5.4120418436107114 15.4286132700729564   T   T   T
  0.0878604876069944 10.2971949493633286  5.2671285444354812   T   T   T
  5.3251015872536689 10.7134399075601543  0.0128559519200325   T   T   T
  0.1504619966405348 15.4702531370633949 -0.1472394529916815   T   T   T
  4.7585100798144344 15.1166490157805740  4.8741059081113098   T   T   T
  0.2556417359028422 10.2382393922946502 15.2145835991231220   T   T   T
  5.3800147397099209 10.1030681212691675  9.6894381693603862   T   T   T
 -0.2089062623662138 15.1175203156637110 10.3202214790692963   T   T   T
  4.8392164659806296 15.7992620586566233 15.6545967582236294   T   T   T
 10.2261148069317258 -0.0452050363643381  5.4362507347309741   T   T   T
 15.2216979827140513 -0.2409383948297002 -0.2096995092076854   T   T   T
 10.4788221684999581  5.1687684327810102 -0.2982374471727089   T   T   T
 15.5868102553883983  5.1138378027098694  5.0567767953792897   T   T   T
 10.1248355139046797 -0.0439585970672257 15.7592744315147542   T   T   T
 15.5308505972799438 -0.1228418860564157 10.5172670044245677   T   T   T
 10.2602453509771294  5.4187961174116914 10.4555316670630809   T   T   T
 15.1136374514819742  5.6084821605845567 15.0953701837876793   T   T   T
 10.5628436723778680  9.8704014018622477  5.0616038082066224   T   T   T
 16.0396875819946771 10.2567615971440294 -0.1094705873677109   T   T   T
 10.4045640213053456 15.3289691293970733 -0.0047214353520852   T   T   T
 15.3677596582542293 15.2715755906300306  5.4598064670434452   T   T   T
 10.2646063062147750 10.5332495373367330 15.4240654416560670   T   T   T
 15.2841373255383495 10.4286709566951181 10.3883371685169301   T   T   T
 10.0346744186291179 15.6155675046160969 10.3582548316015135   T   T   T
 15.3936694311727749 15.4026414933737836 15.6389778464309597   T   T   T
  1.0554528387478872  1.2002911476736002  6.2687279589908638   T   T   T
  1.3014339604899725  8.8667916329746017  4.0138650121769048   T   T   T
  9.4650583002947872  8.5459161310619063  6.2324687734711910   T   T   T
  8.9605791134913986  1.2923444654811078  4.3434465940660116   T   T   T
  6.6232956087768260  1.1249838994202419  1.0992217590728945   T   T   T
  3.5719089591290829  1.2302100567963909  9.2195397722552830   T   T   T
  6.5597257100704747  8.7885853431678598  8.5990954511718876   T   T   T
  4.1292130123225599  9.2794804437743039  0.9556473769832339   T   T   T
  1.0715606158052156  5.9782475830497956  1.5950276862702184   T   T   T
  9.4602142793995689  3.8153184800722806  1.0260459998971436   T   T   T
  9.1812271693486238  6.6534061378916718  9.1363771499512243   T   T   T
  1.2855539131232920  4.2113430767298938  8.6397257636792109   T   T   T
  6.8465658416742929  5.9519269495520870  6.0824322347912645   T   T   T
  6.1466080017758413  4.2443058186570317  3.3139308208267275   T   T   T
  4.1790348636830270  4.0284190363845163  5.9855283529981875   T   T   T
  3.9984001552987793  6.7032291043253140  3.9426403416004456   T   T   T
  2.5007014739856839  2.5672331867692946  2.5440197541854297   T   T   T
  2.7278301084083689  7.8181154573837750  7.0938700774835191   T   T   T
  8.0487550419102707  7.5871958403702093  2.7458993991097529   T   T   T
  7.6304220180262341  2.9941899698471883  8.0471241316667452   T   T   T
  1.3199284828444324  1.4764431645360965 16.2248289096756011   T   T   T
  1.6046623012122152  9.0816547113882233 14.2345286743181934   T   T   T
  8.8984655151509422  9.7333178165822307 16.6751198543580692   T   T   T
  8.9526605045379739  1.3454925887881026 14.3616236582405534   T   T   T
  6.1447163921217900  1.3307275382038546 11.5407348547603732   T   T   T
  4.5635048577757029  1.4319269502677368 19.1358520374160292   T   T   T
  6.3259314889916691  9.3250718032615740 19.3023889426636543   T   T   T
  4.0323331713624153  9.2063656824139315 10.9073109622920477   T   T   T
  0.9806330605263672  6.4627664367575539 11.2606426360962821   T   T   T
  9.2530800985866986  4.4719750816836124 11.9389519705815417   T   T   T
  9.1910095523823685  6.6493584058115802 19.5064016356270891   T   T   T
  1.2685403152144845  3.9177909524074765 19.5401796427318430   T   T   T
  6.4150100815117348  6.6280196187419964 16.6870621759495670   T   T   T
  6.2516623451772837  4.0590176373820510 14.4086355252324658   T   T   T
  3.9352510401703458  4.4981321495124202 16.7139228929462718   T   T   T
  4.0713806645834900  6.6192794066846403 14.0205081856358120   T   T   T
  2.4462753693353618  2.9742156823991550 12.8260184792847731   T   T   T
  2.1433931024472930  8.0347966815925851 17.8783978549660318   T   T   T
  7.5365150185394230  7.8110445082105242 13.0317526385746092   T   T   T
  7.8671083127671384  2.6577954039287386 18.0918365314748577   T   T   T
  1.6353997374823859 11.3253561247837933  6.3939236417470049   T   T   T
  0.8617747434177042 18.6766330773163212  4.3925451069913573   T   T   T
  8.7010793853458601 19.7960292104529856  6.7045813772270257   T   T   T
  9.4158694216410925 11.0303067624138365  3.9807603906892797   T   T   T
  6.5308345745585559 11.5721491102225151  1.2670137894195059   T   T   T
  4.3061102713211055 11.4901968448010035  8.4509624592209285   T   T   T
  6.1772116150128182 19.5732937205959239  8.7777865206030032   T   T   T
  3.7075777693620409 19.9430336394978411  0.9320593904302771   T   T   T
  1.2724745812884553 16.8074593130224947  0.9521078093016828   T   T   T
  9.6830026868088943 13.8202732216899200  1.2414668412473990   T   T   T
  8.8434070316213482 16.6875469544474875  9.0340847775918522   T   T   T
  1.0846262515205272 14.3608949432805773  8.9756403475698434   T   T   T
  5.9243394170486585 16.4928829698880151  6.1598276951521935   T   T   T
  6.4580426638197261 14.5391147073485367  3.8172299290208671   T   T   T
  4.2335288310977131 13.5758668204582964  6.1715290240385237   T   T   T
  3.6051412407965988 16.4349686844557326  3.7467855728313593   T   T   T
  2.9074144672734796 12.7506337262171616  2.3774031304148995   T   T   T
  2.9770979841585730 18.2444866926253653  7.8929462616833215   T   T   T
  7.3626719299464902 18.2225851386581432  2.6300160845569787   T   T   T
  7.8338725719375537 12.8891821251254797  7.4619067872282159   T   T   T
  1.1145512292440072 11.5849377181947091 16.2409727362209004   T   T   T
  1.1771974020120322 19.5860560807560624 13.9523813350534525   T   T   T
  8.7657902382601822 19.3203809086031839 16.7323129630333263   T   T   T
  9.2355797706593172 11.6894320733958477 14.0908982441994688   T   T   T
  6.5534892045053406 11.2247302853677038 11.1233564626046064   T   T   T
  4.2401207000702152 11.8942899812797602 19.3612621175441895   T   T   T
  6.3488223618016146 19.2938034314635729 19.5173084059940720   T   T   T
  3.8179711346561556 19.5071057604656417 11.5851103072918384   T   T   T
  0.7184437723160138 16.6434458535676804 11.3849049089124232   T   T   T
  8.8515359731598018 14.6214542226778779 11.7428207125183803   T   T   T
  8.8166525121510677 16.2512772502979210 19.8166082675786228   T   T   T
  1.0937572999758458 14.4497186328214227 19.0278968366259171   T   T   T
  6.0451013274483314 17.1784382232896427 16.3018109567370750   T   T   T
  6.1016965569917438 14.6297143865569250 14.3321653707822865   T   T   T
  4.0838676586877112 14.4662458533264928 17.0605775893989353   T   T   T
  3.0950788695011133 16.3125767490665048 14.5334652598313170   T   T   T
  2.9146922071362455 12.9648551465195183 12.4852994342852526   T   T   T
  2.4093193408957387 18.2467502639207950 17.8514967965951676   T   T   T
  7.8179014014326809 18.4416916310998253 12.7719945044309799   T   T   T
  7.7359579329260857 12.9363698227809358 17.9662147280451556   T   T   T
 11.4193286740823332  1.1247454197344788  6.6322896901484523   T   T   T
 12.1381656737756849  8.6858958608475234  4.3048339674979310   T   T   T
 19.3381939907943305  9.1679772943220694  6.3572118067979115   T   T   T
 19.5229680648210291  0.8559682823166911  3.8128407548787031   T   T   T
 16.7393655982165726  0.7216331934378442  1.0314343604723595   T   T   T
 14.3545758871329827  0.6664035663552614  9.0216669742972631   T   T   T
 16.4054349324627751  9.2412909137665196  9.1051047889777479   T   T   T
 14.8299628419329448  9.0996281121052860  1.1621463756336099   T   T   T
 11.7979587546514768  6.5033525481445507  0.9074400862884100   T   T   T
 19.1495788428205884  3.8489766831700143  0.9544433786832589   T   T   T
 19.3053676629803661  6.6151319113804057  8.6412234572195636   T   T   T
 11.1380784775943393  3.7135340789530420  9.4981407672674667   T   T   T
 16.8658136888977950  6.3901980817112873  6.2878555158318301   T   T   T
 16.6396305206207273  3.7023510857983863  4.0319027124804405   T   T   T
 14.5691520156282923  4.1189338097399375  6.5160137010468375   T   T   T
 14.2082833286126728  6.3937054517033163  3.9561458356990955   T   T   T
 12.5245341735707054  2.6792037932946906  2.9634587928263785   T   T   T
 12.8349042496602355  7.4340087028175592  8.1939140532072532   T   T   T
 18.0474598045669481  7.4969055662381532  2.6714900965928119   T   T   T
 17.7466584243664585  2.4606316256737499  7.7737245835534816   T   T   T
 11.2929132086053396  1.3076043177823451 16.8895246475121645   T   T   T
 11.5302951797904054  9.1270429117180409 14.4601324738427870   T   T   T
 19.5323471785114577  8.9113761409935410 16.2589322250951724   T   T   T
 19.4270266376837810  1.4577896226330631 13.8464107348674830   T   T   T
 16.6115463494162583  1.3592044289617240 11.5525222380391845   T   T   T
 14.1120588652360848  1.3907394210690460 19.5145098577069156   T   T   T
 16.8384522816291167  8.9762761304487118 19.2030991444713628   T   T   T
 14.7243516453944316  9.1234140853234358 12.0933672286213891   T   T   T
 11.8614758442530306  6.3836598310763328 11.4082360427705396   T   T   T
 19.0457260942582280  4.4238884082902841 10.8779740458081555   T   T   T
 19.5428213334707692  6.7436224457365332 19.7217979719713234   T   T   T
 11.7642810110494800  4.1253728136981449 19.1004386643320316   T   T   T
 16.5604811493307977  6.7421989070633161 16.3926940920466251   T   T   T
 16.7013177694676571  4.5513618225025025 13.7831216211757788   T   T   T
 14.0150935395248002  4.2629097768196793 16.2855603345986601   T   T   T
 13.9457011876845627  6.6266274837953283 13.9062725355507837   T   T   T
 12.7594735073825767  2.5872281635065160 12.8856086154274880   T   T   T
 12.9316356216660910  7.9735330723205768 17.9319065035867240   T   T   T
 17.8665199286606935  8.0275955980576175 12.3693776303264595   T   T   T
 17.6959278869811953  2.6809857343492420 17.4970203303523633   T   T   T
 11.4793101320508946 11.2961615837706173  6.4329610888371906   T   T   T
 11.1560963335871879 19.2708221921551015  4.1974642784190985   T   T   T
 19.2088265781120953 19.3101955381948791  6.8300413302833922   T   T   T
 19.7496971382442865 11.3991147334010900  3.7547875228711183   T   T   T
 17.1133527918288877 11.6306441499518414  1.0734223927044257   T   T   T
 13.7276837743979669 11.2458224271441907  9.3883544146124027   T   T   T
 16.9602882311533563 19.3945800137516926  9.5621481153890873   T   T   T
 14.2226449549431635 19.2628462872414801  1.0147306567841716   T   T   T
 11.7544513547797465 16.6109417904338876  1.0015574971073622   T   T   T
 19.4741107732273804 14.2612832863345567  1.0463296775624673   T   T   T
 18.8789805708573795 16.2305911084137051  9.5123117241965378   T   T   T
 11.3882642417302282 14.2482525778514368  9.2276210030015680   T   T   T
 16.4978723423986864 16.4686066574118435  6.7193836872365074   T   T   T
 16.9645697172726955 14.2715298859423161  4.3395464768472332   T   T   T
 14.3412618529619280 13.9374738471229715  6.4074919631651870   T   T   T
 14.1488497411889256 16.5383860564621052  4.3683856572664350   T   T   T
 13.1970967361933731 12.7072092357368049  2.8425146400313670   T   T   T
 12.5052114946233761 18.2538863492185257  7.9609961373570899   T   T   T
 17.9915655867320936 17.6437105477384648  3.0080145175626889   T   T   T
 18.2642048524306091 12.3746075525420132  7.6787151257087460   T   T   T
 11.6176472287499877 11.8212473291787763 16.3181253389111447   T   T   T
 11.2714085445176568 19.5201442414615620 14.4698500687807190   T   T   T
 19.4738448884735575 19.4905862533515304 16.4139522134235776   T   T   T
 19.6656878695563933 11.0079219616202018 13.5057599465225522   T   T   T
 16.3054487134514474 11.9640692649669429 11.3371313032309882   T   T   T
 14.9500607355884991 11.5924346197535257 19.1987062933222994   T   T   T
 16.1396087393784526 19.5062051050978269 18.7431082665353372   T   T   T
 14.4366651218579918 19.2104472112061089 11.7541663897185309   T   T   T
 11.0148396211776820 16.9320303132320049 11.5067982019070101   T   T   T
 19.4138830760079628 13.6937536951495424 11.6323609816186639   T   T   T
 19.3381450013501492 16.7145167299752835 19.3319869295916931   T   T   T
 11.5370892083366048 14.1419053168103570 19.3475138025980442   T   T   T
 16.5014114507877778 16.8489276494721736 16.2930004529826036   T   T   T
 16.1825643701427779 14.3530443680626334 14.0140834984251779   T   T   T
 14.5540874469288326 13.9729634047679951 16.9005217709920288   T   T   T
 13.8445657441273315 16.5210836994984298 14.5514643191053974   T   T   T
 12.7191835474885373 12.9918794062161922 12.9110308152577300   T   T   T
 12.4575667149346856 17.8525055665272738 17.8995213557968746   T   T   T
 18.1260291931654294 17.8986708512625832 12.7675383969726912   T   T   T
 18.2014652996727335 12.9502196701172583 17.9729891511141915   T   T   T
 -0.2431859742560133  0.1033669562585457 -0.5230125983290160   T   T   T
  5.4153586785500618  5.3799066153519890 -0.3404245906946669   T   T   T
  4.6383374127360755  0.1950539668543855  4.9982268918674038   T   T   T
 -0.4045973551602552  5.3878791274724174  4.8297800504437802   T   T   T
 -0.5630321776482723 -0.0689855389874489 10.4376261134696460   T   T   T
  4.7561053669418865  5.2406500627386690 10.1617974950369909   T   T   T
  4.9048547880429210  0.2517622059403063 14.7633680739665465   T   T   T
 -0.6121483400566686  5.3204160527210709 15.6561685716660417   T   T   T
  0.7178777219239300 10.7882574275301106 -0.2346380127203752   T   T   T
  4.8944816782106102 15.1904665381595176 -0.0240211733361287   T   T   T
  5.5990237398731937 10.4454570953748824  5.1247525397160887   T   T   T
  0.1311635046965320 15.2980803384845157  4.4620910872499202   T   T   T
 -0.2675826081019391 10.0384134097503175 10.1855418744230395   T   T   T
  5.2955090834367962 15.3439385287227630 10.2747868253702777   T   T   T
  5.0149172719952162 10.3809815084105548 14.5752643714550061   T   T   T
 -0.3796251012979757 15.2221399580507022 14.8415968364943129   T   T   T
 10.2984528566708438  0.2398776820459642 -0.3282214890551217   T   T   T
 15.9024474179028399  5.0860650995981596  0.4017982250161778   T   T   T
 15.5472829852377057 -0.0766713243654675  5.5279477677290272   T   T   T
 10.5166962976230796  5.0337390214772126  5.3085966461326430   T   T   T
 10.3039102593192329  0.0570753334951708 10.1651170776503488   T   T   T
 14.7562068895634138  5.3465602211209049 10.4547482611978069   T   T   T
 15.0664642500633796  0.4630033509948433 15.4924012021356106   T   T   T
 10.1868226157390964  5.5540688271185186 15.1490825216507847   T   T   T