Li P  S  Cl
 1.0000000000000000
    25.1819793006824639    0.0000000000000000    0.0000000000000015
    -0.0000000000000009   14.5388225279766061    0.0000000000000009
     0.0000000000000000    0.0000000000000000   37.2126966544236950
 Li  P   S   Cl 
 287  48 240  48
Selective dynamics
Cartesian
 -0.0744608338790824  4.4651366956234284  2.7291577824123721   T   T   T
 14.2544823011818131 10.7673996436185089  9.1782537108277040   T   T   T
 16.9308861557216019  4.9829904956682016 14.1337715613278512   T   T   T
  9.0948906386348973 18.4913004196348325  8.5545400859441152   T   T   T
 11.0812392046707853 -2.4107235943269885 -6.7781674388317015   T   T   T
 16.6618022235430772  4.7761498195562915 -0.9556594491556553   T   T   T
  4.3569981616275761 -1.1452432632744540 19.2069934996065257   T   T   T
 15.2084806590781714 13.3224839993660531  5.4742487858807172   T   T   T
 20.4266070318177775 -0.7248178666803609 19.2378868401512264   T   T   T
  1.9051077986751646 16.1651523057465667 15.5368926033637091   T   T   T
 15.2242678287396416  6.9695856300454535  7.5983113086783893   T   T   T
 31.8188090940754797 10.1935607422583878 -1.9924818161635964   T   T   T
 10.0340548484254519  9.0629840586615096  5.5764929762571454   T   T   T
 14.0122471951517014 10.3771933685755151  6.1923745915669350   T   T   T
 20.1086938528990800  3.2039287602104012 14.5618147276976906   T   T   T
 11.5081001152714446 17.0015279377122894 12.1224707732633448   T   T   T
 13.7127676389097832 15.0577355469465850 -2.9428467397809315   T   T   T
 21.4119586435556570 16.5591434400335231 -2.1285069147742055   T   T   T
  3.9731874372470721 -3.4969519831562810  9.0027274728080258   T   T   T
 20.8938688288549592 14.6225594231489993  4.9348913625202533   T   T   T
 12.6304705159419299  5.5371268525936292 13.0796280761598496   T   T   T
  6.2733405074141215 10.7110455896765817 11.7483036528364817   T   T   T
 14.5328644850116167  4.3667960916942610 -2.7598756508363156   T   T   T
 22.0267755234215592  9.0137868499314706 -2.9345690676365526   T   T   T
  7.9333433636825550  3.0538070340013923  5.6188320796778495   T   T   T
 19.6770136974782659  8.9164772591186257  8.7402373917892717   T   T   T
 20.6769535206212325  2.7262591269537366  8.8407681080343981   T   T   T
  8.8591432001740831 13.2400311895136493 14.1605415868573079   T   T   T
 14.7202821853768135  1.9038621612495072  2.6650005084789550   T   T   T
 17.4469948145734968  5.3602817585521434 -5.3090430211379607   T   T   T
  2.4979176471074300  2.6858454516981807  8.1002921071558571   T   T   T
 15.5273386312741959 13.6960344044733358  8.8785536783260692   T   T   T
 15.9056028147395381  7.1544618542876695 17.3748771409832692   T   T   T
  6.1295720785646548 17.3561864553860161 14.5526809925195497   T   T   T
 18.6520263786741261 -4.1433845529433739 -2.5286670806433604   T   T   T
 28.3777634981980960 23.4277738056100091 -2.1883240654581160   T   T   T
 27.6883005897580823 15.0153928564570016 12.7719659387077886   T   T   T
 21.4937680494900576 11.8774700876356682 12.8224231051439013   T   T   T
 17.8610012370453042 13.1632546587225256  3.4812061817879845   T   T   T
  1.6984500296992471  2.9784342108786785 -6.5844062405792512   T   T   T
 10.2054054127872220 17.8641304817433593  2.7648985259097376   T   T   T
 24.2110461658942171  8.3785921930071812  2.4795232817268591   T   T   T
 16.7151285382643024  3.2505668069064102 16.7218877224535447   T   T   T
  6.0039946072026993 13.6988163738342283 11.8991526168681698   T   T   T
  9.8894681697092501  0.7644809401208560  5.3689155031837892   T   T   T
  1.3339770175584211 10.9937575111722587  1.0830840928490018   T   T   T
  7.1041040268689031  9.5299444562295665  8.9175706298006929   T   T   T
 17.2030976861459379 11.6948179809169694 14.7934670507751598   T   T   T
 -2.3939657986326517  1.6462545621794353 23.7666569736399858   T   T   T
 14.5589806863421902  7.7506337345972538 15.0089323558392156   T   T   T
 14.1045592357145022  3.4002421349010197 -0.5340064542650229   T   T   T
 11.3506512581443211  4.7907131457770129  0.0679126281470401   T   T   T
 10.1182221661061771  0.5359425337517530  8.6312011250283085   T   T   T
 17.8772943890848275 14.5186210361214822 17.2054877321858832   T   T   T
 -6.9213373310748381 -4.8863453843217357 12.9689386895656540   T   T   T
 21.3617264357688939  4.6465223947312646 11.3042129540559291   T   T   T
 14.2726093428949792 -8.5424017204322880  1.7031716518188569   T   T   T
 16.3219899151357488  6.8414060770404257  3.8969484322594363   T   T   T
  4.6828091003288126 -2.8575991025346577 14.3291128533317238   T   T   T
 20.8589620557822180  7.1099449968809800  5.0804231521149408   T   T   T
 -1.8227322575878868 13.2261214597941006 15.8852817857836861   T   T   T
  6.1376811837227603 14.6337179271606281 15.4259447684912345   T   T   T
 13.2489589686533051 13.2152477250960718 -1.1378868496966354   T   T   T
  0.5765186777340300 11.8553463061017474  8.2548752371756997   T   T   T
  9.4196142731314954  7.1133223295087076 -0.0061775354076187   T   T   T
 23.4288139066704666  9.7040448132369530  6.9831773683137861   T   T   T
 23.3151684012300286  1.4403804745954945 13.1258286168527309   T   T   T
 11.5941107519722237 10.1766873614789173 12.0877796271682829   T   T   T
 17.1028949300515869  3.4588684466665325  2.8113246909710461   T   T   T
  4.0708107601705947 17.8793929941067944  1.3793300830947934   T   T   T
 13.1489700822244160 -0.1794554175591215  7.0052194031793551   T   T   T
 22.8385629130466015  8.4054353067841969  9.1091954707338036   T   T   T
 -1.0515416824842856  9.4650634448218067 14.9297081415426671   T   T   T
 12.9319424120170066  3.9965841552853472  8.5414023307540337   T   T   T
 22.7424916967638708  8.9438876743612212 23.5800792715816101   T   T   T
  7.3000852750954568 13.7328231889713201 20.1014762063122134   T   T   T
 16.7585351943543763 -0.1409731923735906 -2.8340283564288309   T   T   T
 14.2405717225404089 10.1409333950957770 -1.0218183738070536   T   T   T
  1.9486806515602910  8.9840223563469070 15.2569922274459557   T   T   T
 15.6638179451949409  3.7480666350996055  5.7201450485600187   T   T   T
 13.6361616479010337  9.1257021426425649 18.3960324350786060   T   T   T
  9.6305565264558712  6.1699854038887656 13.9531838784741655   T   T   T
  2.5015654802523968 21.8089840575437606  7.6943536050143697   T   T   T
 31.5392101877125199  1.5431850672778495  2.9758646851573585   T   T   T
  3.0667001230970610 13.9981561335070932  8.4773148710220436   T   T   T
  6.7541348556760950  2.3371274175898300  8.2365999498160942   T   T   T
 12.8095675167331837 13.6667499292083381 14.2936404508332888   T   T   T
 12.2079507709432438  7.8587499299547030 15.2149976887550249   T   T   T
 16.8341603049043051 11.8883505918758807 -0.8010218105256328   T   T   T
 21.1823236287220986  6.1583539527357196  7.8106245900315834   T   T   T
  0.9278795225445009  6.0548769486038267  9.1500885564598669   T   T   T
 18.3202525733044688  2.4989378646955926 12.1056075761409314   T   T   T
 18.3714469203310031 12.3015482039502206 11.4409408314334495   T   T   T
  5.8786855319062399  3.9273655032144044 19.1118024879716444   T   T   T
  7.4824268626864630  6.6198114028583239  7.2592237500067203   T   T   T
 24.8456899718000450 10.6486316237192771 12.8343590349325876   T   T   T
  3.1837843598002600 11.2220061167403848  4.7491511797976713   T   T   T
 18.6940122399045308  5.9682223989240768 11.1302454679920650   T   T   T
 15.3271804584728173  8.4283714628326969 12.0252360738101398   T   T   T
  5.0094982981839289  4.1996242115845153 12.7653693349531121   T   T   T
  7.7750249479624847 10.8962432909098883  6.3668746118492860   T   T   T
 28.7732036592892193 -0.4196650518600588  3.1320533156186086   T   T   T
 -2.5172790872282613 14.8839858418572355  8.6126627966025566   T   T   T
 12.1564588737284431  7.1453609440358203 10.3858514825344521   T   T   T
 19.4782691304866447 13.6146350028368985 14.5599923545671412   T   T   T
  9.7009055619156026  7.9413774132756449  8.8896815164369478   T   T   T
 11.2540468749129481 18.3016355283991672 -9.1964565435303314   T   T   T
 19.2452691796990685 15.6140443635628774  1.4166885462414818   T   T   T
 26.6673330754489726 18.1410021070730068  4.8008629329658961   T   T   T
  7.3681747389393379 13.6507540154195670  7.2577219004129807   T   T   T
 13.2031562676572207 10.6050170621849720 14.5733859052389860   T   T   T
 24.0924374491201831  6.8675177211813825 12.6279253426089610   T   T   T
  7.0475513399838778 16.0982701242811146 -2.5192734146700304   T   T   T
 20.7383996483040889  2.9682647910034268  5.3878575287516455   T   T   T
 19.7357718113985072 -0.2036624009655312  8.5134155338743298   T   T   T
 15.0118011169040351  1.3384955508956633 13.8563612833034746   T   T   T
 27.4150603345052595  8.7281198912091877 12.2345326512060666   T   T   T
  1.3555125534156709 -0.6834004451268708  5.8106851815118272   T   T   T
 13.8313184979992236  5.5969612406148563  5.8103022483914959   T   T   T
 24.6951428343143107  2.3908324297166139 10.1301158168550476   T   T   T
 11.2547511520852304 10.6096511983110382  7.7918645463139180   T   T   T
 11.4046393464792608 -0.6411921491442354 11.9915131264243122   T   T   T
  6.5513686814461041  7.1144818155287917 13.5054459604869752   T   T   T
  8.9279416086549546 -1.7552356588842457 -2.5864223810065030   T   T   T
 20.9145665858865435 10.6228508322711459  6.6643569669567801   T   T   T
 26.5810203151647713  9.8748190088584220  6.6766794840976011   T   T   T
 13.9896522687868465 15.5176034837567034 11.0783091407305747   T   T   T
  9.3699954024378567  3.3879747134936373 13.5090073775559301   T   T   T
 -1.3732762606379756  9.2784152189963720 18.4264418989861767   T   T   T
 -0.4864324632451176  0.1021481454356756 -2.7928036113471584   T   T   T
 15.2957943240034755  2.6453057049504269  8.9315677866208780   T   T   T
 23.3252417400746204 17.4700458484923971  6.6505261200388901   T   T   T
 12.5557881623537426  1.9855293812511001 15.3475517044804928   T   T   T
  8.6908637457604563 16.7547373332849432 19.3202046038200166   T   T   T
  0.9331751794920798 11.1912788641867937 18.9784348911457315   T   T   T
  7.5892003518641049 18.4795581351603886 11.2973729625984216   T   T   T
 25.2159026973719023  6.3078151922000565  6.2785949667223964   T   T   T
 17.1105029638368045 11.3491009206001703  7.7327123858549207   T   T   T
 10.6350586429670972  6.7702616814662919  3.5602286806696988   T   T   T
 14.2774383606861743 -1.4020024094224475 18.3628469686876628   T   T   T
 26.7725731337034176  6.2552477713190751 18.6866331491248232   T   T   T
  4.4439973436283351  5.3641953807131042  8.2863621466273862   T   T   T
 15.9381047816018029  9.8179864115313258  3.7615390996479316   T   T   T
  5.0108182838797095  4.1332654352915243 23.0658165641220485   T   T   T
 20.5972238625616164  5.5873129786279323 30.0624448685137864   T   T   T
 19.5019411602078208 -7.8100435994594566 13.5223187632652220   T   T   T
  9.4986900408314341  8.7213460597113581 23.8996693776500351   T   T   T
  6.8811336611028695  0.4621066820721443 29.2641129215332541   T   T   T
 -4.1638699626145916  6.3726198411964683 34.1866668457891336   T   T   T
  2.6278907089128785 10.4428255405554467 22.9439425002912500   T   T   T
 17.4259741086713831  7.7931287368046034 30.6082704138628898   T   T   T
 26.3547149478483860 21.1143914595933282 14.8653827611527731   T   T   T
 12.1805919151303836  6.5364458569363437 24.3343751180050134   T   T   T
 12.0865148745030400 12.1304932807037584 33.5816535656344399   T   T   T
 10.4490668588166837 -3.5367489770338847 36.3312663808125933   T   T   T
  3.7827405636079550 14.9785249135590171 29.9134972156531056   T   T   T
 16.1672843641529411  0.0140538266669476 23.5128449472115726   T   T   T
 24.8374788802482840 12.1707428756081857 22.9436657670789366   T   T   T
 11.4515883510922940  5.4325078144919310 21.9389682426971042   T   T   T
 21.5641803928887335  9.0826712165357453 37.4313803986743352   T   T   T
 10.0825357191954890  1.1900711890383924 34.8601664051779068   T   T   T
  8.0292605982996594 -1.8890544935178410 29.8162793316641199   T   T   T
 18.7292939700153092  3.6694977307775711 30.1521197756207151   T   T   T
 23.1188216952695420 14.0310067857859639 21.2728308084716389   T   T   T
  4.1854731508120908  8.5078305809960533 17.7971949000788427   T   T   T
 19.1867535463166874  7.6189958924789218 36.1978934488221284   T   T   T
 -3.1432658275052301  6.4669921119866123 38.0571886706318026   T   T   T
 12.4204924204161831 -1.3925299268844284 24.5651127586806624   T   T   T
 25.2462275283741349  7.3931638449997426 24.2415702655456897   T   T   T
 23.8949243941950833  2.9788854652438683 19.8450206246581899   T   T   T
  6.7891667637057393  8.4054260668854095 24.2667316353689024   T   T   T
 10.2195265213324049  1.7180226103726683 30.0042385528333497   T   T   T
  5.0441956799140550 11.7489942926450510 31.6447949249560310   T   T   T
  6.9105003897100135 14.4937826424048239 32.6532536744458071   T   T   T
 16.6386265503495352  5.3382073521485012 28.4787176056985381   T   T   T
 20.6288167211441795 10.3073152165101760 19.6191262431729214   T   T   T
  8.9059953161162912  4.3258223130330826 24.6664005316738297   T   T   T
 15.7637606713080238 15.2481714920766009 36.8407551468237386   T   T   T
  3.8136456369801728  5.5629186042192034 29.2426785654032351   T   T   T
  2.0553483850429930  1.4990889915098806 22.8786800803725541   T   T   T
 15.9538203930131726  6.3767634381871563 22.8161608803103810   T   T   T
 16.4514048518942531  7.2808826666046942 34.3011118294135002   T   T   T
 14.9710267005530380  9.7697782525981207 30.4450033876033110   T   T   T
 10.7529340358618111  6.5109386369539202 26.3767053729798207   T   T   T
 25.1925929357492784 11.8095750279575142 28.6856920877962907   T   T   T
  6.0752627369259073  2.3260452334602517 24.5420987551975287   T   T   T
  7.2763068167329354 10.0376413280572638 15.0755838135953582   T   T   T
 20.2332928195848147 -0.7470257488837185 34.5802132227095314   T   T   T
  0.0481099624548508 13.6911501720637325 40.0319526613001955   T   T   T
 12.4106209955178741  0.4953279934646869 29.0360215888894935   T   T   T
 12.6387987971639468 15.3697629414230281 19.9574844054509200   T   T   T
  8.4047715579475319  3.8671266543134721 16.2583765699731124   T   T   T
 14.3160654933380158  9.0879434085005535 22.5109084863342055   T   T   T
 25.9672860666831227  2.8191797982021831 28.0538142799202141   T   T   T
  9.5918925560112669  4.2822254018883958 34.7513744322601497   T   T   T
  1.3003433974368634  9.2943596077230168 29.9420943988496937   T   T   T
  0.3258007944443956 18.3469238494667835 13.0425005901570596   T   T   T
  1.5310732384258643  4.5977128722747738 23.9704776376881661   T   T   T
 18.6422207128591921 14.4958154122208942 31.6543790134580085   T   T   T
 24.6692643877653524  8.3334228683404916 36.3816118348611752   T   T   T
  6.9686274462729418  9.1677070943446228 40.6344317904224681   T   T   T
  4.7273119763422811 -2.3703781024023742 28.4080157986995090   T   T   T
 -1.3645036247459161 10.9239811785242029 31.7354706940186375   T   T   T
 -0.0793903431944968 -0.2012938644636198 18.4056434446186437   T   T   T
 10.5407508026463237 12.0659910778347630 18.2028913406304227   T   T   T
 26.1588988835456213 11.4872747380122675 34.1722217110638837   T   T   T
  6.4190010370789850  0.2573052940272886 37.0505186256691559   T   T   T
 10.8109346956309746  0.6871731266591367 22.9447103000092945   T   T   T
 -0.9670493502542150  7.5320641397319825 28.0987873361032037   T   T   T
 10.6609028710398874 -2.7371252185442509 25.6576143594755095   T   T   T
 16.3088625669795384  8.6250818921892396 25.0363880718260319   T   T   T
 22.1137551299446606  1.4544453174292837 38.7484782506114129   T   T   T
  6.5884605391379809  6.2878087265909244 39.2550087916415862   T   T   T
 11.4124696445738962  3.9554057970358594 32.0062963490972407   T   T   T
 18.9900712160378049  8.4626226365175210 23.2183738553786938   T   T   T
  7.8434816637620708  6.3390842724722036 28.7291529316761860   T   T   T
 15.9059710391035338  0.7226087529325415 28.0322225547988246   T   T   T
 18.7019472051920772 17.7421942614769605 22.8698528811513846   T   T   T
  9.8577556406064044 -3.3137491043694602 22.4187540603131588   T   T   T
 16.3104554363147187 11.8621734728226436 33.9231603095350778   T   T   T
  9.6033071460957853  0.0140801180968233 38.2951387646414645   T   T   T
  3.1342565640021052  1.0084308551929499 25.7586784613421997   T   T   T
 24.1236925560344702  8.2563077399659921 32.1405296377335787   T   T   T
 18.2036916243502027  7.7663625299930183 16.0674641818690844   T   T   T
  8.0740445964670968 14.3681732806616225 23.9560223416177358   T   T   T
 13.8469495449298137  8.9583550762740050 28.2866568612562084   T   T   T
 12.9491056246269025 21.6252264644412335 35.5092840907145870   T   T   T
  3.4955796959947607  9.1641260702742429 26.8976792529042079   T   T   T
 14.0111890039611122  2.5065831513340822 31.0921825971259373   T   T   T
 25.5471517093439147 -1.2693240655309446 12.5725089410988691   T   T   T
  8.5206781753564087  8.4034644734370083 18.3242969351211435   T   T   T
 14.9336581044260139 11.4209411425030254 24.7218221703356065   T   T   T
  4.5898563238774832  6.0491171013943630 36.6494210850986519   T   T   T
  6.3648026857672910  4.0210000158217856 29.2434193133197624   T   T   T
 20.8072260135058720 12.9721209329389886 31.5313591519076653   T   T   T
 24.1546069182874135 13.7380916403025779 25.7063717299034025   T   T   T
  7.7409399886213635 11.5446061056396072 18.1392134137628496   T   T   T
 19.1545586438518640  7.5234511015785523 27.8296874857705028   T   T   T
 -8.5563499261369564 22.1089128057767326 37.0989214835566230   T   T   T
  5.7390218046237154  8.2316417769889210 29.3598655260742305   T   T   T
 17.7836204504062394 -2.9583300348997001 31.0997650867903559   T   T   T
 23.0020978581730731  3.4613304035750780 28.3758487333291924   T   T   T
  9.3114111515479614  6.1156717952859845 21.9801671873538673   T   T   T
 23.4235285388556989 11.1123949524019086 40.2959070814720093   T   T   T
  3.6997150656275024 -8.1943430613650428 41.6238816241135083   T   T   T
  6.9064210851442889  5.2561674051024880 32.1755958046348951   T   T   T
 17.4305317584560626 12.1339791898811669 28.2571877953268782   T   T   T
 28.3816307988726670  3.8065927754285172 26.3627010401373667   T   T   T
 12.5116704352114247  5.3888626380343458 17.8833770268146175   T   T   T
  9.6659932457248257  7.5906512984769128 34.5382778209418007   T   T   T
 -4.1893230635120808 27.6342507190210114 37.8845485413978906   T   T   T
 23.8884327366539644  3.7451012658764493 32.4255034721639248   T   T   T
 12.3588675411023576  8.9287205119681978 32.3238609151696892   T   T   T
 16.4482078233183948  2.9768602894667300 21.0290237318137443   T   T   T
 -1.7880940216326173 18.2438052525987047 16.6837332531082438   T   T   T
  3.2896291855205275  2.6595813573902229 34.4541446160258857   T   T   T
 27.9267769558061794 15.8530539712768732 37.4367342277402315   T   T   T
 18.3631650089489540 -3.5074226991215909 23.8619638271832670   T   T   T
 11.6714193005902018  7.0206979774805802 30.4315105280168403   T   T   T
 10.8287547542335130  0.4430511985069070 26.1791457948579911   T   T   T
  4.0134371637000736  7.2529229180656909 24.3367738100859832   T   T   T
 -2.4207689041921756 -4.2527463105372894 28.5288678766958128   T   T   T
 19.5888620110908036  9.4698561295348558 40.4523307293815293   T   T   T
 -0.2503157365017615  0.2350266090786088 30.3606362995127803   T   T   T
 16.5169781900476949 11.2867733749726291 21.3476042323335449   T   T   T
 17.8050637718119020  2.4918544796628810 25.6123464161840779   T   T   T
  2.5336228199173965 12.2446472650969653 25.5256462596444607   T   T   T
 -0.5877694696011194  5.0560090056597753 29.4773897366420634   T   T   T
 17.4514613873542928  5.0174924625038893 44.5921567765757914   T   T   T
  3.0789563947470779 -1.6332515717817113 36.8775354043572747   T   T   T
 14.2818972346956770 18.2266638265671546 28.7673393428224635   T   T   T
 20.2623058627278034  6.0299503423028344 17.8967842201196383   T   T   T
  6.0787288905558992 10.8248605646267499 25.1247253867793852   T   T   T
 -7.2270949925798735  1.8425090856019306 36.6035158997185732   T   T   T
 13.7630044677528254 12.2408686038534764 39.0288989258463914   T   T   T
 -4.6481126294885531 -2.6768544249522654 28.4620684015331165   T   T   T
 10.0974922217148873  8.8546804614807950 28.6447889461518272   T   T   T
 20.4054765506312812  0.2438806461932931 23.9340767488137232   T   T   T
  4.0469355822508808 13.8784677942888095 22.1679074811998831   T   T   T
  4.7411916121942799  7.0711921307224994 32.3836904303229574   T   T   T
 21.7098317878553999  4.7846988108264066 24.9855912962080495   T   T   T
 21.8252822317981519 -2.4859183945792709 24.6988102614130192   T   T   T
 20.1936541004696863 15.5229800753739706 28.4532062213534154   T   T   T
 15.3315279669038809  3.6706996906408511 24.7991585087016766   T   T   T
  5.5155781589113273  9.7867319805504511 22.1261093500139729   T   T   T
 10.4689305919196105 11.0256313213680546 40.2948220160940025   T   T   T
 23.4390172497639924 11.5971552085040290 36.7991691927705631   T   T   T
 -0.1108997682260175  0.6070705525940449  0.5150764194367873   T   T   T
 13.0864214356390622  8.9735390011884917  2.5300603227548675   T   T   T
 17.5449280977098923  1.2496334666884972  6.2360423383898613   T   T   T
  4.8087126821875366  8.7549446447995667  5.8778540553299798   T   T   T
  8.3241671518664795  1.1506695171503181 11.6425882960121587   T   T   T
 21.5756394107937659  8.3071953314145084 11.7763672842791678   T   T   T
 23.5586008113575076 11.9557422606812498  5.4404408970541667   T   T   T
 10.7812850583961577  5.3032632412837470  6.2012154472412337   T   T   T
 14.7300897704490996 12.1559962884978709 11.9164368974549202   T   T   T
  2.4290349324014517  5.1034973412614404 11.5161216746117265   T   T   T
  7.7142007753028023 11.0007822217081479  0.5773086981385706   T   T   T
 19.5719813752408811  4.0253656253805943  0.9596732622942515   T   T   T
  4.7687778652302857  1.3248345046497580  5.5237660060142293   T   T   T
 17.2891108848519970  8.5246798837678170  6.0078707352040013   T   T   T
 21.2548059825412956  0.9117202371223641 11.5797572532280242   T   T   T
  8.8245401670066066  8.4723230255861512 12.0478579223355844   T   T   T
 11.7891971106563709  1.2063523307213675  1.3825289910198164   T   T   T
  2.9752717672590276  8.8639433451788303  0.6660778571670773   T   T   T
 23.0635830992714155  5.1615451275165256  4.2960519915181354   T   T   T
 11.0546990959497382 12.8923211270354479  5.8552495682257311   T   T   T
 15.0621078777124211  4.7600188609789758 11.8039623969035450   T   T   T
  2.6093851642392409 11.9715543689012165 11.7270753149848534   T   T   T
  8.0157081780916819  3.9938720466349360 -0.3921617414022897   T   T   T
 18.9891356263256128 11.1812522971957566  0.7880642417042057   T   T   T
  2.4882997575326189  1.4913902554919425 19.4053789829491983   T   T   T
 17.9022964509399962 11.4108069110087431 18.1940112713817292   T   T   T
 20.6122008282310674  2.5674724828181130 31.8796562252168592   T   T   T
  8.6756477044789406 10.1774328634326228 31.9770448857017442   T   T   T
 12.0136890537510013  3.0103188140162462 25.2675220923929231   T   T   T
 24.9737528959907031  9.9455982718575058 25.4541564878579791   T   T   T
  1.5438790217293943  6.1802961160099077 31.3711601242358284   T   T   T
 14.5615640033440474 13.4444072030801411 31.1328701937010166   T   T   T
 18.0936869718875357  6.1122548296968020 24.9131758852492524   T   T   T
  5.8730915534388028 13.5671284408301975 26.2716752373498110   T   T   T
  9.3043403068478128  5.4766108498175843 18.9469663373523964   T   T   T
 21.8259977732870638 15.6451487644517684 17.5171373760704121   T   T   T
  8.2873979457615636  2.8601164238676264 31.8172588766469140   T   T   T
 20.4897093779811819  9.0578766716373469 31.6138529905055101   T   T   T
 24.8733589360737959  2.7275188275424509 25.6240814191930362   T   T   T
 11.9395768455382605  9.5664207922985423 25.5336505800656930   T   T   T
 14.8584723511736581  2.3121655968392738 18.4180324189915154   T   T   T
  4.3781455816868045 10.6452113164958391 19.5414638356400019   T   T   T
  1.6092287001736298 -1.3627264560764396 31.6606367934006521   T   T   T
 14.4356471852108115  6.2212384344801732 31.1860589604477383   T   T   T
 18.2090915580792299 13.5254761390549234 25.6161974039184344   T   T   T
  6.1738099288694483  6.1589356204600207 26.2920698807360687   T   T   T
 10.3805119955711405 13.8242844830396709 20.3790669833707483   T   T   T
 23.4165763141536836  6.4531075530579169 19.4771580538268125   T   T   T
  4.6885058826154662  1.2297438844387090  7.6507954295153411   T   T   T
 17.0940054417330600  8.7169357324177081  7.9919513089241043   T   T   T
 20.9769444784084875  1.2639209932732587 13.5667171502121420   T   T   T
  8.7580830247566954  8.3435343653038441 14.2176433224132737   T   T   T
 13.3726670865887822  0.1455096566298854  0.8081368446714285   T   T   T
  4.9115265880680647  7.7186697062706759  0.9044393715049813   T   T   T
 22.2635659759127513  2.5607532810509652 10.7824289093077645   T   T   T
  9.5215380119947497 10.1022166553490074 11.3993184270377856   T   T   T
 11.1016549933069033 -4.8840012299904059 16.2456072970853640   T   T   T
  0.5196644717620358  9.4655442222934134 17.2987834938209524   T   T   T
  5.6214290139844838  2.9994965954979427  4.6555274585644097   T   T   T
 18.1141011490339849  9.9693391939308516  5.2052033536595692   T   T   T
 22.4105739430004363  6.6260110071702902 10.6396931437480937   T   T   T
  8.8520458385525540 13.7803569036079505 10.9809696863992787   T   T   T
 13.7101060692506316  7.4064799176909837 17.0623979790474465   T   T   T
 -2.2229318099246163 11.8472921605128185 18.6546912113644119   T   T   T
  5.9135464230198407  7.2546774084505516  5.0423961743994878   T   T   T
 18.3985541560345816 14.0747559112762612  5.7154306981172969   T   T   T
  6.3085603836985307  1.6079121435746164 11.1940720693668396   T   T   T
 19.4123379451786491  8.4553353489687400 11.4121348832232705   T   T   T
 21.2068778374759574  2.9174460012740164 17.0992253401114418   T   T   T
  8.0422894747567160  4.4978790022062691 20.3684114421309346   T   T   T
 15.4941224503213704  1.3872883618531642  5.7107206396888817   T   T   T
  2.8344969740990846  8.5092622387355838  5.1963646735253679   T   T   T
  1.9076617632865214  4.8663783669227572  7.3318416698456303   T   T   T
 15.0056013804458317 12.3329596888717514  7.3597406684716518   T   T   T
 19.4569052442750632  4.4584615390927675 12.8622200881832196   T   T   T
  6.7367242669379026 12.3243974876271380 13.8506133990858196   T   T   T
 12.5018130454369665  3.2544835804011778  1.5654006195314034   T   T   T
 24.2466681758577245  9.9947637866161347  0.9169124343103364   T   T   T
 24.7807930542431478  6.6207189558142625  4.1137293437938425   T   T   T
 11.4236406968025221 12.9150650318150433  7.9097750159344091   T   T   T
 14.5802655812863939  4.7082750063963896 13.8768626495419518   T   T   T
  2.3505295494823244 12.7381561580997129 13.5788728393244860   T   T   T
  9.0524983527030987  4.7936610296920827  1.3647145171313493   T   T   T
 19.5341944315190474 12.0217832778206475  2.7079186369840951   T   T   T
  3.5715264576200441 13.6452381793248740 10.7560645828881825   T   T   T
 16.4352469530542358  6.2926948950770925 11.6126558772051887   T   T   T
 14.9263031189585380 11.1070909233207544 19.7867449296356952   T   T   T
  3.6861493884573693  4.9313975404639452 19.5578871477457703   T   T   T
 11.8705989460566794 14.5473153396231769  4.8834213807715470   T   T   T
 27.1702194441242142  7.4186480506062313 -0.4284827027967038   T   T   T
  3.8924030806855208  3.8961219442951522 10.6534531751097230   T   T   T
 15.8430251110907570 10.6205490597896937 11.1948194746493090   T   T   T
 17.7690198297221080  6.0535906304319882 17.9371286760730371   T   T   T
  6.9959880259863096 13.6386631392722144 17.7238346428988791   T   T   T
 11.8885970482233283  3.6449681381361270  5.9512440592941953   T   T   T
 24.8039986927955312 10.4040903348832181  4.8028076414642511   T   T   T
  0.4691776496667088  4.6544319780309289 10.9408989439745010   T   T   T
 12.9964287786514543 11.9824827857248835 10.9682690412527197   T   T   T
 13.6620851858535364  0.7052299251752716 17.9279771837511817   T   T   T
  6.0325299975123494  9.8654934252752664 18.4927673907901031   T   T   T
  8.9707811837429361  5.1150204386188305  5.3605755379010960   T   T   T
 21.8176401210751152 11.7022349706231523  4.5441385767444418   T   T   T
  0.6042027637740297  1.1486939973482422 13.6444113749899039   T   T   T
 13.0208807730008722  8.4545970636967258 13.0675184892189638   T   T   T
 16.8661191190594977  1.4783619884942218  1.5088810672361697   T   T   T
  6.1398720774140791  4.5001671588885168  0.0682957388294890   T   T   T
  8.7802773397981770  1.5576856013576452  7.1718468638492006   T   T   T
 21.3488008926638280  8.6529476103416876  7.3595722671750208   T   T   T
 23.4163514689066403 -0.5145662305508670  1.4292186922409809   T   T   T
 15.3447110878036277  8.4150959663926006  2.0665388965256501   T   T   T
 17.4872911561114428  1.5717253001413147  8.1973044482067330   T   T   T
  4.6769817393287472  8.2093753129708649  7.7930019906303336   T   T   T
  8.5451078838139214  1.4353094005172593 13.6780237111268761   T   T   T
 21.5014597635526492  8.3328843434261337 13.8498816312692767   T   T   T
 22.5304823865872592  9.9819428727114357 10.9849986100191526   T   T   T
  9.5960000875284681  2.7354600005172518 10.8850339795990152   T   T   T
 12.5290582664528767 10.8623414264927458 17.2301506493655978   T   T   T
 -0.5674410283759954 -2.1093715652383893 19.9102699167217310   T   T   T
  5.4733834441860383 10.6936666678971690  5.6111561783204396   T   T   T