Li P  S  Cl
 1.0000000000000000
    25.1819793006824639    0.0000000000000000    0.0000000000000015
    -0.0000000000000009   14.5388225279766061    0.0000000000000009
     0.0000000000000000    0.0000000000000000   37.2126966544236950
 Li  P   S   Cl 
 286  48 240  48
Selective dynamics
Cartesian
 -6.2702700393654824  2.5549423920786629  5.4344279425013324   T   T   T
 13.8511864309884487 10.5569614584687592  4.9637039401939962   T   T   T
 18.2576733953311319  6.5124003709577920 14.5489929873636132   T   T   T
 10.2812863647113293 13.4333457450404978 12.7125503842420216   T   T   T
  8.5192845359977607 -1.4251990263925913  3.2879451474440549   T   T   T
 17.9449207879388553  8.0064372775562305  8.1131792178416013   T   T   T
  0.4009939771533971  3.1159293466440712  5.9169574886774257   T   T   T
 10.6220551929624190  6.1472548577285222 12.2735813554631932   T   T   T
 18.6289469417726821  5.8870205471811889 19.1795633716226952   T   T   T
 -2.3132600337031088 13.1707625702417754 12.4076769413509052   T   T   T
  8.7653470793446644  2.1296209845707215  3.5846926269230708   T   T   T
 13.9100942588162582  7.5130909980827925  1.7372621822203278   T   T   T
  3.2673161864427303  4.1818529253049919  6.8907555679339714   T   T   T
 15.8085677940574918 12.4842009022606675  7.0408479973102631   T   T   T
 15.9871775732330565  5.9265328784237896 12.5637628446919134   T   T   T
  4.6826795965590708 10.7080566688974823 11.4475228202573369   T   T   T
 12.6717191567197212  4.3977383968720760  0.5806451310213288   T   T   T
 21.7857420029384556 15.7449779042276461  5.6373848283737447   T   T   T
  0.8950915556574622  5.8364388273153063  5.5534078577138208   T   T   T
 13.6674304602825742 13.8669136440544545  8.6659655381786003   T   T   T
 21.6469813124584292  4.9185441015249536 17.6355115429876754   T   T   T
  6.5219629206716059 13.4174018110587756  9.3568485964639549   T   T   T
  7.7307213914091015  6.2527310225078132  3.9103861191030420   T   T   T
 18.1200081710559857 10.2915733169633743  0.7948983209616910   T   T   T
  2.9435389009403883  3.8644305195004818  9.2596322167387335   T   T   T
 14.4477431081061543  9.7868709803512761  8.3989736469693934   T   T   T
 17.5925340349921910  3.0032716098945027 14.8525575424352887   T   T   T
  6.8280634341712485 13.0437775882705207 14.9732399362260793   T   T   T
 12.7493105005253984  3.1818385097051114  4.7216899436102224   T   T   T
 30.8521827566137929 16.5540329424757431  2.1216199081233089   T   T   T
  6.1079810550452391  4.7715162084544369 -3.0929009215707146   T   T   T
 12.9522840937218557 13.6081683488118426  5.6276071521669788   T   T   T
 18.7644211891028263  5.3165163471394967 10.9749399817121009   T   T   T
  4.0725976886870603 13.7934460229327325 13.0660763360662973   T   T   T
 12.7257450596218398  3.7773307154153462 -2.6808696898363067   T   T   T
 27.9889590526240397 15.6002314086573826 -0.8529239083046554   T   T   T
 23.2372785460195175 17.3607116859619914 13.4565438713707941   T   T   T
 13.7634664814727987  6.7715691692439908 14.3900156486389772   T   T   T
 17.8883412533269706 15.7523921997669927 -8.4354169308370430   T   T   T
  0.5162095939061379  2.4711798411302879  8.9144736231951480   T   T   T
  5.8764475830120126 13.4505102124543487  6.5353938012237549   T   T   T
 18.6816411895793806 10.2791296035366102  5.8305941551611831   T   T   T
 22.7787826769173591  0.9829116221599051 11.1305046996128816   T   T   T
  7.3604284038055514  8.4162817433009032 24.1010099581871771   T   T   T
 15.6157243357298494  3.6692092315003735  2.9812298715723280   T   T   T
  9.5399772883267602  6.6541576947460248  7.1537629622130261   T   T   T
  2.3567312375308545  4.5770475360519205 16.0432982400053596   T   T   T
 18.8833588195677606  6.9208427589520660  5.2495852767702331   T   T   T
  0.6089006514249433  0.7133075632643050 11.2911008301447264   T   T   T
 14.1679761814653506  8.6739813212467443 25.3893628337517256   T   T   T
 20.4754548150130873  9.4522347602137806  8.5566626874774645   T   T   T
  3.5979411386197446 10.5538644616847783  2.7162831259864442   T   T   T
  9.0735409812795425  2.1396811558256910 14.2630574819131635   T   T   T
 32.7071701656968656  4.5598372201778030 12.9298160030273124   T   T   T
 -2.3792797335708467  5.7240008695161073 12.4453960198989559   T   T   T
 10.6745374414546514 10.2000283215211240 12.5077605457441638   T   T   T
 20.3470468477233979 -1.6949138024442523  2.8358655553217376   T   T   T
  8.4913395311829785  6.8405915712834018 -0.5638959454777952   T   T   T
  6.5130134598870022  1.6574305897956212  5.6614150905005687   T   T   T
 21.5547398446141045  6.6726426219580199  8.1647675355682754   T   T   T
  5.7651497093375248  9.8497479348797903 14.3244228042139063   T   T   T
  9.1681280269549674  8.9070795796445577 17.6286240390797886   T   T   T
 16.1066327004442158 11.8850577650463531  2.1342476058050961   T   T   T
 12.0095579356591760  8.2880507203110394 -3.3163163294609581   T   T   T
  9.3432656382844037 14.2134023373348501  7.3372959109182156   T   T   T
 16.9456296392096846  3.1038051617230318 11.5042561110694130   T   T   T
 26.2849437297386928  0.0901750756732821 13.7628901492004339   T   T   T
 -0.7671302807134135 12.5191169096076980  8.8392151373510739   T   T   T
 12.1522277712209128  0.9200430299216670  0.4553683327106088   T   T   T
 -1.2696521047959697  4.9106460350380257  8.6631836735223082   T   T   T
  8.8141062563813879  1.1982969769853014  9.1958002168557815   T   T   T
 22.1288522110184687  8.2475936228628886  5.5980926945503509   T   T   T
  2.9723194334242797  9.2279048585874381 -3.7188408158320305   T   T   T
 11.3290351170609842  3.1893984675255274  8.0409997527118495   T   T   T
 17.0318041335958199 13.6175055268351528 12.7783793503867624   T   T   T
  4.7664551519441902  2.3101406252515879 13.2601879848509174   T   T   T
  7.1447543821458499  7.1238776282880227  9.7101528865294213   T   T   T
 21.9874990149183418  1.0767426948221082 -6.2558584253773279   T   T   T
  2.4951347089076283 13.1609605527900140  9.2652309680487654   T   T   T
  5.4848084336864247  4.8905288927091943 17.4669574284068183   T   T   T
 15.8056408876314478 11.5663218588135681 14.4317531362390046   T   T   T
 12.8133606817448218  9.3444948055551826 15.0048740105043432   T   T   T
  7.1483057326689110 14.7540793390229847  0.0452249957823420   T   T   T
 23.3919260552663033  9.8692153230897404  1.8178746865775977   T   T   T
 -0.1253614428539938 10.8252071593062631  6.1458979258514299   T   T   T
 23.1194219813680206  8.6451011792438539 11.1242833330022730   T   T   T
 10.3036424056287022 11.7957750307190388 16.0947609790287238   T   T   T
 14.1629810021378209 12.7045736827866804 -2.5417239522566542   T   T   T
 22.6223168642937793  2.5860196660185824  2.5740832193583558   T   T   T
  3.5502243651853349 11.7832382946193057  6.6343750325509703   T   T   T
 13.5350363144419941  8.0982620596364381 11.4660651647028473   T   T   T
 16.6277062310483998  9.4024600689153566 12.6869424805911510   T   T   T
 10.9303674109291826  7.6767768928099160 23.5599384205761844   T   T   T
 10.2408353220253296 13.2228182542233998  0.1238859422016332   T   T   T
 27.8330482917978514  0.5670361179615186 -8.3845837539110963   T   T   T
  1.8790676372820829 10.0066104542781744  9.1885855783463146   T   T   T
 13.4725963037827565  6.4434784737352642  8.0602877049747370   T   T   T
 19.4408491411604274 12.4259572685851101 14.9895962953524720   T   T   T
  3.8763617395600640  6.9653654031587626 12.7085186355427151   T   T   T
 11.5209780550665517 11.6559991653669375  3.4840569969404056   T   T   T
 21.5177216362540307  5.3897686219837935  2.8127743724968561   T   T   T
  0.2138426408739972 14.1642640172043723  6.9511744169495522   T   T   T
 15.2620081557338487  5.4301631251061995  5.6308625760234046   T   T   T
 17.4142034116653335 11.1472699155365227 10.6850820681854142   T   T   T
  6.3334528869782183  9.0596504767957367 18.9674165946956137   T   T   T
 10.5690801289519118 12.4976612138862020 -2.5981758495385043   T   T   T
 24.4833837014795535  5.5284624701518688  2.8675760370149637   T   T   T
 17.8729215603947651 15.9951308912755241  8.7387257078866778   T   T   T
  5.2273443951143630  8.7058995983109213  7.7549092109087994   T   T   T
 12.2102346225809164  8.4081105320829437 18.0527227530117571   T   T   T
 23.2119816628312208  8.1901854815019313 17.9369506899980173   T   T   T
  0.1381833737035286  8.2497490358247347 -2.8396406360884412   T   T   T
 14.8385928549627391  6.3763082722960567 -2.6505257563646123   T   T   T
 26.3052963548336791 -7.9559359373849903  8.5738429890282202   T   T   T
  5.9145908235902445  7.2921704381031791 15.0812392869131848   T   T   T
 10.4723724347230345 -6.7230241333004237 15.1183628530688594   T   T   T
 26.0665265356992961  8.7979707587453415 18.1696530089836479   T   T   T
 -1.5799016348507355 10.2835441730852519 14.3684046557291545   T   T   T
 14.6664250488146433  2.9912248758938809  7.1263555553368363   T   T   T
 20.0974413503602207  2.7745214017533439  8.8633688395284267   T   T   T
  7.2856627582706173 12.2043338369905339 12.4586406660916769   T   T   T
 10.7158555952070440  2.7068354535488277 11.7466989324570239   T   T   T
 -3.4989770162202349  8.3401685899241365 14.2080334782610098   T   T   T
  4.3804414274619328 -0.5056779038392718  2.9316644997966881   T   T   T
 18.0265665544033453 12.8981626179446547 -0.4021592438573773   T   T   T
 19.1461983282134938 -0.6209463913716661  5.7154549463372648   T   T   T
  7.7260712341307372  9.2718673836032526  5.4841041729033000   T   T   T
 13.0884228016578525 -0.4302917345574969 14.6478005704652858   T   T   T
 -1.2614804217239601  6.4457833195742786 15.1405092823479350   T   T   T
  6.7848011727635633  3.0460649877322150  8.2109405774487971   T   T   T
 17.0359140423040998  6.6941856284105139  1.8047022796497307   T   T   T
 20.9826056281507149 13.7486799765111716  8.4728495880290140   T   T   T
  8.5646503409100507  9.8050047686897663  8.9474468603642698   T   T   T
 12.0370676259205798 17.9430067136258273 14.3099568807656876   T   T   T
 -2.6639338720880832 -0.0172326663359074 15.2698760712141741   T   T   T
  2.4965351410904622 16.8169686055801861  3.7265240349368454   T   T   T
 12.4268118858759244  6.4406711698843706  5.5105658993218540   T   T   T
 20.1369704140755630  3.7641470820364269 13.0964474350094005   T   T   T
  5.9055101881058034  5.8074959660460710  6.9208797041051753   T   T   T
 13.8760810249260214  1.1455094773168171 12.1343854575439778   T   T   T
 25.8797218529538640  7.9163937805986011 12.7996877413875243   T   T   T
  3.9045129734419053  3.0321660404863309  0.2471035336410259   T   T   T
 11.7211248597376212 10.4988603752607688  7.7667844373767023   T   T   T
 12.5043473473047406  8.3378616732593649 28.4374630349005173   T   T   T
 23.8120812272136106  1.0539467438212531 28.5642894352080745   T   T   T
  0.2748918911424396 11.8353042169563931 18.6542983463478933   T   T   T
 17.4824359840953676  3.1028135022416943 24.2402782023526129   T   T   T
 20.0996400783297346 11.4509673119230300 34.8690154241627042   T   T   T
  4.2145532740266756  0.8478538983668302 31.7174954983888391   T   T   T
  9.6793472724961784 11.6827665277176536 31.5238029298641500   T   T   T
 25.4809585177754414  2.6634735350687833 31.0255774092142893   T   T   T
  5.7802596867827329 12.3169361185420048 22.7552434596304991   T   T   T
 17.7096279183512593  9.0252959671457180 23.9098064637121190   T   T   T
 16.1844592918919332 14.9940048916463624 31.7441380824533468   T   T   T
  2.7198749000599176 -2.0077189806109930 34.6560273653681108   T   T   T
 12.9765402209457434  9.7429122166047080 22.9439897438278777   T   T   T
 24.7396133004103262  4.2950242482364871 28.6397306485548704   T   T   T
 11.1120067739408377 12.5936483265590535 23.7107142524731245   T   T   T
 18.7383747132388052  0.5468330350641938 18.4961419400440903   T   T   T
 17.7686514609040032  8.7560108989912013 35.1357426502977006   T   T   T
  1.7148798101849045 -3.4026808181469033 26.3152103314326951   T   T   T
  8.7880181654730958  8.7097533751354383 28.7428428556991236   T   T   T
 16.8371676137375843  8.9609639149680547 30.1895077264282392   T   T   T
  2.2556130073025700  8.4761917800497262 25.2891536538038757   T   T   T
 15.3261462292390220  5.1555723185645190 24.2821897668412916   T   T   T
 21.1773550495943610 16.4026560924123856 34.4985009996792726   T   T   T
 -0.4569276790068471 -10.1546400580082050 36.6351531316933929   T   T   T
  8.3436580294186609 12.2752604437939326 21.3391292592559019   T   T   T
 23.8238581564031762 -0.8674976373340262 24.2201311979398604   T   T   T
  0.8048976399948170 10.8848610595299906 23.1889631099425984   T   T   T
 10.7313635319622698  0.7038500282912246 23.2688059212829366   T   T   T
 21.3979334430815769 11.3865273128327154 29.8996491274408065   T   T   T
  8.9242508119836579  9.8428035297354128 40.0775572760791334   T   T   T
 10.1668260133812698 11.3261369695570870 28.2895156825741871   T   T   T
 27.9365009899055181  5.4989806693495904 28.7922779471417236   T   T   T
  2.6619058351911424 12.9600310476065186 24.2211359709799474   T   T   T
 18.9111881150430321  3.0843724009397899 21.3340553621141709   T   T   T
 19.6942303473356759  4.9537596671065662 34.6497656088686981   T   T   T
  8.2078770332939843  1.8507389401511622 34.6962843963506842   T   T   T
  8.1393337904118432  0.6250186304623132 25.5735938083891696   T   T   T
 26.2821448368494970  1.1713607882985291 24.9999787830458757   T   T   T
 25.2420924648061415  1.7043102979925082 34.7988044781956702   T   T   T
  7.8317595024083557 11.8176941442371781 37.2671870821589977   T   T   T
 12.4666771149109170 -10.0749486418828216 23.7886332201791575   T   T   T
 -0.1554147360032575 16.3085075243447086 18.1821027471443593   T   T   T
  3.9037312051800845  9.3297683649165482 22.7877793122590546   T   T   T
 13.8878958359171900  7.5765040846316500 20.6855280464283844   T   T   T
 20.4434417698331643  0.4398892282923985 37.5312178423587923   T   T   T
 11.5364706482680912  1.0207925154933126 28.5449926534181735   T   T   T
 15.1430045939531439  0.6821114032841402 29.0096999006126524   T   T   T
  4.8071137486774207  4.1319612515852802 29.6373624098298301   T   T   T
 10.9521969922448204 11.1233187702310889 18.6698118120595353   T   T   T
 27.7169553826702995  5.3981989240672155 23.3925653264985023   T   T   T
 -3.8787397915346449  8.5275927671532976 34.8871040358403519   T   T   T
 10.5100678680515376  8.5137944368185217 31.7005822115964122   T   T   T
 18.6389504252769669 12.7715771650351151 29.0154889815908632   T   T   T
  6.5750149733220340  9.4996728721510504 38.3335645459545020   T   T   T
 17.1768196010336780 -2.8950055526657059 24.5913804735318351   T   T   T
 22.9264878325085846  5.0108952169630347 23.1381189454124261   T   T   T
 -2.4731433182841038  4.2859832196887773 31.9044693101739192   T   T   T
  8.3798535978971369 10.1302265633979900 34.0239582049131428   T   T   T
 16.2732765091068146 -2.2303264022110239 32.1087864641981398   T   T   T
  3.5630268678799486  6.3307925099822837 31.9919909558733337   T   T   T
  7.3905096136376640  0.4605822787151846 22.1249811752389185   T   T   T
 22.4185819827745050  7.2803821416231278 26.6954387435733231   T   T   T
  1.9561918854815834  4.8164826928093971 34.9364538567003180   T   T   T
 12.9518746803757274 10.7973750563432862 30.4384232775753709   T   T   T
 14.7156536346678006  3.6095452019346981 21.5858947843653510   T   T   T
  4.8673459481691852 10.5600343976779438 25.7416223534403059   T   T   T
  8.0055131013743619 12.0721802029999612 24.9136425520562348   T   T   T
 20.7612750159760466  8.5994386933187705 24.9670079023055145   T   T   T
 22.7468353162937120 13.0029067331430070 34.6977225986879532   T   T   T
 15.6583886347802217  2.5066040168998005 36.8020445910235878   T   T   T
 18.8083918230117035 13.8281255673417345 31.8543619756562641   T   T   T
  5.7348889891851069  6.4426085495066809 27.7162278987964150   T   T   T
  8.4546285933741441  4.0189265855664695 23.5936346359001483   T   T   T
 28.3039787086008943 10.3589051040723525 13.7488326926506907   T   T   T
  0.2882498408380029  4.1943289027000024 24.5288097365390847   T   T   T
 23.5018543486641178  7.9582816018741580 24.1581575130771427   T   T   T
 16.7061352432394088  5.4640425155978720 31.9803381436224079   T   T   T
  0.6249949255793622 16.8599338433426631 38.8336197039280364   T   T   T
  9.9351008098818685  1.4691886112383403 32.0323045538719171   T   T   T
 23.1291713214177719  7.9028570519405497 30.2305000096293668   T   T   T
  3.9188770414954535  3.4555571177651228 25.8597871835953654   T   T   T
 15.7939703761678576 14.3192149469824859 17.1459246943652381   T   T   T
 18.4521335766087518  1.4801336254464859 34.5802803864309212   T   T   T
  3.8888912920533811  8.6402948902137311 29.9212911026550330   T   T   T
 15.7729820646700389 -2.5345580768786671 27.3822990616075224   T   T   T
 25.8060850505728823  9.0282373377791743 29.6778674147720558   T   T   T
  7.9759659302775434 -0.4591693805578596 18.6710958135097940   T   T   T
 19.7029821675041461  6.1891052906264461 23.1108754683337700   T   T   T
 24.4449668250405310 -2.2474339114796034 29.2394978007418196   T   T   T
  6.9286213616423664  6.2573901002700509 30.5086617826048894   T   T   T
  8.7972210571589162  1.7193668712019881 28.4722982049446074   T   T   T
 24.9379967423639997 10.9778911872137108 32.0534024696056221   T   T   T
  5.5516639704571871  0.7935007946583449 19.4745209388922902   T   T   T
 15.5392025277978920 10.0968420889837684 21.3674243568991855   T   T   T
 21.7338469495967317  4.5858193630080990 36.6483292685006390   T   T   T
  5.5958664214542040  8.2423065542262535 35.1755338445567318   T   T   T
  9.8534803944832898  4.5918242909796438 31.3787463619748728   T   T   T
 31.1351147686313396 13.5960692578227835 32.0308744971602195   T   T   T
  5.9240767791701385  5.0178889758366196 21.7939604619020528   T   T   T
 20.5626033245822910  4.7410413646935039 25.3283522960918397   T   T   T
 20.3101967927089433  7.6979947254767849 37.3989523330389133   T   T   T
 10.3283031508206928  9.8059997918271620 36.9006391799505877   T   T   T
 13.0185532684259329  3.2354090120095922 30.8708178814460368   T   T   T
 22.2951285839919251 10.3493244691582404 32.1204701292563044   T   T   T
  1.4764019653765614  1.6752423476058143 22.2497678519507609   T   T   T
 14.4353625698455943 12.4670066003268012 24.0756581765364110   T   T   T
 11.4570816357135268  4.6594657595233198 28.7582229617864016   T   T   T
  6.6485063615020508 -2.1280463350891483 34.6284595146613654   T   T   T
  3.0335787054389289 -2.6716211802922887 30.1873764746129432   T   T   T
 19.4644841898760674  6.7847582725433409 30.8855803927904873   T   T   T
 21.5814242030889218  4.0855401673626579 29.0625290877846325   T   T   T
  8.8809447302807509  6.8678810626358038 21.4754570246013046   T   T   T
 18.1810967972974709 -0.1397085392735898 39.9797092622426220   T   T   T
 25.8075342414364215 11.8171519411729609 36.7326191626487315   T   T   T
 15.0858127365393297  5.9903553953824291 18.2981611593966669   T   T   T
 20.5919583689544368 -0.4879045085806748 26.7464633785010726   T   T   T
  1.9442901005465636 -1.2783131000616625 20.0904664469799776   T   T   T
 12.6293472611999213  0.8325170255146460 34.9256931353461013   T   T   T
 26.0343275808726773  9.1762405893779349 40.7242898114179752   T   T   T
  8.4146712620891453  4.1241200665692226 28.3940298539431701   T   T   T
 17.1225418144404813  4.2776890563938856 28.9027849058549648   T   T   T
 20.1330940929421018 13.9975935163712233 22.5604520868911003   T   T   T
  4.3484250531898576  1.5602463516142588 16.2498657971148610   T   T   T
 13.1964314393293130 11.8600601277369080 37.6433034053359208   T   T   T
  1.7106501960995442 -0.3949478138528034 38.9275803387481218   T   T   T
  5.6159929142475828 -2.5128569611139975 29.7185387567070904   T   T   T
 19.2803029468901457  7.1315903791507838 27.8362057109047321   T   T   T
 21.2696483516768993 -3.0772814810500142 24.4319575369521473   T   T   T
  4.4739797366370793  1.8306437457338418 23.3163374816516757   T   T   T
 11.0360866661739507  2.9806196966082292 36.3051659453088789   T   T   T
 -1.4177893658630070  6.8129918477009168 37.4777360588627673   T   T   T
  5.1422649083259451 -2.3793572282081197 19.0137389063408797   T   T   T
 21.4692906755694750 16.1664039121231582 23.9036149865900001   T   T   T
 20.0485479880805215 -3.0216548434378856 12.2066425488731323   T   T   T
 10.0922853256145189  6.2356391458516800 25.7750348208898963   T   T   T
 23.6993241490536661  6.0933168247545666 34.5285836448380010   T   T   T
  1.2355973693398090  7.9692702802939435 37.7505664471204412   T   T   T
  6.2880621065534159 14.8920199495993604 28.6215825145893632   T   T   T
 15.3972813929293384  7.3950681315679399 28.8399522032790507   T   T   T
 14.6267461155919456 16.7852679455949563 26.2156258720753144   T   T   T
 14.7239887675079579  0.5723209718002371 23.3610554607914409   T   T   T
 20.6777185104708252 11.8691797308230367 37.2505158111681709   T   T   T
 24.0009374007746956 12.9196283260656859 40.5384937245255799   T   T   T
 -1.7943545171990469 -0.3446497960238540  0.6801341872478489   T   T   T
 13.3338800497416727  8.3576051962569728 -0.8765152703465501   T   T   T
 15.8571203558793066  0.9341755803381020  5.3975897146273102   T   T   T
  2.8268901917876472  8.1207659743363312  6.2395157366344760   T   T   T
  7.1030598993780725  0.9258671107481274 11.6033342432155280   T   T   T
 19.7831963525563026  8.1772326337975514 11.4469712149545551   T   T   T
 22.3150083057063071 12.0130984918078401  5.9043428663055826   T   T   T
  9.1099647278061742  4.3011825599144453  5.5850255507740911   T   T   T
 13.5743642504673758 11.7479311023437685 11.5927227594813385   T   T   T
  0.8635870526114080  4.5872033794874980 11.6787136124457760   T   T   T
  4.6006441785457888 11.8281730728328931 -0.6584624437173476   T   T   T
 18.4030958001231468  3.2002378024870999  0.9274747619789249   T   T   T
  3.1096322466182236  0.7061126412661476  5.9929162871362793   T   T   T
 15.6768926206659991  8.2577440420092216  5.1907844877806113   T   T   T
 19.7459835588874597  0.6108464300707767 11.9310059941752424   T   T   T
  7.6538950862341526  8.3840682050426274 12.3709272212257577   T   T   T
  8.7759379900297567  3.8134385979864054  0.6898642668756165   T   T   T
  3.7671585203066500  9.7425778863214472 -1.0466618374734522   T   T   T
 22.1068977485757543  4.3551452484464477  5.6252770449988354   T   T   T
  9.5298943446211943 11.7393069564255921  5.6808009371670725   T   T   T
 13.5791233159006310  4.5441397210914261 11.3870383445496071   T   T   T
  0.8264469126450101 11.7277925649243446 11.9421181945504671   T   T   T
  7.3585751915434896  3.5503965491194740 -0.9474174113582597   T   T   T
 15.4378770961063729  9.2698513778083029 -0.7031604542953781   T   T   T
 11.0313471994303978  0.2816527065828429 18.2719774966501731   T   T   T
 25.0526835517690003  5.1125364638857755 18.5579370567927384   T   T   T
 25.6154270594789892 -0.7222469349977487 31.8236998116460299   T   T   T
 12.9124240502629171  6.4779661043899441 31.8787149185239116   T   T   T
 17.0102498497775230 -0.2670824953575134 25.5426899925677517   T   T   T
  4.8897617207948949  6.4008601588413416 25.0758844731365649   T   T   T
  6.7294552492192077  2.9225245793874746 31.4780439963352521   T   T   T
 19.2307692197486233 10.2002925186433107 31.7110275043508949   T   T   T
 23.4685551795531282  3.0130095129988574 26.1197205162132278   T   T   T
 10.8869312366896978 10.1546476213131385 25.6004630710252350   T   T   T
 16.4591194198430131  3.2213454060784659 18.4817443233369829   T   T   T
  2.2861964560861927 10.4723042025925555 19.2142936402310909   T   T   T
 12.9159972957434501 -0.6204060829966058 31.6918624223602379   T   T   T
 25.6997041412390246  6.5014271515883229 31.5526460098230608   T   T   T
  4.9868775520566260 -0.4918345256401820 26.0878250898689501   T   T   T
 17.4213877669770483  6.6593811464862114 25.6966957380601748   T   T   T
 22.3555133537718760 -0.9378427891528748 18.2110646432281271   T   T   T
 11.6060557123401029  5.2412849354102296 19.3339609321706760   T   T   T
  6.2552065128172858 10.0531215493101840 31.5986354287010300   T   T   T
 19.3072542492151484  3.0990464283956149 31.7018622706482986   T   T   T
 23.5463727037330770 10.3711579923379684 26.0647950591370403   T   T   T
 11.1536981378721052  2.9041668547599788 25.6810082102814796   T   T   T
 14.6197034205978227  9.7811931401543770 18.7158196935887844   T   T   T
  2.7836300718029516  2.8045765471150470 19.2445568117462287   T   T   T
  3.2734445388526807  0.5045833010767781  7.9359595456302374   T   T   T
 15.5468144380706157  7.8100608283731177  7.1627260325360558   T   T   T
 19.7435811236634606  0.4057177270706993 13.9725637987473110   T   T   T
  7.7944639560501789  8.6838420561414438 14.3733163450666854   T   T   T
  9.9191652700175243  2.0827406208298629  0.7286815184714686   T   T   T
  3.7658266839247956  8.7295791050422018  0.7868932836839982   T   T   T
 20.7067695072777056  2.3253192634345639 11.3797462353445447   T   T   T
  8.4971019976399695 10.0439742845541691 11.5006203785823491   T   T   T
 17.4542728442752519 -3.2641229665906968 18.4094834060954149   T   T   T
  7.5691238843442621  5.2442292387291900 20.1749361707868680   T   T   T
  4.0818051170348424  2.3416246574003146  5.5411345818722157   T   T   T
 16.3096500212463908 10.1420981501985032  4.9730206945886062   T   T   T
 20.7916105260754307  6.5926503180326543 10.6485192710714909   T   T   T
  8.3443650529076336 13.9279269681147966 11.0332616105669672   T   T   T
 13.4155571987081998  6.5434809692719442 16.8087005478066374   T   T   T
  1.1925521594851702 11.2144655663990580 20.9638039610433573   T   T   T
  3.6849512165574603  6.4362294266832540  5.4001801190984082   T   T   T
 16.9203897926232045 13.8202935963642908  4.7209795553669212   T   T   T
  5.1687312961094145  0.5095851085295613 11.1127645449650583   T   T   T
 17.7559684244324885  8.1732144151270170 10.8876244972363061   T   T   T
 31.5318696953523911 -1.1146954551051265 20.7892403147039424   T   T   T
 10.9185295785988590  7.1624530157092225 19.5648099218565399   T   T   T
 13.9076468339293644  0.8552385308220636  4.8706281864692240   T   T   T
  0.7433299230795837  8.2798408430434165  5.7192048962236601   T   T   T
  1.1465423694324701  4.4519326650809292  7.6961294125496593   T   T   T
 13.6856362927482120 11.6669260422206129  7.0379488028892725   T   T   T
 17.9328984027243976  4.4522144262245629 13.0346731893631151   T   T   T
  5.2365534331407346 11.7620852030831635 13.3629752961895285   T   T   T
 10.1971989998206158  5.0824567954907636 -0.2465950767339590   T   T   T
 22.8229808510322840 12.0751173873616438  1.2785651032296557   T   T   T
 21.9270921164771977  4.6036340007889294  7.6456011695621804   T   T   T
  9.5847195525442057 11.7250215006950018  7.7705645379388093   T   T   T
 13.7015964979299856  4.6088601899414900 13.3212360527099030   T   T   T
  0.9270734806152650 11.7592852490842201 14.0070279947994756   T   T   T
  6.2486796912676041  5.4295384890940772 -0.8541450646461703   T   T   T
 18.3425660678632383 12.3693171844004919  1.8429807125189659   T   T   T
  1.8387670212426064 13.4216512660890039 11.4623484248294325   T   T   T
 14.8086894782148093  6.0687344779384196 10.5434877219917116   T   T   T
 21.7092072722279283 15.5455077282743339 20.6834351082217118   T   T   T
  7.3627395052828772  6.8692618530719098 17.2325112348640772   T   T   T
 10.4137532411567637 13.3791194931030084  5.0930148131565707   T   T   T
 23.0493866805686451  6.1314022337275453  4.9336055381166997   T   T   T
  1.9436040863540807  2.8825359238888009 11.1803730478406411   T   T   T
 14.8154066768902108 10.1050445028517561 10.9442973764519955   T   T   T
 16.2107824331855568  1.1334344695552248 19.0615961792973003   T   T   T
  8.6227271508313557 10.5631854880708946 19.1019828093302166   T   T   T
 10.2908081431519633  2.6824124583606612  5.0453341853304687   T   T   T
 23.3365260614904741 10.4698819032151480  4.7632209681119635   T   T   T
 -1.0152220151298821  4.1178546646177967 11.1348180653582585   T   T   T
 11.7529985425219596 11.6550221083528935 10.6747278916817745   T   T   T
 18.1280654849683032  2.9648487301894324 17.2624822960520632   T   T   T
  6.2504001411768462 11.4405218986153550 16.8544586862676660   T   T   T
  7.1743113833222134  4.3193681680530824  4.9313658385604757   T   T   T
 20.4507200823013164 12.1170729628173799  5.0826669525511674   T   T   T
 -1.2621385996993137  0.7260815957204978 13.1701969042516609   T   T   T
 11.9321399519787974  8.2767975989862670 13.1594478706756632   T   T   T
 17.5536735408733193  1.3445032181396681  0.6421104186215553   T   T   T
  1.8060870754701988 10.1288548461362709 -1.7644556773547546   T   T   T
  7.0736705964565614  0.5987597320286506  7.6857510740539032   T   T   T
 19.9081283617101761  8.2306424760745962  6.8476870917905392   T   T   T
 24.5610636610263953  0.4351584457981206  2.1281774696169493   T   T   T
 12.1978977923001608  9.2038914588080853  0.6892552286367040   T   T   T
 15.8950989377005119  0.8965483923423049  7.5183353676396223   T   T   T
  2.9610797791010470  8.1031423988115137  8.2588238520177093   T   T   T
  7.0079340545183282  1.0925739584389502 13.7171042518605670   T   T   T
 19.5600299712244734  8.0072357426361958 13.3841823385606258   T   T   T
 21.1137558398563243  9.7002780629466283 10.8525487700116638   T   T   T
  8.1202938726077161  2.6862205607661616 10.7631774060931793   T   T   T
 13.1402434220528015 10.1686131534656674 20.2844308589730247   T   T   T
  1.4028477496630949  4.3049594026990867 20.0495390114775631   T   T   T
  3.9099292783569757  9.8373773618219218  5.5226614795532951   T   T   T
 16.5027809422768357  2.8408659570007613  4.9725865129654441   T   T   T