Li P  S  Cl
 1.0000000000000000
    25.1819793006824639    0.0000000000000000    0.0000000000000015
    -0.0000000000000009   14.5388225279766061    0.0000000000000009
     0.0000000000000000    0.0000000000000000   37.2126966544236950
 Li  P   S   Cl 
 287  48 240  48
Selective dynamics
Cartesian
  2.8440696200402953  5.9200949744579265  2.6420445723997217   T   T   T
 15.1701782850659228  8.8189205460936968  8.6548189692830491   T   T   T
 21.6127882754362872  1.8242005315500898 14.9404037371987215   T   T   T
  8.3254559422963119  9.6418335638987855 14.4014835847062255   T   T   T
  9.4819113098359047  2.9849890067657827  0.2325593802325595   T   T   T
 25.2785450794229405  4.9863023310132109  0.3371574180314321   T   T   T
  2.6698026883553174  5.8257602503799379  7.6786573905711082   T   T   T
 15.1105595184434378 11.7445216670653068  5.2249686256734762   T   T   T
 16.9109342861714111  5.1792585592791305 15.6562281115115436   T   T   T
  1.8479638999899803 13.3225762083315793 14.3921429466806732   T   T   T
  6.5127420561705334  1.2983065610442386  7.6656883709846451   T   T   T
 19.1604433436687529 13.3961978170054845  2.7877516548414034   T   T   T
  1.0827500784594342  3.8514437052282808  5.1830081119230851   T   T   T
 13.4455527403246826 11.3460531659592760  8.5801212225367394   T   T   T
 20.8142196946588740  4.7718619833879004 14.4855539223909613   T   T   T
 10.1060984583610054 10.4594968207062458 18.8022710533117845   T   T   T
 13.4903365146293144  4.0703427371831360  3.2839726149727251   T   T   T
 25.5810160339181749  9.2451615099564641 -0.3052986324988777   T   T   T
  3.7420218505983800  3.5416538708895504  9.0315285098175941   T   T   T
 17.5419416142061095 10.3192371963898832  6.7153292975603494   T   T   T
 18.1125267993603245  1.4670740466202792 13.1340461039518743   T   T   T
  7.2980255310009303  9.7712533832537840 10.8667906995213350   T   T   T
 18.1888775502800328 10.0042231935193691  1.2375045039636139   T   T   T
 22.4043836329870771  7.0848542002728143 -2.6389176619763175   T   T   T
  3.7690278630089873  3.1671545750767756  5.1077666414646874   T   T   T
 16.2209540487516293 12.1644340163452256  8.9155526513140995   T   T   T
 20.4256485723055121  3.1003581004617287 12.1697636457468885   T   T   T
  8.4842602924104202 12.0763933382468380 12.8376869829726399   T   T   T
  9.5945487119862634 -4.5697094551251087 -0.6332209475296806   T   T   T
 24.7850070677961227 11.7909301435802938 -0.7815800138136716   T   T   T
  2.0409352564099956  0.7563069405504170  6.9128032877045023   T   T   T
 11.8372556412689782  9.1875546487409459 13.0380857743603364   T   T   T
 18.5080005798577716  5.2810705794258572 12.6882015209874854   T   T   T
  4.8035591563626969 11.0047000312962577 15.3864902020767982   T   T   T
 10.6896106693232440  4.7066009241684403  3.0045793707679374   T   T   T
 19.0144560820934672 13.7932922034260717 -0.0089783825687365   T   T   T
 23.5315713087904896 13.7440020151683981 13.6439295048487761   T   T   T
 13.0170359442907912  4.8187797106523123 13.5073091656944833   T   T   T
  7.8832054686569961 12.2181510714918105 -2.1835940828303535   T   T   T
  5.3450646919223175  4.2775050012816349  0.9070742774095764   T   T   T
  8.1004477648705340 13.6515662629125121  4.9459992727542783   T   T   T
 21.6377338951128451  9.5146096993224276  8.5079676496838363   T   T   T
 20.5739125301013246 -2.7231408095024503 18.4168133071557030   T   T   T
 15.0203668879221830 13.3068681867175673 13.4693127876154222   T   T   T
 12.2536748474538513  0.9935594689603667  1.4108004705583808   T   T   T
 -4.6175172191267890 12.8123251404522165 -2.0592336901684583   T   T   T
  8.7382493868197741  1.9247127862686344  5.5991103298609630   T   T   T
 19.8700607110806828  6.1816103957608997  8.7506942982080798   T   T   T
  2.6452769577943753  0.8973791925569983 12.8249753173452152   T   T   T
 13.6525555487957657  8.6442709120586052 15.1264517462941441   T   T   T
 17.6753435161159587  1.7114303032132114  2.7718116591880033   T   T   T
 -1.9869679040994084  7.6746852801722563  0.4195173869470143   T   T   T
  9.2690674869947998  3.5301118190595249  9.1167450896350353   T   T   T
 19.0522239586592832  9.5887664182299552 10.9347458954482057   T   T   T
  1.3824024574663865 -0.8758362445952476 10.4509459925573083   T   T   T
 11.9762222149614459  5.5275327561251260  9.6152263233983728   T   T   T
 15.3760102816611255 -0.0036528523898385  2.9941700964662870   T   T   T
  6.5507225874846347  5.9639087158652533  2.9157991850309686   T   T   T
 14.3815405666838494 -5.2170431312151937  5.4851517949452813   T   T   T
 19.5683430156583071  8.3121534366446301  7.1300375586190841   T   T   T
 -0.1140911946190902  9.7258459164673354 14.9083695843888098   T   T   T
 15.9058108961905482  6.2954275746365118 18.7914638029530927   T   T   T
  7.7082769841581937 13.8304976706748164  0.7919055274525426   T   T   T
  7.8648648346041758  6.1046274151139714  5.4730844297610082   T   T   T
 10.0322037479151867 15.0267818186611422  9.4175917825355686   T   T   T
 23.2803083583126806  6.5112915843918922  8.6408689064386710   T   T   T
 23.9055262916268561  1.1662743047771269 11.1527404964996588   T   T   T
 14.3898072816713469  7.0149365470801923 11.9637281494809979   T   T   T
 19.5627185775165415  4.4448654098926426 -2.9640210603349013   T   T   T
  3.6923751440460153  8.7569807709260150 -0.1759211944453246   T   T   T
  8.8909403781496010  3.8653414087046518 12.8142705017162992   T   T   T
 22.9889570211895844  7.5545768624222189  5.5194810008764756   T   T   T
  4.7146479037645639 11.0769999646075501  6.0720146953605161   T   T   T
 14.1280591206801542  5.0781445282292434  6.7736195248015010   T   T   T
 19.9262516967459646  8.8659549787233445 14.4342046194620881   T   T   T
  7.4791395312164317  1.7841373089396644 15.0425738599509060   T   T   T
 12.4387603102384325  9.2398431591630654  3.2474983628446048   T   T   T
 25.0206107039525492 -5.1538067284847937  2.3049516120308517   T   T   T
  2.0192627521184434  9.6959610181547013  5.1006172813913864   T   T   T
 15.3973875663239976  4.9999667867870974  9.4427105203396042   T   T   T
 18.4179246551209488  8.7856095073797018 18.0329163661451801   T   T   T
  5.4268616612808893  5.0368908573577436 11.7174099847362214   T   T   T
  9.1341974904038707 10.0297099990451208  2.7335265730554053   T   T   T
 23.1671912602720411 -0.0172107990471540  5.5313698771324935   T   T   T
  1.8726959235453762 12.0826864467847948  4.5353721367030353   T   T   T
 20.5880555703511945 11.8397393367971553 14.8380587837718423   T   T   T
  5.1655294559518694 11.1419104937138247 20.1674757978687680   T   T   T
 16.5054534642925361 15.8776813944576709 -0.3477628343922309   T   T   T
 22.2552985728917534  5.0618837865363284 -0.6592615937653402   T   T   T
  3.5910091501713608  9.1066093853552292  8.1428278520617656   T   T   T
 17.0968866245149158  1.8164960717015053  8.2371428015483747   T   T   T
 18.3773920320686059 12.5184483954486581 12.3282608810870684   T   T   T
  6.6566114733143626  5.5732541782751728 14.5498126129126071   T   T   T
 13.1516823548864696 11.4259136950128521  0.5893106789744109   T   T   T
 29.0425366094839390  2.1393870916677669 -0.6491880296393326   T   T   T
  0.6497291940970039 11.9194377737161759  7.8408045553478800   T   T   T
 13.8185854790863747  2.6843527815516293  8.9047206237035645   T   T   T
 21.8580356931761131 10.7450029489664569 12.1045819253744522   T   T   T
  4.7049165479933608  2.2845612924858250 14.5178097634826635   T   T   T
  7.4244321896285390  9.9418401201035884  6.4020521028619664   T   T   T
 23.6459465905778359  5.3622702332034553  2.7633056078547891   T   T   T
  4.2851089823472641 12.4807788130379560  8.0139539065011185   T   T   T
 17.4675132626890317  4.5762119774213970  6.9283332096717611   T   T   T
 17.2366462164428285  9.5920202225392437 14.0001441580253214   T   T   T
  6.5457375939756117  2.3056787072962881 11.1910241622360509   T   T   T
 11.0160393125298928 14.5534540756247139  6.5945199158923034   T   T   T
 25.2382384233355381  2.6436311786166162  1.7398725223265841   T   T   T
 20.3802896620607257 15.4953594937534600  5.3051624091528051   T   T   T
  5.1110729181824963  8.4047708991041876 12.5902714881573807   T   T   T
  5.2421963111248147 12.1665961498364350 12.5532948864903631   T   T   T
 27.0536506730936637  8.2628062030113547 12.7742133145337444   T   T   T
  2.3173411017003707 11.9099758522026722  0.3027237369782292   T   T   T
 15.3616199702054388  1.9137209696807449  5.3394323441945346   T   T   T
 19.9793332527858141 -1.1082989993205627  8.8868856123417626   T   T   T
 10.0977092657776204  8.5443985632780617  8.4847961847613043   T   T   T
 10.9571871234496268  1.3386567062118400 13.3962395458608938   T   T   T
 26.1578460995979327  9.1114935143943097  9.5987554588359423   T   T   T
  3.3402690751239668  0.4099085172304933  2.1400022848003637   T   T   T
 15.6669597914458834  7.8111363771289168  2.6201692651497148   T   T   T
 25.7379944348358620  3.1301018709378816  8.3438760312413187   T   T   T
 10.8537369655818772  6.0202117511226607 13.9267387152600346   T   T   T
 13.3060952850803780  1.3013793372547984 11.2789100861915461   T   T   T
  2.0282915372899297  5.8525040466319105 13.6539325250602488   T   T   T
  8.7478337966631106 -2.0080094841279301  8.4855732095571934   T   T   T
 19.4635651811967492  6.8750459684974983  3.5687162356181923   T   T   T
 22.9766028821967723 -0.9678387588970224  8.5176487858891115   T   T   T
 10.5506783090051925  7.0135635634408384  6.2726156127427526   T   T   T
 14.8825716095731657  1.2099485042654898 14.7124288864835542   T   T   T
 -1.2051786025176856  5.3974568612774894 12.6847995871230559   T   T   T
  7.2472380129717981 -5.7839911592103519  1.0380818212496972   T   T   T
 16.8740026443055058  4.7851682570608807  2.6874835365284429   T   T   T
 20.5697525379254387 12.0813749596749815  6.1809696624470964   T   T   T
  7.2864617440023327  5.6028500581259699  8.2127810709875604   T   T   T
 11.0688453752308416 13.0451191379915201 14.0298260400326189   T   T   T
 -1.6806408969778046  8.5630385753438016 12.9431033069171093   T   T   T
  5.2459563309804453 12.8536723070132535  1.9802360535886387   T   T   T
 20.6482403037613267  5.3192279021208062  6.0212367526499397   T   T   T
 21.3524044160647932  1.6855461818664756  8.3495459880561960   T   T   T
  6.6870285156588256  8.2264943615820734  8.6883761075561914   T   T   T
 12.3116506363467177 -1.2152787751148022 11.5925240538483951   T   T   T
 25.9937961525981507  7.3526598763125515 16.2808710141170536   T   T   T
  6.5310402514087000  1.9839516379490667  2.6103265867219876   T   T   T
 12.4375476265546165 10.0058204842318421 -2.2192880619745190   T   T   T
 11.2122516414948112  9.7698815704329132 28.4486568741549135   T   T   T
 22.9574646875560333  1.6981156572227065 28.1961512107802044   T   T   T
  6.8256276244913696 12.7934561775114908 23.9661117865571072   T   T   T
 13.5596520654472172  8.6396940818295764 24.4670219680766827   T   T   T
 14.5842256458288055  8.7173026315167039 36.2077680010545890   T   T   T
  6.9748375580112851  1.8242756790847507 36.9427757017121294   T   T   T
  9.0762228440183357 12.9385644995782680 28.5616107315580692   T   T   T
 22.0791632600721641  5.3770682761403270 28.4726408132788720   T   T   T
 -5.4601940480045688  5.2395338936567537 24.3765486354151122   T   T   T
 15.1829053538885770  5.6888473384092366 22.4839441811126157   T   T   T
 17.2159953113581636  6.9060240590920055 31.9803981912659623   T   T   T
  3.6623543443468538  3.6324304301318349 34.5509945638028810   T   T   T
  9.8582979409966498 13.4079687233300078 24.5214025883253797   T   T   T
 19.4311286463729544  1.3881465534982975 27.4245568409213156   T   T   T
 -0.0683159107321207 16.6766584631241344 13.6710833813755475   T   T   T
 14.1840027819148471  0.7682281211874097 23.9158447971759536   T   T   T
 22.3902326674862806 15.8616955736553553 36.7551200707862122   T   T   T
  6.1075570832992465  1.1730505794887507 33.9729031310562846   T   T   T
  9.8034049307040263 10.0718983963339159 32.2427343147007974   T   T   T
 24.9719423643352911  4.0742418316405251 29.2727301238730142   T   T   T
  8.6274569412921327 16.7094472128960412 18.2025525344757604   T   T   T
 12.2806244361205970  4.9101400391370209 24.2977392695234862   T   T   T
 21.4513246445836714  9.4353760008628988 35.6502830277739449   T   T   T
  6.0615826510222597  6.3935280433212460 36.2187084935139367   T   T   T
  8.1553365368119728 10.6029692835914506 28.8125975562282477   T   T   T
 21.5878948247299078  1.7995516666234368 31.9158091683715490   T   T   T
 -0.2149072532808363 11.8320268860408433 18.2577984275635892   T   T   T
 11.2774714886371186  6.1683606176107837 20.2926863445656664   T   T   T
 16.1195240114859359 10.4111231887218629 34.5190197666990457   T   T   T
  7.4969382552102353  3.7176996164922884 34.3697059964834608   T   T   T
  9.0510601862774998 12.8705696304902517 31.2520891777357441   T   T   T
 18.7309483028511323  0.2694345220664386 30.6003974339484550   T   T   T
 -2.7471332113297731 13.6666705812504894 21.6083008132303931   T   T   T
 16.6597422706764249  0.0730344184218863 18.5631990305001295   T   T   T
 18.1728187238958512  7.7641115415531781 36.3471443806899046   T   T   T
 10.2372757051341345  2.1320424751551563 40.3405536006893897   T   T   T
 10.6022201910951228  1.4973400703207695 23.8161784961314389   T   T   T
 18.4040215578915323  8.1627902378439501 22.5596204555878863   T   T   T
 19.1713660951412663  2.1304573316257498 37.3886584208384676   T   T   T
 14.1343557512495721  6.5077516340104680 34.4363271752876514   T   T   T
 15.1670574143270045  2.0537035614455790 31.2225809258098863   T   T   T
  2.8227995306937586  5.8114632060434053 28.2449840821067788   T   T   T
  5.9741736543331072  1.5791914462532579 23.7807834504557114   T   T   T
 22.4365001320017470  8.0131837949423499 24.9656193535875239   T   T   T
 25.7598154332020854  5.5649613623190994 34.7378623052342874   T   T   T
 11.3757067991415060  8.4444372228067710 38.0682292691256876   T   T   T
 15.6468521077628253 -0.7294870253700140 32.0304619895523359   T   T   T
  5.4355104518679722  6.2709502961551342 29.1089385280161466   T   T   T
  6.7349246438007553 13.2460001528046671 18.3845869952265097   T   T   T
 26.5737429649304531  1.7390656073919559 22.7681008904369371   T   T   T
  2.5088950698510168 13.0266295312589939 34.1504432966817504   T   T   T
 11.7307829871575411  5.4383937393454929 34.4934850674748503   T   T   T
 16.6469971646432739 12.9295864458574545 29.1669497088813330   T   T   T
  2.7288458185198765  5.4259552781179936 31.3410935349768351   T   T   T
  8.4070232067808188 -0.4639165111864478 21.5917200460697991   T   T   T
 28.3598540098238345 12.7521523297012802 22.2792314462051984   T   T   T
  1.1467345205267454  1.1810439019328633 35.6397843565589412   T   T   T
 12.6322629965650055  5.8835109827252721 37.5012521719278098   T   T   T
 16.5186157414672081  2.6375400916784066 29.0022463948673561   T   T   T
  4.8135952106515703  8.1138637656767774 32.0185492189163341   T   T   T
  4.4360656843253796  6.9859647928002522 18.5917624971222892   T   T   T
 20.3343484319112164 10.0986027754847445 24.2642090685395004   T   T   T
 -1.3595491395936274 -5.2536819169513738 29.1702466059320500   T   T   T
 11.8770345220286657 12.0076718054007916 30.1237470522293798   T   T   T
 14.2963832228854724  0.4589120140570367 28.9173246428879622   T   T   T
  4.6662764700912724  9.0944416048959962 28.8621805188672305   T   T   T
  7.5835899861893257 14.3888283193920792 25.6555571925500061   T   T   T
 22.4235613273217709  6.1614811803538689 22.5934846805151572   T   T   T
 22.0356590775298855 12.1855890191537650 40.0422593462827621   T   T   T
 14.1873286921558517  2.8705459744707409 38.0827069977583932   T   T   T
 18.4085475755249988 15.0241850906759851 34.0125570236143133   T   T   T
 -1.4853660094436747 12.9661153950538015 33.7496784094278581   T   T   T
 10.2816816559124007  5.4838642807113791 28.2588900198132507   T   T   T
 21.8246678089719026  9.8409306551648417 32.2844049473795351   T   T   T
 -5.7622681066672428  7.4099085174031734 26.0948477535226111   T   T   T
 16.1374514204884392  9.6481993617935409 24.1670074871136542   T   T   T
 16.3515284502210037  6.3350941515832586 37.3409571899632624   T   T   T
  5.6218986326079818 14.1328727652356907 36.2624129523813181   T   T   T
 11.5395175474218039  2.8805426492299087 28.3200080676135393   T   T   T
 23.9723355917016221 11.5544567562850435 28.2138455206892793   T   T   T
  4.3583755282618668  3.6902073803983599 19.9924337092847111   T   T   T
 16.4618706464778839 12.1424755910284699 24.3416032837189533   T   T   T
 16.0773394562638714  3.7208774875658079 34.9428341008538297   T   T   T
  0.4512344910775427  9.3507510559388347 34.7287376391802169   T   T   T
  9.0778881392683903  2.3786699214528277 31.2062096512263096   T   T   T
 27.0749160286434716 10.0066460311849514 26.2028724827566180   T   T   T
  0.8011321673022558  3.3384919859026065 26.1454936619862224   T   T   T
 14.3841505070863178 11.0130763232155910 21.6363097236358826   T   T   T
 24.0767906346905036  3.7098013052258185 32.5831906840655137   T   T   T
  6.6513890327882219  9.2112144650813317 35.0034791240039240   T   T   T
  8.9470396912492252  5.6121840010111432 30.6350476899997446   T   T   T
 25.0240892165480915 13.5571485766040958 24.3105232567118144   T   T   T
  1.1233007340813719  6.0685789685064142 24.5757035001688493   T   T   T
 14.3550797906123950 12.1804855512425156 26.4231812869361278   T   T   T
 21.6668880771151393  5.3248088605245245 31.8760536216179062   T   T   T
  9.1120436354916237  6.5446874421892556 38.2403285682690708   T   T   T
 12.1745150608107782  4.0294953423548705 31.1362278678482554   T   T   T
 21.4198050878627129 12.7587762698820733 30.6971382140840277   T   T   T
  3.8886614525401746  3.3954240323571114 24.1764627750794254   T   T   T
 17.3067311261029815 10.3399723492304609 20.9479979551118873   T   T   T
 21.4798871435800507  9.3383132720607929 39.2060399574816714   T   T   T
  4.1558483775850670 10.3404480690026102 34.8845407693482130   T   T   T
  8.0911221858961824  2.6170031968171719 28.5236023338810192   T   T   T
 25.0073842646006952 10.7774243674112871 31.1743553865313245   T   T   T
  2.1443873575243901  3.8180344504654880 21.7267191479430828   T   T   T
 12.2923659599141661 11.4752460820180566 24.2087949889628469   T   T   T
 15.5425348897241395 -1.7369385982504240 36.7086026814427768   T   T   T
  4.6847822303158742  8.6849847671630140 39.9514510253309609   T   T   T
  2.7024037680197592 -1.3395943991914168 31.2590294489263307   T   T   T
 16.5297253077416713  3.3090571120171046 24.8215062657248069   T   T   T
 24.6557616502764034  2.6912918536982340 23.7793120639128084   T   T   T
  7.2003600937197021  6.4203441307178135 26.4639707877362440   T   T   T
 11.8463995302604062  2.6586792680918805 36.2794118704013755   T   T   T
 19.2917726436630232  5.9853649553468440 37.8154485044783044   T   T   T
  4.5737209537588717 -1.3563693021156831 28.2437673060530763   T   T   T
 18.0037409332577312  6.2215782968124591 28.6850842451007644   T   T   T
 18.3371085161734584  2.5537373668685812 16.0778046125679452   T   T   T
  6.3480016393037433  9.2448108659814103 24.4990028127905042   T   T   T
 11.0282676706477467 -1.9898792348290339 40.0324366641648979   T   T   T
 20.4414577184979933  3.2040430829697537 29.3328258272849176   T   T   T
  1.7634439950084850 15.3838635356109457 28.3286897738993808   T   T   T
 14.9517847375834663  9.5032288934580791 31.2217913008483627   T   T   T
 24.3189693767768347  9.6550919130922548 22.8095886496138185   T   T   T
  5.4944310600799211  6.6013186438292220 23.0812300620529633   T   T   T
 12.4905487728103619 13.1765988440437223 34.8676599017063467   T   T   T
  1.6216510371401198  8.3348517787184324 29.2573818872974662   T   T   T
  5.9961586934141957  0.3960963029104123 30.8199639186716965   T   T   T
 16.9210988246449148  9.6433760774847439 28.7277721022018362   T   T   T
 27.2367327681802252  0.0599342029893084 19.0361335933932629   T   T   T
  8.2321656402909351  7.7524258417178800 21.4246848669502086   T   T   T
 13.9951155215781462  1.7334014013330177 34.7142585684114735   T   T   T
  3.2904236162195111  5.4368053871592625 36.4438780129606599   T   T   T
  2.8210731128092936  1.8497583400388355 30.8304074544180580   T   T   T
 14.2930413509802143  8.7375356289023216 28.5175800710169121   T   T   T
 19.4416355141035098  3.6841261242577557 20.1347902989771939   T   T   T
  7.7133957154945589  5.0746534722832770 24.0506675878086753   T   T   T
 10.0209275988540689  1.0937074635470883 34.8153473740606074   T   T   T
 -4.6179787840770796  9.5524687999509332 29.9828792307249650   T   T   T
  4.9134073228653428 16.4457839464181745 28.6687516333914090   T   T   T
 14.9227369449890919  6.0820854988515469 29.2665715416282808   T   T   T
 19.5059320042669810 16.5872738263255641 23.8541635926657456   T   T   T
 10.2371087025432672  8.4381017290833604 23.9215656465719846   T   T   T
 10.3422656246132085  8.3080206596445283 34.6366390668401891   T   T   T
 21.3053977317889149  3.0301036043531759 39.6700630079343952   T   T   T
 -0.1315407991445916 -0.4132963687610354  0.7964017616875747   T   T   T
 12.4610155297988250  6.7685552733118071  2.5654089869054189   T   T   T
 17.4435388499449928 -0.3992001487285952  6.0257006709568559   T   T   T
  4.7121761043441355  6.9227878909355578  5.8069293636652608   T   T   T
  8.4161465034377017  0.0638720529116026 11.6267107233457487   T   T   T
 21.4731632675502198  6.9939852623571994 11.5780379359566936   T   T   T
 23.7585853161001310 10.8042316514158347  5.3786999207095807   T   T   T
 11.0404865379564381  3.5621722127254749  6.3315496295204747   T   T   T
 14.9934775407799261 10.6507306953202576 11.7815118114581932   T   T   T
  2.0723057533869511  3.5670614062174466 11.4373341964483277   T   T   T
  5.6298931059477022 10.6565978682708362  0.6102135939479845   T   T   T
 17.1644821014119415  3.9754360589048559  0.2790727948609091   T   T   T
  4.8373939331085136 -0.0088893014588701  5.2545299162933627   T   T   T
 17.3158526285089707  7.1531244021464104  5.7493460262260747   T   T   T
 21.2216709340347833  0.0095583011749976 11.6584362714723984   T   T   T
  8.7792686373832378  7.3774139439443038 11.5019368118646650   T   T   T
 14.0547514691784059  0.2887391716146133  0.1019292592279000   T   T   T
  1.6553029918901980  7.1882379336915712  0.1205492150975691   T   T   T
 23.1802994680120094  3.5301625382643693  5.6576686569396113   T   T   T
 11.0146235602684222 11.1170854611596450  5.8397665908349552   T   T   T
 15.4643090685448108  3.5017381024226446 12.2312733896373604   T   T   T
  2.4416724852971066 11.2908705151896598 11.4245813311434308   T   T   T
  7.5020419890387560  4.1450727907729634  1.2554954371354448   T   T   T
 19.7255390851591059 11.1765050085766848 -0.3625622300395711   T   T   T
  9.5576826990012087 -1.2759900942530615 18.1988494965579441   T   T   T
 21.5597368592312151  6.2260813053097186 18.4595085738866800   T   T   T
 24.6824390500671313  0.2514402567783317 31.4124130626986329   T   T   T
 12.1941951277685856  7.7461667851778966 31.5229090261860385   T   T   T
 16.4444088527875962  0.0877726856991075 25.8914059667373238   T   T   T
  3.6711893767519381  7.5204797385911490 25.6302948063766465   T   T   T
  5.9315315637281270  3.9039732248624683 31.6291870735566754   T   T   T
 18.5380325873923155 11.3123836280942207 31.6048187795603859   T   T   T
 22.5535281728547119  3.8665827130194033 25.5400969296073157   T   T   T
  9.6206488609689398 11.1868587900318790 25.8307678857570977   T   T   T
 13.6802030441985227  3.5888978790202835 20.0257221421054865   T   T   T
  2.1794470025691104  9.9543631786495013 17.7982601251613772   T   T   T
 12.1166060784923335  0.3268684086839226 31.6196369805052946   T   T   T
 24.8766780270632779  7.1779339304998526 31.5125109913093411   T   T   T
  3.7585233662363349  0.2128246715112552 25.1872803093417268   T   T   T
 16.3617811422444746  7.1772352722729869 25.7160462802580732   T   T   T
 20.7769032767560020  0.5981703537534595 18.6385429555726176   T   T   T
  7.0936411266895183  7.4780401684648137 18.1713023792448460   T   T   T
  5.8537088019236396 11.3631367778324339 31.6866098074286313   T   T   T
 18.1156866709914368  4.1855306704354005 31.6692002989834300   T   T   T
 23.5456577678125214 11.4480747590716465 25.0974540930075385   T   T   T
  9.9572777674978763  3.5558836821103732 25.5623581473332742   T   T   T
 14.4813723901242568  9.4175346894342251 19.0491896850644373   T   T   T
  1.2793774727431331  4.4772527088713003 18.4466896103787050   T   T   T
  4.3804749781882393  0.0501888807736998  7.1769047697329578   T   T   T
 17.6410938074636334  6.9150759017855536  7.8661536402423318   T   T   T
 21.2912993227674434 -0.0474020258322627 13.8388380860909272   T   T   T
  8.5270508536516871  7.2348301247465203 13.6485181142929051   T   T   T
 13.4925567082590572 -1.0661554565971605  1.6998601925611678   T   T   T
  0.3751686310470173  6.4953236699833150  1.8159662402003414   T   T   T
 21.8473752316917214  1.8035233291632755 10.9695396057512777   T   T   T
  9.5794906702399274  8.9827908543001698 10.7162702834721433   T   T   T
 11.0250469291749056  2.7986268769821105 17.7831742829097905   T   T   T
  3.1409525574427923  8.4717299350325685 16.7377343964830843   T   T   T
  5.9053013702961286  1.6892519287315770  4.9185271465957747   T   T   T
 18.4463057840352462  8.7673309071682723  5.2343889901559759   T   T   T
 22.3069228402036686  5.2436766498067415 10.7517416553416574   T   T   T
  9.4437585563582243 13.0646783245130944 10.8575300723468509   T   T   T
 14.2823586665225424  5.5104177413421924 20.2572388210168377   T   T   T
  0.1079726961857333  9.5892616877485217 17.3893374548821349   T   T   T
  5.7906775969480941  5.2929276095022235  5.2311831759679102   T   T   T
 18.4314644730312622 12.5283425893906646  5.2101064119696137   T   T   T
  6.4604001749111291  0.0289095801279247 11.2763660224442024   T   T   T
 19.3707456840644880  6.8338035245996780 11.2716193132067843   T   T   T
 22.6528523335513157 -0.4554660243474374 18.1310590067154891   T   T   T
  9.9851413848255905  8.0340790843135252 19.9700145500168667   T   T   T
 15.4983511436025925 -0.4578081504580699  5.3283730215091740   T   T   T
  2.7646461375430271  7.2505194205440997  5.3408941607125113   T   T   T
  2.4776650541041709  3.2335331587582132  6.9200201431636748   T   T   T
 15.3956396110557865 10.7061537843483787  7.4162457212734738   T   T   T
 18.9073166205457710  3.3912706563192039 14.0473058474333925   T   T   T
  6.4969077335363252 10.6169692765198338 13.4685328351843818   T   T   T
 11.6319446427100601  3.2905407450157167  1.4104615319370626   T   T   T
 23.6802544989078854 10.0239128856609501  0.4134745620055008   T   T   T
 23.2870761036261413  3.5331662601654190  7.7307220860268320   T   T   T
 10.6826595838212395 11.2886443860242540  7.8549738928955719   T   T   T
 15.2299583499818194  3.6238024285547872 14.2710109568099011   T   T   T
  2.1631138901370046 11.0679533055273538 13.3743885110692204   T   T   T
  8.4948323027300745  4.0354635113809687  3.2294270711826552   T   T   T
 20.0754700234147165 11.2038523226148374  1.7457984137681029   T   T   T
  3.5983057319525056 12.7049602281537357 10.8250584995534673   T   T   T
 16.2191410977568964  5.3357500992644251 11.5920879092929532   T   T   T
 19.9003930347480349 10.2269666258828291 16.5314760689982236   T   T   T
  6.2740025542357500  6.0046821389887093 17.0813957792809177   T   T   T
 12.1545958730040713 12.6155425646253576  5.2125439080949336   T   T   T
 24.0924590617114305  5.2538745636719089  5.0757039176635121   T   T   T
  3.3069144791990950  1.9817609177724429 10.8749785612402796   T   T   T
 16.1633267002766488  9.0678805906777100 11.2476812708091884   T   T   T
 20.7951253680198036  2.1086280863548796 17.3358441207153717   T   T   T
  6.1578587248912449 10.8067132320815027 17.6251011281219725   T   T   T
 11.3883964624003386  1.9522388794719632  5.1844963216851117   T   T   T
 24.7691475218729167  9.1002964412449323  4.9571266774946690   T   T   T
  0.1680718745968716  3.2448533449474293 10.8505366784201751   T   T   T
 13.0838872606276748 10.5067589599723146 10.9362984815316171   T   T   T
 16.1728354874889675  3.0461013995491752 18.3233164179601324   T   T   T
  1.1182522784606574 13.1241190683289641 16.8541613882122903   T   T   T
  9.0986968834346129  3.8887658963711549  6.6867064717081179   T   T   T
 21.8442546214431275 10.5693680956210798  4.7466761520450795   T   T   T
  0.3417913367135194  0.0484145112542713 12.8814825752064746   T   T   T
 12.6627312591922436  7.2633367961586224 13.5186287525845596   T   T   T
 17.3757979826403357 -0.1981766022455627  1.3435843622868238   T   T   T
  4.5354860988004626  6.8719107556750973  1.1452244860837897   T   T   T
  8.7938992999924182  0.1199964791326774  7.0221871979365007   T   T   T
 21.4361605989542312  7.3130098276668356  7.3889949578290581   T   T   T
 27.1109740909075896 -0.0103067544975856  0.2362519065747184   T   T   T
 14.3208908628025995  6.0305720425000287  1.6107709815822497   T   T   T
 17.6593546181573160 -0.4007660099736543  8.0961673032672579   T   T   T
  4.8242327958095297  6.9773294697260688  7.9371071840243248   T   T   T
  8.9147308983537261 -0.0644140356946138 13.6460814389444760   T   T   T
 21.8117100790103606  6.9555803003428807 13.5715968263109037   T   T   T
 22.3414490534385521  8.7438580508342447 10.7862775889091420   T   T   T
  9.3350945765618984  1.9015006748108418 11.1766508137829312   T   T   T
 14.1250197992390270  7.9238347686173034 17.7100978373166491   T   T   T
  2.4215638017477055  2.0518112010671405 20.2831575494734757   T   T   T
  5.8295609005433162  8.7297718842126351  5.0469235742181233   T   T   T