Li P  S  Cl
 1.0000000000000000
    20.5609999999999999    0.0000000000000000    0.0000000000000013
     0.0000000000000033   20.5609999999999999    0.0000000000000013
     0.0000000000000000    0.0000000000000000   20.5609999999999999
 Li  P   S   Cl 
 191  32 160  32
Selective dynamics
Cartesian
  3.4413538729492115  1.3149502674556313  4.1247757700439838   T   T   T
  2.0869950279721818  5.1121554845358714  7.5599626099234278   T   T   T
  7.0904253805786270  5.7296006591703019  1.8431832635616900   T   T   T
  7.1386503189070147  2.6632175133651446 10.2107815274341061   T   T   T
  0.2441727022292521  6.8826828057968044  6.4986247031230606   T   T   T
  5.3589678525021860 -2.5385774167680779  2.6065908799338775   T   T   T
  5.3134257929856057  3.6077241148099302  8.2328564967021478   T   T   T
  6.3388829700156037  7.9950064653048782  0.4146888734140620   T   T   T
  7.8575710715857090  5.0393959339338172  7.1067655451132588   T   T   T
  7.6207186073635453 13.3074438881745643 -0.6640552954608638   T   T   T
  2.3689315251255048  1.5060743107705890  0.2581514434174289   T   T   T
  4.6221606676931550  7.5601501755762071  8.0204353291104376   T   T   T
  6.7037357712997450  8.2524887348446931  4.6007711370618978   T   T   T
  7.1413533682273505  2.1886232766890985  5.3640955663655010   T   T   T
  0.6926331473659357  3.0968495631135289  4.4474430493808947   T   T   T
  2.1023392111545403  7.9400546392811790 10.4514520368069963   T   T   T
  7.4079380956296337  0.4878412260353674  7.8542425023690292   T   T   T
  9.3335929137082907  7.7691732463529357  0.3806858289495864   T   T   T
  2.7905244704461332 10.0873676634172131  7.0102586426794833   T   T   T
  4.1715813080591602  3.6129662853454776  2.1779103872696282   T   T   T
  0.3952478919143899  1.0251107349757407  1.9641723964321536   T   T   T
  3.3038737649567911  7.0017156044528361  5.6246474025973470   T   T   T
  9.6964626088517765  2.2669654978941631  7.6388124251935023   T   T   T
  8.3203808479177930 10.2100621646967102  1.9015281013183178   T   T   T
  4.4259695373335086  4.7078286376096532 12.3895093145219164   T   T   T
  0.1346444399919215  7.1868706374432421 17.7291729318873266   T   T   T
 10.4566364885184377  7.4932177299402509  5.7686751447287845   T   T   T
 10.0481705467481195  3.4551031953690763 17.7393090631149164   T   T   T
 -2.2553174144197157  4.7226593255148783 17.7796240226606130   T   T   T
  0.0499847094590232  2.9746596462728658 14.1086719195492751   T   T   T
  5.5336411195406603  2.1480087672650416 17.0234745854507423   T   T   T
  8.4830995756827292 10.2899960776999144 12.0459294919346593   T   T   T
  8.3902028008758531  0.5666967614936695 18.3648618147597773   T   T   T
 10.0835375958103981  7.3335100264991118 13.5371773057276314   T   T   T
  2.5554690457101383  3.8479212491625896 14.8138741908886722   T   T   T
  2.0298074423209123  9.7436147565004703 18.8559298913670403   T   T   T
  7.3597629516701968  6.9909106779656938 10.3292686657963859   T   T   T
  8.2802031533716978  5.4921013669429257 12.9279995320468846   T   T   T
  4.5258796649361761  1.6093819890389900 13.5427950913250470   T   T   T
  3.0522610576929341  7.9155113785936404 15.9876446909759267   T   T   T
  6.7167728185578008  4.6551214952862612 18.5548662902945978   T   T   T
  5.7638689819155742  7.8412553468812085 13.8803289546516009   T   T   T
  2.0625687957610124  5.1938363918624768 18.2560406675036475   T   T   T
  2.2043097875618782  0.3662052840998349 12.2482209579928529   T   T   T
  2.1250945146186204  3.1166077943969408 10.9225760866389674   T   T   T
  2.6047941122472746 11.8253396565766877 15.2627081351214340   T   T   T
  8.2161292074228758  2.8226877891405806 15.5645306286019292   T   T   T
  8.2179033708370834  7.8028083401428390 15.1754234706524009   T   T   T
  0.3976900328432217 13.2632524512449343  3.2903311158669619   T   T   T
  2.2384867863888869 17.1534179879367308  5.6911519244369870   T   T   T
  8.6874329959518946 18.4767989463619315  0.3687663441566751   T   T   T
  6.7198638129796526 12.1716584087178248  5.5683306015436296   T   T   T
  3.3582815096634104 20.7664136534283017  7.3547278531891802   T   T   T
  2.9591833354132584 12.0399920039145183  4.8918021832680321   T   T   T
  6.7602647758516596 10.6229707674585416  8.0441030346727374   T   T   T
  7.8835125653306539 15.5287096921376691  2.7112041599699581   T   T   T
  8.9698711266885809 14.5729477948694548  6.5623291426700003   T   T   T
  7.8113704708566383 23.2430891167989415 -0.3091358580994355   T   T   T
  2.5578043394676544 15.1904378242162785  2.9248332713572585   T   T   T
  2.1250858502944934 16.2695629287428432  8.5161236044233188   T   T   T
  7.2866563101515123 18.6946049070025779  5.3775144218294768   T   T   T
  9.5700283866052676 12.0382909652044923  8.3996233681510581   T   T   T
  2.4339353211100976 10.0830008844549042  2.2102678489071490   T   T   T
  5.0381011130912832 18.5977576930514310  7.3369623327104962   T   T   T
  5.2757989514186105 13.4168070063900924  8.2264076522235055   T   T   T
  7.2834744826122035 20.5901804558981283  2.5245446879309230   T   T   T
  0.4092376917216318 19.2729452676610009  7.8305345081838729   T   T   T
 10.0665622513405921  7.3377274999440658  3.0470582026374036   T   T   T
  2.1048534423460277 12.4425884934226527  0.5378699711942577   T   T   T
  2.2735771084461929 18.5779735602760603  9.7333990972962052   T   T   T
  7.9475839456385957 14.1090391798596091  9.5083799259469544   T   T   T
 10.1229884425019048 17.6168927539558453  3.4723357548152096   T   T   T
  1.7366563012795961 10.4793585487580003 12.5809557578362217   T   T   T
  2.5633338304890465 15.4282863855346175 17.9271303204455705   T   T   T
  8.2606375473504965 20.4994350681208672 11.6419113834783321   T   T   T
  8.3192314944689105 15.3632391084540973 17.7735029369611794   T   T   T
  3.7801905709960093 19.6291410533377579 18.3930766337916083   T   T   T
  5.0913300388922664 13.3030165412493968 12.1881520478737873   T   T   T
  1.3472518514511080  7.5186783198419835 20.6202949289764348   T   T   T
  7.0855542338585344 16.2926040268812748 12.3820310790155297   T   T   T
  7.5107860365073220 10.6040521494131728 18.5922348178416925   T   T   T
  8.4313257991198007 17.6782376019108440 15.1108000535848621   T   T   T
  3.1154023708159611 12.6926292229413704 10.2023331122646006   T   T   T
  4.7758266759306496 13.0925982838040529 22.8836607586272507   T   T   T
  9.7183782934146858 18.2840758881631587 11.7025723731742755   T   T   T
  7.8827482802932938 12.6991036314544612 15.3440951927434615   T   T   T
  4.4571809781266483 10.9855037797187958 13.2339200297254997   T   T   T
  0.7323291180208577 18.9260177331242900 18.2084710672572641   T   T   T
  5.3909708272007597 13.6529208648953340 18.4087585406716201   T   T   T
  2.0925340911674675 17.4722588448114386 15.8924443787096656   T   T   T
  3.0839322391486221 14.3222166101213642 14.3472638762465365   T   T   T
  5.3257225329183253 18.7368455654228008 13.1855584838803619   T   T   T
  6.2686167072637486 16.7279850929971126 19.3741178366150280   T   T   T
 10.1868850166877891 12.2442102814454081 18.4240825205425978   T   T   T
  7.5994398843370812 19.8087509283679672 14.5271856755003803   T   T   T
 12.0666118750682259 -3.3514677539620550 -4.6823388397948342   T   T   T
 10.4132821643091091  8.3017479869750623  8.8631367959218199   T   T   T
 18.1755969775851085  7.5712124487289785  4.7097748967490478   T   T   T
 19.6555944773793740  3.3483979757016140  7.4186124371547582   T   T   T
 12.9488545354916660  7.5098884030530551 10.0919868341132393   T   T   T
 11.9799672872579261  2.7287515062029386  5.0351342640255314   T   T   T
 14.7165086922937327  3.0543435580917304  8.4823556755911689   T   T   T
 17.7964225353354166  7.0583635192874716  0.3439702742251860   T   T   T
 18.0609276058528962  3.5381783527900081 10.0936982635126764   T   T   T
 15.6658930468495559  7.5419685649150665  2.3966391577718986   T   T   T
 14.6158916152953857  1.9295372700902869  3.7041930757113648   T   T   T
 11.7150046495408624  5.8555953922735497  6.9754615672171694   T   T   T
 20.5892340357055659  7.1760675932730775  2.4974963159894235   T   T   T
 16.5913805209289151  4.8364989391690614  8.1516276013153330   T   T   T
 13.5284828299600921  4.4986125392737319  1.7195182172910359   T   T   T
 12.2655736497474805 10.1401818310397438  8.1644414762329838   T   T   T
 17.4844979637484883  1.8557974942213311  5.7958363398847688   T   T   T
 18.1381988036527062  9.9697917569268810  1.6940345461372328   T   T   T
 12.7690985514294777 12.7911400868659637  0.1905056535659639   T   T   T
 11.6377652945108405  1.6042663645724593  0.5706214791247385   T   T   T
 10.1963922558354820  2.9706080473381418  2.9441378639475002   T   T   T
 14.6242774235797803  8.9162064421637215  6.8822334277192194   T   T   T
 18.0437461257104488  0.7653089056299084  8.3248902072922899   T   T   T
 17.6687423379002055  5.0929487522292964  2.7742126535112508   T   T   T
 16.3874418593245323 -4.1987549210158326 12.2157693186925798   T   T   T
 12.7457845056482135  9.9242186317412227 18.7466172438324534   T   T   T
 18.2274678062027178 10.3401369244181449 12.6185881381214671   T   T   T
 20.1486241024907358  2.5048588325467573 17.7677212770700166   T   T   T
 13.5458777009991316  9.1990831114901521 16.0836019822403458   T   T   T
 13.3462614134218160  2.1471889712648347 15.3639694820024779   T   T   T
 25.3144720944851827  6.9775070524188969 18.9453126315297951   T   T   T
 16.9551206783066704  5.5047415929619881 12.4431494707879775   T   T   T
 17.3562914587236676  1.3239570959976346 16.0211899099013522   T   T   T
 20.2717593401138458  8.1406667944748090 13.4756625734457334   T   T   T
 13.3133871746547694  4.5690953139266455 12.2241938071751637   T   T   T
 14.0870608861959052  5.5856325465407890 18.8529170121090033   T   T   T
 18.0113331605796034  7.8328282663808189 15.1036552587531752   T   T   T
 17.7338130204088600  0.4252945384687971 19.2155833845236756   T   T   T
 10.9163345461308801  3.3509346105513069 13.6771949172775571   T   T   T
 11.4100741577073741  7.3515827825291193 16.2151315742097779   T   T   T
 12.6677897980372762 -0.1496950635555545 23.7650794532169414   T   T   T
 15.6271603145569742  8.2104806452578689 13.4157162818383391   T   T   T
 12.7738152623379975  7.9402238356152681 20.3888057949186461   T   T   T
 13.8263673868457868  0.3071440770764280 13.3999854079907177   T   T   T
 15.4843118833235991  2.5445957068547749 13.1678846278449431   T   T   T
 15.5907699268870399  8.0272844498004368 17.7198118496906076   T   T   T
 16.7909044841093902  3.4361367609456290 20.2111621176410665   T   T   T
 17.4585862760192185  7.5213029867972523 10.5226749018658854   T   T   T
 12.3372726060583666 10.4304637169564547  2.2095110577625472   T   T   T
 12.9930424689310247 17.3775350047151100  5.4588502038091153   T   T   T
 19.8925316695424428 18.2885588736460925  1.5338712614962400   T   T   T
 19.3334488762323389 14.0892089879771678  6.5061533799811482   T   T   T
 14.9686511923955390 17.7639610206577068  8.5142159442812488   T   T   T
 15.0762135916799114 11.6394854019942109  3.3137651906499244   T   T   T
 15.7038223421449192 12.5688055705672745  7.2498675123004928   T   T   T
 19.0924160860543495 17.3292580011848045  4.4700201485663271   T   T   T
 17.6084739599171201 12.2872987993479494  5.0078650325385397   T   T   T
 18.2294852286372446 13.1562432975713595 -5.4070962290455578   T   T   T
 12.3502624761428308 18.9674600186457951  9.7850213836204993   T   T   T
 19.3151954801368646 20.2927753942012394 12.2277204715891621   T   T   T
 15.3007139785075381 23.6725009427106023 -2.7967500805280823   T   T   T
 17.7735814552307829 10.1602171385425688  7.5817422326830899   T   T   T
 12.1569253166894402 13.1458617352147638  4.8763683456974709   T   T   T
 13.6022438317024701 19.8452189081104571  6.6966631315643346   T   T   T
 20.4167352114165794 11.9205969990633953  8.6338763594564547   T   T   T
 17.8279860230357272 20.1984906592179811  2.6839220961810808   T   T   T
 10.5634313454036395 17.7443430532589872  7.4890080590568138   T   T   T
 14.5080919234222669 14.6767010537012883  1.9183114967825534   T   T   T
 10.7459150591062098 12.9998294386282662  2.3203129368460251   T   T   T
 13.3790508836831918 15.2770299514177097  7.9239037752331232   T   T   T
 17.4594158185260540 14.5156583937959205  8.9675070129849264   T   T   T
 16.5517949266605129 18.7712644860699633  4.5374409893756464   T   T   T
 11.7132969118111330 13.6869249214849109 14.8307395883416167   T   T   T
 12.5584506341509794 20.3173195438694556 18.5300608751450753   T   T   T
 20.7816724904427446 13.0323424813798798 12.2993335446999090   T   T   T
 16.6851117097495631 18.1457953953051572 21.4909850706212637   T   T   T
 14.5857822033016475 18.3694071321134942 16.7698350043142383   T   T   T
 14.2569473511344551 11.0338121640991655 12.8966756903036046   T   T   T
 19.9998646001772045 11.9474144181801947 19.2962211647295661   T   T   T
 11.7794521257461557 22.2698749438703594 10.8020308020568461   T   T   T
 16.0431909177932468 11.9387063630381860 17.7707547138782331   T   T   T
 15.7607797717784273 18.9619556791346433 12.9353296989265907   T   T   T
 12.5194268057044464 15.7635800665841188 13.1166873547307858   T   T   T
 13.3686625573305449 17.6541644403670794 20.3597551537400321   T   T   T
 17.8116131918971021 18.2748762334718009 10.5382606477441367   T   T   T
 19.7009385242082047 14.7340085673893029 17.2738213596824153   T   T   T
 14.9622349316636924 13.5994183040801389 11.1945113093891120   T   T   T
 10.3299514010731741 18.2673105331389642 18.2451003513364753   T   T   T
 17.2951071781061785 18.3845671134617348 15.2761444821532759   T   T   T
 19.7070500139276561 16.2127558874022881 13.3752185802458552   T   T   T
 18.1357807409191096 15.4506456541645694 22.6045666767705526   T   T   T
 11.3370521417905294 12.6217897495149192 11.4411837832306809   T   T   T
 14.7912266682036169 12.9873949342528849 14.3402463288976136   T   T   T
 13.4572111324444137 15.5932965984187550 18.3672364362014164   T   T   T
 17.5111255015374709 14.0761655654897080 19.3917988999675401   T   T   T
 23.5673001811964937 17.2564753032058853 20.4760234262872132   T   T   T
 -0.0521999446687713 -0.1768324272045626  4.9344680504993290   T   T   T
  5.1741417385337858  0.2711601054169499 -0.0872397276172156   T   T   T
  0.0281427478246254  4.5546524790844813  0.5156391870890685   T   T   T
  5.1629262810841139  5.0929399563834341  4.7668146196655190   T   T   T
 -0.0076472539415538 -0.2815211748403563 15.4728701954675039   T   T   T
  5.1945134768485506  0.0260054765939915 10.2967801629712223   T   T   T
 -0.3278400499534838  5.5112748624969754 10.7603446869279598   T   T   T
  5.3851634418515806  5.0085813895283566 15.3547881519396050   T   T   T
 -0.0244346333975446 10.2832729755884937  4.8499342269652423   T   T   T
  5.1124808403187840 10.4106518477457346 -0.3273858313831469   T   T   T
  0.0813561036512024 15.2170872048180481 -0.2325561861231868   T   T   T
  5.2849297637153265 15.5164760708774327  5.3294654110485977   T   T   T
 -0.1295145044054269 10.3038807250342810 15.8510136731745348   T   T   T
  4.9989480864309108  9.9773823721309505 10.5495766478732271   T   T   T
 -0.2276776488852785 15.1208288746615978  9.8409931874877827   T   T   T
  5.2911255477190160 15.4840044746600523 15.3791149511411991   T   T   T
 10.2020599280518756 -0.0984315387251405  5.3562625269016220   T   T   T
 15.1206607373640587  0.2051153208332428 -0.2219347424752861   T   T   T
 10.4204249610892958  4.9361257326130996 -0.1550225011718253   T   T   T
 14.9707120316588629  5.3250488330796202  5.2249800650215095   T   T   T
 10.5306820403079371  0.1674073747187543 15.3577444418508353   T   T   T
 15.2152615783855758  0.1334562506798386 10.1607182151197808   T   T   T
 10.2356712026151495  4.6168839493368274 10.5060573805317681   T   T   T
 15.2528890994607274  5.1969952762928999 15.3945194266675713   T   T   T
  9.8996222094132058 10.4021604309201336  5.0475099912232926   T   T   T
 15.4273837338902062 10.3464258629085268  0.0415578613903896   T   T   T
 10.2707078794950135 15.4109015119856618 -0.0156296557676410   T   T   T
 15.4784366725788303 15.4933688854057880  4.8392878388640321   T   T   T
 10.4324907797657698 10.3206926741019664 15.7225445762330587   T   T   T
 14.9493073417333004 10.1349787385460157 10.2700722709738450   T   T   T
 10.2989825584975829 15.4782971629365598 10.0368241651044769   T   T   T
 15.3001139619811983 15.6996395496417218 15.4460232854248716   T   T   T
  0.6711823237726514  0.9879688836753057  6.4223490533519545   T   T   T
  1.1855334828819168  9.0966413488445976  3.6986745676249204   T   T   T
  8.5516303813806385  9.1610701606395697  6.3112326951431861   T   T   T
  9.2481201065838849  1.2522660184434460  4.0576716030413689   T   T   T
  6.0053856812789812  1.7706346746474679  1.0755407706203124   T   T   T
  3.9480518325426748  1.2957153466369538  9.5021750247045791   T   T   T
  6.1466691531733844  8.8250491090684324  9.2462057343528556   T   T   T
  4.3753645025294068  9.0879087043086813  1.0535657547573318   T   T   T
  1.2917078772484178  5.8078894428097971  1.4281743574550827   T   T   T
  9.0288800809350622  4.0417050003766386  1.0933110304301592   T   T   T
  9.2357462572919076  6.1352389235976688  9.3982096489144915   T   T   T
  0.4707628135004591  3.9998660458260740  9.3253297703714768   T   T   T
  5.9849920610845730  6.4768554535053866  6.0016129986761824   T   T   T
  6.3894797098208489  4.0361877414612151  3.5643731747902550   T   T   T
  4.3082056663713937  3.8194698108060439  6.1029599650914061   T   T   T
  3.7572819325887865  5.8949039564602685  3.6178920306191209   T   T   T
  2.3013631250960542  2.4689004926085971  2.7444259224648029   T   T   T
  2.3927054790101185  7.6326782434602238  7.7456810278810826   T   T   T
  7.9534060291279260  7.7544245273383225  2.2574421640629732   T   T   T
  7.5990594337331023  2.8021005166405963  7.5956271562523634   T   T   T
  1.1121056671041776  0.6226459785468988 16.9049961049263473   T   T   T
  1.1805465228321539  9.1752165378398907 14.7342903443641760   T   T   T
  9.0763420672456547  9.2276293042181265 16.8148863837494460   T   T   T
  9.4133151099185266  1.4393654238272258 14.1026409426406083   T   T   T
  6.1978328575919281  1.2474635794448585 11.8600108701266684   T   T   T
  3.9629279386692891  1.1810763648657627 18.9817380930420612   T   T   T
  6.1821258628661964  8.9425790462061201 19.0943819260060721   T   T   T
  3.8581957685577506  9.0852555651503852 11.8791380879905653   T   T   T
  1.1720942551497864  6.4469020639812342 12.0235110068691782   T   T   T
  9.0730502098510879  3.6642208228129935 11.8358795794373179   T   T   T
  9.4871988651440144  6.0378676803241413 18.9510334875759767   T   T   T
  1.0916217163354907  3.2354874635388300 19.8420718626134445   T   T   T
  6.2686992905183470  6.5834971933673891 16.2590748705462076   T   T   T
  6.4538512479753747  3.8306298820063942 14.0452651331166543   T   T   T
  4.1345872550908371  3.8854871018038764 16.6902974422669459   T   T   T
  3.8994115232365467  6.0433276730501300 14.2045901468082807   T   T   T
  2.4418810190690738  2.6640098719438359 12.8203714575112802   T   T   T
  2.3231949180656972  7.5576139359012391 18.5039476049518115   T   T   T
  7.9048271943008519  7.7942967158611314 12.7872639265566637   T   T   T
  7.8160791424265552  2.7855122299593424 17.6535407297941447   T   T   T
  0.8653695142629019 11.6257759145618191  5.9649660405121763   T   T   T
  1.2441904223850873 19.2681877954582497  3.9213833830988625   T   T   T
  9.1068807909331095 19.6149273716089105  6.7444650702617484   T   T   T
  9.0088154623084353 11.6855290167242032  3.6422260272190905   T   T   T
  6.6574724021485183 11.3880909075026988  0.5157058330356944   T   T   T
  4.2174892517379758 11.0648604613539785  8.9065319221700019   T   T   T
  6.4840816093359308 19.2620818677199566  9.4344008251233973   T   T   T
  4.0966757185610483 19.6846658136719626  1.0544119134526382   T   T   T
  1.1781493136368775 16.0913513248229805  1.1580472041106067   T   T   T
  8.9520860580302521 14.2229063665116957  1.1176540701338817   T   T   T
  8.7975474990123068 16.4194730380755622  9.0065184538061800   T   T   T
  1.2260887005575858 13.9794002129218793  8.7997831764546000   T   T   T
  6.5660025669478630 16.6469429231550592  6.5450014173210533   T   T   T
  6.0931465842601140 14.1344393252410505  4.0639652238780188   T   T   T
  3.7231451831391063 14.7361107787268732  6.4950975406718428   T   T   T
  4.0021106604368573 16.8732027342863162  3.8496275944487728   T   T   T
  2.7315183220270622 12.4139334354221926  2.6573629686944940   T   T   T
  2.5843912823817008 18.2895997911375225  7.6195994983709170   T   T   T
  7.7973514542639863 18.1515486738923393  2.4176952142816814   T   T   T
  7.6352408971498384 12.8436643596743494  7.3654721361000677   T   T   T
  0.8112513770040192 11.5780458328924940 17.0824263575901583   T   T   T
  0.8594752207569453 19.0805248426515242 14.0524444052946791   T   T   T
  9.0060595231652769 19.6130804628129702 16.4836453204574767   T   T   T
  9.6318053826308923 11.5959437243463128 14.3849469247367736   T   T   T
  6.3173583205796389 11.1577091761980984 11.4746016451855439   T   T   T
  4.0700034552932838 11.4915031921150188 19.0937922149612618   T   T   T
  6.2996310093297430 19.5569338912734096 19.1682725168668782   T   T   T
  3.8389361941767941 19.4792082903173203 11.3923572933175929   T   T   T
  0.9775906349090844 16.5051116262049007 10.9500268169004293   T   T   T
  9.2276314139612658 14.0991769652126333 11.2262642560080614   T   T   T
  9.2975195390951235 16.7523490946947149 19.2768242543941000   T   T   T
  1.2077889286201251 13.9948942955494395 19.0244681306985157   T   T   T
  6.3573786285318805 16.6486447483628375 16.5293717955350559   T   T   T
  6.5196943319806584 14.4579900258521974 14.0169479327547197   T   T   T
  4.2365594801474602 14.1919028528458409 16.5642671381121573   T   T   T
  3.8429306596765076 16.4519417331981188 14.2047931114280619   T   T   T
  2.9364118852321934 12.5793783724133021 12.8323909579417190   T   T   T
  2.7397870032376725 17.7545767842485915 18.1655217767004373   T   T   T
  7.7493199959135204 18.3222991612593411 12.8612093772590974   T   T   T
  7.9570839286123496 13.0472168709587528 17.6183971670478456   T   T   T
 11.6424969679593673  0.8556407730649422  6.5585750626656516   T   T   T
 11.1879521648540532  9.0064729055449604  4.2055602010563673   T   T   T
 19.3774624781732925  9.0653342180982754  6.1963891330747058   T   T   T
 19.2368528211991716  0.9516427800553242  3.8888248901062918   T   T   T
 16.4857490271141316  1.2379959818192572  0.9295645306570653   T   T   T
 13.6217188559316789  1.1038618917057974  9.4378363763396553   T   T   T
 16.0617405308758521  9.0294012204536322  8.9493830609939700   T   T   T
 14.1742257186427736  9.2099487051349591  1.4504087001904473   T   T   T
 11.3729998751886860  6.1673292349044999  1.2604622865005932   T   T   T
 19.2563533891593153  3.4663490087565272  1.6771819859642718   T   T   T
 19.1584544303499484  6.6340967215058635  9.4028695033391827   T   T   T
 11.3378821184910237  3.5809966789628556  9.2020365367748980   T   T   T
 16.0912816501311013  6.7338331063877126  6.2521625297761139   T   T   T
 16.2048047141231493  3.9437870261682142  4.3425944539026036   T   T   T
 13.5655669952911815  4.2405647414236469  6.4006017627900427   T   T   T
 13.7421517470725583  6.2424291798953462  3.8597275559056041   T   T   T
 12.3270071719552714  2.5287320852944153  2.8053478606774700   T   T   T
 12.2618484403832610  7.9059022600191717  7.7478656418673646   T   T   T
 18.0877590595469186  7.4756857360380025  2.3999853440916605   T   T   T
 17.5924082314566945  2.8275677170876028  8.0205535019432705   T   T   T
 11.5684685420314164  1.5269508755815950 16.6764532424062963   T   T   T
 11.5630826572238377  8.8828304774523872 14.7805884586712715   T   T   T
 19.2013320879093854  8.9361950082308788 16.8081409555314352   T   T   T
 19.2360902621654688  1.1547151500219925 14.4435266862370906   T   T   T
 16.6051145548277219  1.0911919276539288 11.2628888850279338   T   T   T
 14.0667131449915708  1.5789073237886528 19.5311741176085150   T   T   T
 16.6528724503538896  8.9404817351753287 19.6870379959917656   T   T   T
 14.0807233349086012  8.9511308088232546 11.5847627511568838   T   T   T
 11.5001986081410532  5.7337527249024722 11.5972737436929361   T   T   T
 19.1503746473189267  4.4632936937038954 12.1305468812249604   T   T   T
 19.4139737736385740  6.0590525490073146 19.6049668114301028   T   T   T
 11.5809462782205674  3.4736227439930039 19.4766488793051664   T   T   T
 16.3563046416967097  6.2274037791363375 16.6655496388232294   T   T   T
 16.7181268656115236  3.9052613914976138 14.5000242741265133   T   T   T
 13.8123900083515156  4.3528261644488468 16.7315119397820879   T   T   T
 14.0662247628077814  6.2225266162197972 13.9802170362643494   T   T   T
 12.9819323448060029  2.4023951595098714 12.8225851668504269   T   T   T
 13.1650176521738054  7.6586261015858552 18.0108800131067497   T   T   T
 17.8996981531320785  7.8313356172307973 12.8771242599518594   T   T   T
 17.6970255620619312  2.6481798786743234 18.1708601744472205   T   T   T
 11.0789255613319479 11.6015827272585970  6.4694585045794044   T   T   T
 11.4493022696334101 18.9606017526526607  4.5406967162608671   T   T   T
 19.1223750076640542 19.1440029703726715  6.2273441820928870   T   T   T
 19.3345455794360248 11.2873499522529777  3.5430246229435443   T   T   T
 16.5997746234530865 11.8155458165022615  1.0439126369959433   T   T   T
 13.9995564529780392 11.3657348945109025  8.9971824046461890   T   T   T
 16.1793856741409030 19.7605206130882571  8.5850778003162969   T   T   T
 13.6553123105764715 19.7864940229885882  1.0815110780335884   T   T   T
 11.4192644596319486 16.4468864008324509  1.3063799452187899   T   T   T
 19.3127157209203162 13.9430456911328378  0.6600375238495642   T   T   T
 19.1014097043518376 16.1386345494159009  8.5758787913460974   T   T   T
 11.5749600092440694 14.1324552492627831  9.0999641190206670   T   T   T
 16.1716837515281213 16.8001943807179011  6.1201892440385741   T   T   T
 16.7023815345106854 14.3982590986864345  3.5804672654109253   T   T   T
 14.3911041623978839 14.2037415645445364  6.0030970562354398   T   T   T
 14.2842496886057546 16.6706932189830042  3.6021024125016625   T   T   T
 13.0676421557957561 12.7961145509277294  2.4402088484144566   T   T   T
 12.9063690228696064 17.6963113329247896  7.6800331749571100   T   T   T
 17.8108283221589474 18.0503675627621689  2.5842112061057625   T   T   T
 18.0301021656366416 12.6354563172075824  7.1822500381319268   T   T   T
 11.6647666617676915 11.7385234653114203 16.7301500212513119   T   T   T
 11.6645374963938604 19.3587874490538212 14.1962973357003097   T   T   T
 19.4428795977652129 19.0486523584293153 16.7013867423848765   T   T   T
 19.3684930495022272 11.4136969206984027 14.4570131370281114   T   T   T
 16.0814447947499417 11.5056312585527447 11.4783463814857871   T   T   T
 14.1625029221569356 11.4450373503943243 19.2664494945724272   T   T   T
 15.9820831422592970 19.1860645510406975 19.3326521178202313   T   T   T
 14.3097046871651372 19.3086343729199115 11.3882624130263057   T   T   T
 11.4648641229323207 17.0526359612075993 10.8922440329048733   T   T   T
 19.2227356884224037 13.7398486837401936 10.9247234785276195   T   T   T
 19.4442260685869854 16.6099083779118324 19.4212470896551181   T   T   T
 11.4491773194281414 14.0869165566273775 19.4853070965414119   T   T   T
 16.5871650024304316 16.5660120418832228 16.6995660597093547   T   T   T
 16.3355597243605359 14.7405569027051229 13.9438886625512861   T   T   T
 14.0940121254480690 14.3117941726881970 16.3153926331086012   T   T   T
 14.3936671538774092 17.2744654672114777 14.4302905161107642   T   T   T
 13.0803087450289190 13.0991946182108610 12.9201153794947583   T   T   T
 12.5358210132255667 17.9099015060483708 17.9972440981775463   T   T   T
 17.9388297177026885 17.9825635766361422 12.9015839728894761   T   T   T
 18.1227450764172673 13.0734826393403338 17.6223947103752110   T   T   T
  0.1170657813310598 -0.5501415494352011  0.2372342263961472   T   T   T
  5.5560738504496898  5.3627506167757506 -0.2496292619320107   T   T   T
  5.5213343797403525 -0.1043179903359780  5.7162247424586692   T   T   T
  0.4689422240524097  4.9573388154454872  5.5103424081141972   T   T   T
 -1.0037309572606536 -0.6392582602567868 10.0028923647718475   T   T   T
  5.3160988689833850  5.3966547694841047  9.7844392849983493   T   T   T
  5.4963442298867875  0.4532350971235743 15.3401489041614596   T   T   T
  0.1798367788710514  4.4706347197738827 16.0129711465321023   T   T   T
  0.4960330847341556 10.1611264726400066  0.5163607551459990   T   T   T
  5.1544571529555050 15.0775235050617038 -0.0663570187392609   T   T   T
  4.7474992509233083 10.4204908777428997  5.4840740427480315   T   T   T
 -0.1536032981770198 15.0703145887091257  4.5448024630932169   T   T   T
  0.7105872311160765 10.8980074329994512 10.7175640531998262   T   T   T
  5.3929927646834050 14.7257223347303015  9.9499654180386354   T   T   T
  4.7345980167847275  9.8638548661728507 15.2118858377142860   T   T   T
  0.5476865866322568 15.1443127399876172 15.1780405197886559   T   T   T
  9.8972358642124121 -0.0819650537878208 -0.2128526131276320   T   T   T
 15.2498452471770332  5.0408963456327767  0.3621854317708970   T   T   T
 15.2038565066097302 -0.0179363424796965  5.0148091732814821   T   T   T
 10.1316384273635567  5.0421511246039037  5.2415125168521470   T   T   T
 10.0965250123762189 -0.0476264406143820 10.0935187811845068   T   T   T
 15.6362370892921323  5.4753503291532368 10.1969484504317851   T   T   T
 15.1676964421382099  0.6840351349498554 15.2007190589131866   T   T   T