Li P  S  Cl
 1.0000000000000000
    20.5609999999999999    0.0000000000000000    0.0000000000000013
     0.0000000000000033   20.5609999999999999    0.0000000000000013
     0.0000000000000000    0.0000000000000000   20.5609999999999999
 Li  P   S   Cl 
 191  32 160  32
Selective dynamics
Cartesian
  1.2935579171051343  1.1303176405118469  1.8120230285651053   T   T   T
  0.3495125329318394  7.1269256313866691  7.6446245365827554   T   T   T
 10.0526031427197431  7.4456379130197190  2.7885630737228935   T   T   T
  0.3980573632409230  1.6469106077080002 12.2292599233922843   T   T   T
  2.9694293123305684  9.8543227051289630  6.9349356169970955   T   T   T
  4.1284350511740131  0.5330481256148742  3.0210268118028045   T   T   T
  7.9334355807689541  2.7717505317700644  5.2790298871907977   T   T   T
  6.6040240748875334  5.6816493406449151  1.7303279175264739   T   T   T
  9.9681777957642979  2.7275269382182552  7.9104122848970402   T   T   T
  8.1859274018706145  8.9158199574806805  0.6422283574423342   T   T   T
  2.5454564396684289 -3.1054462799559683  4.8615547143679620   T   T   T
  2.9051044800385255  5.6229514465217889  8.8249311552814280   T   T   T
  5.2706418373915644  8.2711045436588577  3.1265930181361399   T   T   T
  7.4057627077847510  2.7714868304327931  9.9562457278669196   T   T   T
  0.3092433638462682  3.3707058883594927  3.1472920010523429   T   T   T
  4.7096378928319478  7.4131093804149044  7.9481791340012009   T   T   T
  8.1163155745356601  4.8846957528461878  7.1045298153062024   T   T   T
  7.8579917213191752 10.2007177374741893  2.9344270552738947   T   T   T
  1.7879404678433166  8.8701960879874626  9.8908880461727549   T   T   T
  3.2116485369137791  3.1617635056993292  0.5202241307970817   T   T   T
  3.1678428542169845  4.8144137588793301  2.5716302251297454   T   T   T
  2.0490920581669507  7.0390094416385498  5.5406816579248748   T   T   T
  5.2245579671393987  2.8009207419227362  7.6415888622620036   T   T   T
  8.2154287755789941  7.2698728125897718  5.0032090161101239   T   T   T
  3.7852775863606127  2.7436626059640794 14.6980463783489466   T   T   T
  2.7957233882497357  5.5165608005281737 18.4463528752501418   T   T   T
  7.5611744714755220  8.5389649095936822 15.3744172067761582   T   T   T
  7.7900968451951913  5.4560412061526513 18.4817994990211147   T   T   T
  5.0065715414748970  8.0906894959714002 17.6589922893661324   T   T   T
  3.0001196872685196  0.3333475113382350 12.8220728097229006   T   T   T
  8.1436540692631674  3.2003436843611772 15.6846939108933228   T   T   T
  8.3355652891283984  8.0683772394444517 10.6893638319297022   T   T   T
  9.9269131916172046  2.6042168327962960 18.1354379939310206   T   T   T
 10.1156444362645050  8.9901055697119840 12.5137276258855152   T   T   T
  3.6545758641941233  2.5888600285070549 10.7491853308505725   T   T   T
  0.1411123624230059  7.0507145786153353 17.7106198334416831   T   T   T
  8.5778453896018885  5.7036824220012603 13.3452151660309344   T   T   T
  8.4696076486498946  2.3267161974720496 20.2681156444154809   T   T   T
  2.6265056795707986  4.9106829449375526 12.1348144877742481   T   T   T
  3.5179151474981150  7.5321302646471384 20.1997948581388371   T   T   T
  7.6303880335463532  0.3465358395416220 17.9882612451215493   T   T   T
  6.0025067504910714  7.3666086463006533 11.2164278346057102   T   T   T
  2.5155238205695629  7.7890913991303119 15.7324504252833410   T   T   T
 -3.9968310397348752  1.1990267429735013 16.7868897748468981   T   T   T
  0.3324980842921881  3.1215393981884603 14.5728008609281048   T   T   T
  1.5262478576279799  9.8133398017075315 18.4056850941664081   T   T   T
  5.5611429530616663  2.9232739577577291 17.7094913418016873   T   T   T
  5.9585677594835031  9.0855463287446820 13.1948521844290081   T   T   T
  2.4127265350259726 14.7167912240598273  3.9304683881369447   T   T   T
  3.3574240033991058 15.5451016772956851  8.2121006278056967   T   T   T
  7.3196343860531687 20.9263063690286728  7.4253683690507204   T   T   T
  8.1692662470545407 10.4905749404717099  7.6374540922415424   T   T   T
  5.2258637935304311 18.1997828994360198  6.6021857232418641   T   T   T
  0.2471832438852677 13.5479218922427176  2.7230236309883380   T   T   T
  7.5682282593653873 12.8313750177931016 10.0992468201318335   T   T   T
  5.3498002059106176 17.4628373995023836  1.7424795084021132   T   T   T
  5.3389446611956446 12.0045432537913168  7.1123324478861196   T   T   T
  7.7732602631525252 17.8212733469903633  0.0745847366053924   T   T   T
  2.8150606507709424 12.0225265878355607  4.7194093069456597   T   T   T
  5.8005889315863204 18.3836333178161020 14.5763594587322185   T   T   T
  6.6716325638633442 15.1678155282816967  1.8574002213419785   T   T   T
  7.0587185389761347 14.8551342114084441  8.3193984422508898   T   T   T
  4.4963750055041629 12.5742131746527050  1.6952196278433149   T   T   T
  2.2551696782837221 17.9672729514544720  9.6005814953521345   T   T   T
  8.2000806343038946 13.8115302311495309  5.4525002922607344   T   T   T
  9.4732465152215255 17.3631846068095435  3.6846595315530193   T   T   T
  2.3854387403012156 19.9787850268323020  6.7596471199752433   T   T   T
  2.0964200631427063 10.6367617601724014  2.3697188942341145   T   T   T
  1.6561359744161306 12.9696781747070862  0.2089074164624557   T   T   T
  0.5461147646944164 17.6862629229221007  7.6053120512153320   T   T   T
  9.8988372327977299 13.1359399190500206  7.9298747995027279   T   T   T
  7.0962671462679250 19.5476554589139546  4.1587012378131059   T   T   T
  1.9855913402831260 15.4261184890818086 13.3239387240407634   T   T   T
  0.3368529055979951 17.1564507604157406 17.8430042460217564   T   T   T
  8.2119125178203376 18.1347379911446112 10.6689974905313001   T   T   T
 10.0544282147943562 14.4104317215778313 17.8799202948273788   T   T   T
  2.4818748543708797 19.9958934534630792 19.6237139943134835   T   T   T
  2.8957841575320895 12.9682202906368360 15.3304648837845754   T   T   T
  6.2965824061727513 15.0404958873485466 18.6528151960893993   T   T   T
  7.4835305934866359 20.2269242502209394 12.6967176468178629   T   T   T
  7.3361921534615302 12.6557900383353203 20.4540554980561566   T   T   T
  9.9821288795674015 18.7691551411757551 12.9899923839993932   T   T   T
  2.0912299161919643 12.7922090222774152 10.3757172709571126   T   T   T
  2.8309776676942127 16.6881752242298838 19.8765904870924217   T   T   T
  5.9581895088626791 16.6718641706139081 12.1428251472644355   T   T   T
  9.3403209597078227 10.9628400333308189 18.1946903081979272   T   T   T
  0.0886594934984641 12.6339296608271550 12.7583409658988920   T   T   T
  3.3190390249664050 20.4295687177834360 16.9923402223272504   T   T   T
  7.6016147482281431 12.6270321454174219 16.0344449445606330   T   T   T
  4.8377501909232521 17.9319063841389443 17.3260249232603343   T   T   T
  4.8030118539002400 13.7537875683983550 12.4462823489616632   T   T   T
  2.8838930746284177 10.7989423909746556 12.8504327061550612   T   T   T
  2.2609066302723315 18.0339229049230312 15.5722380605409736   T   T   T
  5.7612637295756928 11.9259156104661255 17.8293358075907449   T   T   T
  8.3236894536783108 16.7186697817376491 15.0743815674217263   T   T   T
 13.2009455241233713  3.7690635443447773  0.3908668823730576   T   T   T
 14.9329563904673055  6.9358068296300290  8.7120219445225722   T   T   T
 17.3243688493703338  8.2063050139509848  4.9246896833943925   T   T   T
 17.6797881743696479  2.2747564834923457 10.1386193890338578   T   T   T
 11.7985927731497586  5.3218176579948961  7.2143347182874109   T   T   T
 15.2215879995386878  3.4375186066070729  2.7300798099436014   T   T   T
 20.6279642680326454  2.0223833383555792  8.3666799172692787   T   T   T
 17.1030188422400826 10.1666180001252471  3.0642268773018646   T   T   T
 16.6136777965348976  2.0233525372955516  5.9424783523245113   T   T   T
 17.6421964834747342  5.7503989768922334  1.7425068473875702   T   T   T
 12.9746604158482519  0.6213230583517561  1.7127591476574078   T   T   T
 12.5772279896506323  6.2882411596110979  9.8255221176642333   T   T   T
 23.2085530557793156  2.8606232193315599  5.0403711557862891   T   T   T
 19.5753534109402274  4.2839192007546592  6.7907602739078339   T   T   T
 11.8742311422285614  4.5568777840323840  2.8857601886339102   T   T   T
 13.3083739491664126  8.3633369871310936  6.1321120522049659   T   T   T
 18.5121312608709907  0.1655328774387606  8.2689543962764525   T   T   T
 19.0524982390239543  8.8536669487556150  0.5827068796578674   T   T   T
 12.5807639706223906  9.3755972472901217  9.4060441749495460   T   T   T
 12.8426907458998034  2.4865599072476763  4.9481904731738391   T   T   T
  9.3938987816264241 -0.5986364635679784  1.8012165629939418   T   T   T
 10.3383474405917895  7.9651227750590525  7.7317828402136479   T   T   T
 17.1695874433416549  4.8185974330155901  8.3074687128667950   T   T   T
 15.5435132035252686  7.6042760281215056  2.3243205291047082   T   T   T
 14.3992953324039963  2.4771009073300356 10.8786264857071870   T   T   T
 14.2534253051295732  5.7339235490940430 17.7493103483479473   T   T   T
 18.2788969467303382  8.2101532159346373 10.5641200607068431   T   T   T
 16.2647898048846855  3.0974297662134136 19.4979025640019970   T   T   T
 11.1367495696618484  8.2296872788466455 18.3159563035936372   T   T   T
 11.7479736021460717  2.4889606835969071 14.9046060431723202   T   T   T
 20.2302284474825029  3.0344004835937328 17.9095366611150268   T   T   T
 20.4143539091105417  8.5332577512327514 12.0860948306855178   T   T   T
 18.9875581898337664  2.1372939676818841 20.3297262334548776   T   T   T
 17.7086990129579469 10.4396397209113765 12.7065995551350426   T   T   T
 12.5946938451616983 -0.0216043286844172 12.8094040880119984   T   T   T
 13.5801292812833712  9.5424804155911254 16.6055839857021468   T   T   T
 18.9177534824449438  6.7458778202127032 14.9852892203601442   T   T   T
 13.7638030178343289 -4.7655647952910094 17.9046552360463878   T   T   T
 11.1365790530045974  1.8943253316212982 11.1920369017784385   T   T   T
 12.5512502407079030  6.5192558482644394 16.0745627286303971   T   T   T
 19.0315815509435673  0.2361474011217633 18.5023224848059726   T   T   T
 16.3311392776735680  7.8029335099570023 14.3603338564400538   T   T   T
 13.4116845766799901  7.3254562693687895 20.1589101317519521   T   T   T
 15.0904427289225875  1.6301744745874254 13.7466545233567317   T   T   T
 12.2865320609012709  4.5307991109971235 13.5047339792471117   T   T   T
 12.2078092680078427 15.0137091989981499 23.8204236734692429   T   T   T
 17.8292408702805361  4.3546914804391657 16.5700758429982571   T   T   T
 18.0833760801278238  5.8714628324296347 12.1825798811491115   T   T   T
 20.1112295381147241  7.4422646135789705  3.3723874019383180   T   T   T
 13.4124619622118448 15.9002272188335247  7.7786014715471117   T   T   T
 20.4667384593000818 18.1869860036324980  2.5785180942088628   T   T   T
 17.8643244714649292 13.1314736234957454  5.2270538060718907   T   T   T
 11.9730655156383801 18.4576083249103142  9.9910286329725881   T   T   T
 12.5675644176851602 10.6781531015101905  2.3246188891593431   T   T   T
 16.1695340863697403 11.4194801771712502  7.0065342122354171   T   T   T
 15.5178669928703723 18.1337058396069644  2.4466908109055101   T   T   T
 16.8021932227242843 14.9330812071784500  7.3501927262681681   T   T   T
 18.0406350187742355 15.7989012555543464  2.5123489478269545   T   T   T
 13.1018060068011835 12.6924448769769622  0.4923303521237395   T   T   T
 12.3846219090131520 20.4308695524162545  7.9314113417283689   T   T   T
 18.1956251496232682 20.7248342790195998  2.0114324600764650   T   T   T
 17.0157146709332956 13.7188159094350386  9.6686825905581983   T   T   T
 15.0464375353784643 12.9952947979878459  3.1926977848443459   T   T   T
 12.5872607998156347 17.9161038130608503  5.1542835027061269   T   T   T
 19.0046938947808179 10.7964792352321535  8.2814076700249224   T   T   T
 17.8618568222442953 19.1022560306615716  4.9883627709807996   T   T   T
 15.1867211490088820 19.1189506318083886  6.8234063085985115   T   T   T
 10.5768895110142118 12.1398210169205747  1.4873279531375481   T   T   T
 11.7851418373808485 12.9503062520802121  4.8958226107076701   T   T   T
 10.2990566272212458 16.7456835239485642  7.1308938914556377   T   T   T
 19.9206191699067965 13.6343883691384491  7.2724227828679124   T   T   T
 17.7831851863232870 17.8103494390107677  0.3409965029117749   T   T   T
 10.7046888567768494 12.0549226461342567 12.1294251487382692   T   T   T
 12.4440836502318621 17.8518115206678587 15.7676016771173995   T   T   T
 19.7939355778887069 19.5025520029348698 11.8295968086208951   T   T   T
 19.0349147872036220 12.2466426705560423 19.9537441092551049   T   T   T
 15.4521886186783650 18.4475221232122841 17.4676608358747529   T   T   T
 13.0005925363388197 12.4747151900474815  9.9736681152168867   T   T   T
 16.5020850608241503 12.4139738880523787 16.3478333736899870   T   T   T
 19.6495496117825539 18.0059508649663726 14.2586410988686794   T   T   T
 15.9003646288404763 12.7041115176757060 19.4420191702499778   T   T   T
 16.0451895140750196 18.2217487212847082 14.4939890337951027   T   T   T
 14.9136268179599014 13.0434892944693583 13.0538335321420380   T   T   T
 10.7172431141508291 17.4260422635166954 17.8572431353174892   T   T   T
 18.7237706749012354 15.6509715440507780 12.9264309482835049   T   T   T
 18.0568682542260817 10.2088035342330858 17.8241695172334147   T   T   T
 13.5972537104667826 10.2401284443217993 12.8801508420786472   T   T   T
 13.2794529236673924 16.9983681724574538 20.7350653532437477   T   T   T
 17.5831400637642901 14.9288024354437656 18.7390244808421471   T   T   T
 16.5777441697387786 17.8245420692118657 11.1891377352527144   T   T   T
 10.5547674538438194 22.3408635124016328 22.6311405689642129   T   T   T
 12.6141749101484084 13.2028446595631799 14.9264855839465032   T   T   T
 13.2637438878900848 15.1850960915071127 11.7573168374135619   T   T   T
 12.2621666942780809 19.8619324458865485 18.8397507024781206   T   T   T
 19.5594532478929359 13.6528921828847185 16.5127141301917604   T   T   T
 17.8358970504759640 20.5116308364294575 13.4808297563863260   T   T   T
  0.1028335606825434  0.2811141394128610  4.9766338423727934   T   T   T
  5.1808410732351433 -0.0156444011542185 -0.1138772510190694   T   T   T
  0.0863715643650394  5.2246908158941254  0.0942017233975939   T   T   T
  5.0213442193485953  5.3289517839084128  5.3213953868080655   T   T   T
  0.1865401123084801  0.1009899506948293 15.2287754494490049   T   T   T
  4.9748763503526190 -0.0404485967893025  9.8813394766650369   T   T   T
 -0.2309374600562578  5.0131069577690370 10.3170957882700165   T   T   T
  5.2423965888222899  5.3139289877223579 15.3663363112763562   T   T   T
  0.0471910111171249 10.2705242194448534  5.0153941081593070   T   T   T
  4.8515792007194367 10.1387033286476136  0.1249963452984033   T   T   T
 -0.1647848863704985 15.7334254751168725 -0.1486829239703667   T   T   T
  5.1018992901661742 15.1310657654542435  5.1228848507787426   T   T   T
  0.0217067998304272 10.3658775073580482 15.3569533720741802   T   T   T
  4.9865917305283487 10.2940197047920385 10.2918684096720714   T   T   T
 -0.1209146734021146 15.5517124227191523  9.8998771456123027   T   T   T
  5.1424122334929416 15.3804423730917144 15.6081988195780355   T   T   T
 10.1931391371295721 -0.0514946300213896  4.9564273416809739   T   T   T
 15.5716648692059820  0.0326477797795058 -0.5954934051572441   T   T   T
 10.3414921978214061  5.3407729672656670 -0.0043866151425763   T   T   T
 15.2093275151640537  5.1513108614243954  5.2162194150073615   T   T   T
 10.0572428877784095 -0.0489392634552973 15.7414246570131908   T   T   T
 15.3678019239140813 -0.0457922309962100 10.3112143251231760   T   T   T
  9.8879376078923631  4.9581599774438310 10.4990572890714482   T   T   T
 15.2942973174758006  4.9374599801320116 14.9937135624233857   T   T   T
 10.3459799547614431 10.2894297797723233  5.0299163785400767   T   T   T
 15.0992214820269997 10.1710686891239099  0.1287977291048662   T   T   T
 10.2782148841610024 15.1420444462792343  0.3148656129366189   T   T   T
 15.2655930111298215 15.5047016969019626  4.8506315224284338   T   T   T
 10.6616628204222277 10.1325226377783970 15.3783889736107522   T   T   T
 15.5815572767078034 10.3364740001231628  9.9371618818088301   T   T   T
 10.5120725033211393 15.3426433008758494 10.4578810821740120   T   T   T
 15.5672929406726279 15.5366666853341631 14.9043339138773181   T   T   T
  1.2000721492221140  1.4780674741780397  6.1766495797286280   T   T   T
  1.3454952879805131  9.0177154501527568  3.9664450966543670   T   T   T
  9.2108760874161657  8.9002679009637777  6.1263606300027389   T   T   T
  8.9550954993953056  1.1176399469626332  3.8590313845019688   T   T   T
  6.3563414794686972  0.9469269010105656  1.2349010416210180   T   T   T
  4.0346527996863069  1.0321993335190494  8.4937458080261923   T   T   T
  6.1377460359964360  9.1690429098183728  8.9913559741987203   T   T   T
  3.5113145191573838  9.1187898990279326  1.3258154162566094   T   T   T
  1.2478394674479685  6.2450010725055822  1.4037443731621428   T   T   T
  9.0605317034474933  4.1794809660590335  1.0955983734016748   T   T   T
  8.3756244435027334  5.9230434323822552  9.5486194304271859   T   T   T
  1.0295769818166964  4.0900417453149007  8.9891655690748546   T   T   T
  6.4248064614755291  6.4438491261229576  6.2686432597044268   T   T   T
  5.7269609316749897  4.0863197851502067  3.8153214466681109   T   T   T
  3.6909825196780424  4.5003328985484794  6.6953800696517662   T   T   T
  3.8013694706736461  6.5162244701942580  4.1057422840890174   T   T   T
  2.6807364198965611  2.7141691877815952  2.7948941322227570   T   T   T
  2.4502900459280621  7.7456566208680799  7.8435355868738057   T   T   T
  7.6254423250590753  7.8050350690270820  2.7964341049260577   T   T   T
  7.8669452267160302  2.5953944939248084  7.4573221890306085   T   T   T
  1.5665043480071144  1.3277594471919059 16.2303546536112790   T   T   T
  1.3652652645950751  9.1783908491192943 14.1752360797813370   T   T   T
  9.5038370341032294  9.1491045455498980 16.8246127156372154   T   T   T
  8.7216679106803969  0.8527255844507594 14.6374930924444460   T   T   T
  6.0373251570658590  1.0389241438702299 11.2847134960500064   T   T   T
  3.9611228885708312  1.3625956673166191 19.0962418104943907   T   T   T
  6.0092682257979142  9.0042045890135878 19.5415376653872457   T   T   T
  4.0892220272417559  8.9232222902660201 11.3644707820065509   T   T   T
  0.9163757901152062  6.2694654519400279 11.5062673039940027   T   T   T
  9.0965329930476191  3.4344527865967804 11.5317146256938425   T   T   T
  9.2453838037675347  6.7028919776449882 19.5772383539344688   T   T   T
  1.2755407767957971  3.9214112434048629 19.6883447037631996   T   T   T
  6.5842755869521259  6.3646795106343887 16.5306604623298483   T   T   T
  6.3287497759039146  4.0059198501366193 14.2936889441737893   T   T   T
  3.9054682898985975  4.2275547487940948 16.6715502871703904   T   T   T
  3.9396269154729717  6.4590558829895288 14.3571935139786735   T   T   T
  2.3209767905800267  2.7046707113303046 12.7457021893751588   T   T   T
  2.7505091248648124  7.7178556750536078 17.9433174575016281   T   T   T
  7.7614591530164896  7.8394431441582713 12.8883717404166092   T   T   T
  7.6799985337621388  2.8195755121426980 18.1831207790803475   T   T   T
  1.1427789903733576 11.2921307575432532  6.4903823559910734   T   T   T
  1.5950171489472866 19.8268611814416040  3.8826512426976398   T   T   T
  8.9445955880643808 19.3195532087082675  6.0133037742209119   T   T   T
  9.1602350648799629 11.5624669866074239  3.9756916083302261   T   T   T
  6.2135372446709631 11.0852710419469105  1.2679761969354084   T   T   T
  3.6652746531578373 11.5108595121246360  9.1251167445327486   T   T   T
  6.3422053122506661 19.0872307880939331  8.9577376828541908   T   T   T
  3.7392747321502999 19.5581416057725228  0.9395677252962076   T   T   T
  0.9851156949955890 16.8904930800130089  0.8962963812605687   T   T   T
  8.9179347843416910 14.1107876458617287  1.3455779383671811   T   T   T
  9.1215993791929861 16.3496200775385105  9.1380122352323472   T   T   T
  1.3271956589032834 14.4929558018505631  8.5256199762782074   T   T   T
  6.2276824213185309 16.2468264338579687  6.5022591832996763   T   T   T
  6.3325106132612454 13.7563805034249977  4.0846039998246342   T   T   T
  3.6651288066800558 14.0023010453002463  6.2348682663437529   T   T   T
  4.1835604778862026 16.4576408926007360  3.8199351212031676   T   T   T
  2.4495937814543280 12.8914210105771456  2.5136021684471146   T   T   T
  2.7962709737149201 17.7429328045169363  7.2560544450420155   T   T   T
  7.5199631657416859 17.8453345502967977  2.4643931149196145   T   T   T
  7.8239132524435684 12.6159910149363856  7.7862125791988674   T   T   T
  1.0348188942168683 11.6719554223343636 16.5257886545475046   T   T   T
  1.1011570516968592 19.3773199112394003 13.6477766595850198   T   T   T
  9.0578236546563122 19.1943822773367465 16.9590999806398628   T   T   T
  9.3288165066920570 10.9268767790009491 13.9328667632043146   T   T   T
  6.1013030257113376 11.4783701768923034 11.4786839719110798   T   T   T
  3.6875725965141015 11.7589665034839559 19.5888885551720051   T   T   T
  5.9831440613763576 19.2712708069524297 19.1556627935177133   T   T   T
  3.6316855460710942 19.3154239097476115 10.8569007695213209   T   T   T
  0.9609189545697445 16.6338172315127188 11.2371868755742046   T   T   T
  9.3140230091606071 14.0336893462947856 11.4150268108428072   T   T   T
  9.2753018629023973 16.2481092167024102 19.3603162426369977   T   T   T
  0.9970035425725544 14.8477093726138119 18.9678988586423074   T   T   T
  6.5069579518277099 16.5399905829172944 16.5862753808052332   T   T   T
  6.4397388089052923 14.5423443478189629 14.2394265964447779   T   T   T
  4.0264525591832907 14.1774968201797993 16.8070619733204083   T   T   T
  3.9692735392703478 16.7321951524940467 14.4195999901925020   T   T   T
  2.3978229126260064 13.0863739578566367 13.0328619484852677   T   T   T
  2.5848929920827732 18.1538506944917515 17.9839041413220713   T   T   T
  7.5993836846425609 18.0435290008332316 12.7870909109706119   T   T   T
  7.7867649509779744 12.8913151078496231 18.1751277421647970   T   T   T
 11.3947438567177439  1.1798313382556842  6.1762881975785033   T   T   T
 11.6917146562924170  9.2173701551753879  3.8647374784710324   T   T   T
 19.3881849994298676  8.6860099128084567  5.9438350993346916   T   T   T
 19.3564023021085738  1.3912036638026855  3.9134912916998505   T   T   T
 16.6791776942072403  1.2999107045610228  0.6964827580357056   T   T   T
 14.2768300308925333  1.1724118584601682  9.0246444956984604   T   T   T
 17.0191883118363734  9.5065008672900753  8.7378080636934783   T   T   T
 14.0910988430868347  8.9449287835142197  1.4219037218945905   T   T   T
 11.5550804063008883  6.3114671838840275  1.2710927227672850   T   T   T
 19.4195555084972469  3.8999889434392436  1.2775855320258311   T   T   T
 18.9731619090021049  6.2169256052765878  9.3054761690368792   T   T   T
 11.2743750118175932  4.1350805067864753  9.1230238577667038   T   T   T
 16.1753676485332392  6.5319886833547471  6.5498144247060361   T   T   T
 16.6319238292724734  4.1605381128267913  4.2276836365550201   T   T   T
 13.9443097831294889  3.9191957627570222  6.4086363926749614   T   T   T
 14.0523300596785141  6.1051292306818947  3.8353961912556795   T   T   T
 13.0726845394221414  2.7277731320096015  2.6687637776574036   T   T   T
 12.4363118180076704  7.3629377082563865  7.9921399558894253   T   T   T
 17.7639584037543514  7.9911379109296199  2.5967467982610257   T   T   T
 18.2051239354943384  2.5710449615058080  7.7623570686339027   T   T   T
 11.1425575802906671  1.1156072867117928 16.9740176865038634   T   T   T
 11.9896145801676504  9.0037428176742029 14.3288283762469426   T   T   T
 19.5775260346823252  8.8569878666713162 16.6514905753821267   T   T   T
 19.5623847684982088  1.3920374705082288 14.1053998931189941   T   T   T
 16.3842232986383003  1.1915096873170212 11.5680846201103478   T   T   T
 14.5265575635049355  1.1337423306544172 18.7382732564011647   T   T   T
 16.5144220414580047  9.0691430207709924 19.8373230755653580   T   T   T
 14.7306998897077115  8.8917797086853358 11.1405285849207125   T   T   T
 10.9904114466476770  6.1815457663943727 11.8556949070715110   T   T   T
 19.2121944408998395  3.7666622868657269 11.5859459364903294   T   T   T
 19.5024010149525253  6.5855962086321886 19.7674857553917320   T   T   T
 11.6022554505763775  4.1507121529048936 19.3072177269539011   T   T   T
 16.4902466134714878  6.2356547156436646 16.1923603143907968   T   T   T
 16.6447718491479009  3.5500777226939828 14.0994280593867778   T   T   T
 14.0915267278517025  3.8531329653626472 16.1911799105082252   T   T   T
 14.0499497382219065  6.1088103957509610 13.8635982708984429   T   T   T
 12.8115984383505737  2.2713049208950356 12.5099396712371398   T   T   T
 13.1136441568879523  7.7134424674041471 18.0959073951343044   T   T   T
 18.5179188519515208  7.9945046204285637 12.9817480885757099   T   T   T
 18.2214983268414628  2.4215425251996034 18.1007400764561908   T   T   T
 11.4723002867653818 11.2803508595182027  6.3704826113425250   T   T   T
 11.3698811745109509 19.5476458841181291  3.5686068556295831   T   T   T
 19.7558383483298776 19.4574121700448117  6.4750954382857326   T   T   T
 19.6069686102696608 11.5014701622840114  3.6806488094399130   T   T   T
 16.0863313503238956 11.8033882989278869  1.1385041741197883   T   T   T
 14.2102850804152343 11.1342226642811148  8.6524421948179260   T   T   T
 16.5912150186958627 19.3617060965031094  9.0866949942991102   T   T   T
 14.3414912692016063 19.4739268396635588  0.6614840408179484   T   T   T
 11.2515610092665703 16.5226535773518215  1.4128176040494409   T   T   T
 19.4487025192885561 14.1650240709359228  0.8923239700176183   T   T   T
 19.2511792819333785 16.5615889469258235  8.6890674295973263   T   T   T
 11.7733117523078477 14.4337511172183799  8.9721443670262833   T   T   T
 16.0123433153244257 16.8304657657172108  6.0844711118596946   T   T   T
 16.7067625444690719 14.5110731308020906  3.7540465497105227   T   T   T
 14.1568483543461294 14.2045070266697593  5.9898654824081383   T   T   T
 14.0230601515617366 16.6085535085981171  3.6025775905483619   T   T   T
 12.5243523186585932 12.9393536841422208  2.6139600888560293   T   T   T
 12.3334064840248221 18.0504262299586813  7.5516258300297912   T   T   T
 17.8784560547921920 18.1330765559184393  2.7653230566401255   T   T   T
 17.9795500798915171 12.8186711096744297  7.5141380589203335   T   T   T
 11.7235652288648495 11.5881553979049183 16.3059818834965498   T   T   T
 11.4591208213262501 19.3455242645336547 14.5381472517382964   T   T   T
 19.9030934001964681 19.3311008000030533 16.5515392549498443   T   T   T
 19.1724245020789468 11.5941412849020047 14.5155522199904645   T   T   T
 16.3940967263961497 11.8256576809258824 11.2351061249955695   T   T   T
 13.9239841581478281 11.2397257307034781 19.3776045065463620   T   T   T
 17.0490284984677665 19.3527491792898694 19.0577594056569168   T   T   T
 14.2381067788990610 19.2565736342839173 11.3921209287298435   T   T   T
 11.5343167959545809 16.6491876758185740 11.6250546545182711   T   T   T
 19.1640327696602917 14.1724938186558838 10.8334949305624839   T   T   T
 19.0060797943134681 16.7202159712200675 19.1780094730900856   T   T   T
 11.5235483674376962 13.9463076182437806 19.6720038032307230   T   T   T
 16.7516588022375537 16.6007388355970065 16.2474029543973302   T   T   T
 16.7231185948204271 14.2184147733415838 13.8995875499077428   T   T   T
 14.6206349046293820 14.1124663483700772 16.2770763921794099   T   T   T
 14.2649013984200135 16.4510480160927486 13.7109920380186683   T   T   T
 12.8404285672150884 12.5565174777331059 12.2177553954403226   T   T   T
 13.0115920409256312 17.8127366975705712 17.9142589331658826   T   T   T
 18.0588907237395091 18.2751977330113213 12.9015830456394465   T   T   T
 17.9550713488274845 12.6421988697890786 17.9940701415129638   T   T   T
 -0.0411754308165787  0.0780643179059112 -0.1129600826251657   T   T   T
  4.7795905087971846  5.3662571451387242  0.4121081608896262   T   T   T
  5.4211075230382972 -0.2614633665536447  5.0565259358132035   T   T   T
  0.1297683481958089  5.3487496551602440  4.9703070996089460   T   T   T
 -0.7601663573841423  0.7037174318743807 10.1676195086557684   T   T   T
  4.7634602033005864  5.2467804928857742 10.4829356544276493   T   T   T
  4.8641478017743953  0.0364595200017459 14.7973508027079070   T   T   T
 -0.3127163040862451  5.0603865005071729 15.7446095994111346   T   T   T
  0.2762046672610035 10.3388112340769496  0.1751819740222965   T   T   T
  5.1996966887047673 15.7286609691069224  0.0451761496770029   T   T   T
  4.6802623072438836 10.4304338414669129  5.1218119582622874   T   T   T
  0.2906895915440383 15.5033617917690822  4.4074160024456646   T   T   T
 -0.2290140919144028 10.2136468648227670 10.4589917483447401   T   T   T
  5.2209375228627426 14.8788290921854411 10.1966593760296611   T   T   T
  5.9752120841974445 10.4511013433028754 15.9394126216056407   T   T   T
 -0.0471778531581650 15.8782884363605987 14.9333159321787523   T   T   T
 11.0031422888095403  0.4864533267869691  0.3088785326062797   T   T   T
 15.5222939773419579  5.0712275941905292 -0.0140950324591857   T   T   T
 15.5609179472541914  0.2656425079493976  5.2435003269496727   T   T   T
  9.7375421222256744  5.1764945801354427  5.6844461894873017   T   T   T
 10.4398001594145491 -0.2868747458309924 10.6862527592053596   T   T   T
 15.2900181719799040  5.2809501922065918  9.7396209917666994   T   T   T
 15.7606181358245721 -0.1588386844990310 15.0962609394429670   T   T   T