Li P  S  Cl
 1.0000000000000000
    20.5609999999999999    0.0000000000000000    0.0000000000000013
     0.0000000000000033   20.5609999999999999    0.0000000000000013
     0.0000000000000000    0.0000000000000000   20.5609999999999999
 Li  P   S   Cl 
 191  32 160  32
Cartesian
  0.2256442303954699  2.5003750399920897  1.6218102209365999
  1.4010899632877483  9.6912312220723535  7.8138163463521488
  9.5984601599993855  8.1118299173349548  2.5318912072413600
  8.5330536546623179  0.6434185408251440  7.7025607162561096
 -0.5307702695518565  7.7739470071578731  8.1760268958652667
  1.8448653881467068  0.3837338923411722  2.0290146795308921
  9.3229266521091674  4.0388246123328884  7.4669778576181276
  7.2859782765765013  9.9434634232739523  2.8994083582225669
  7.4168772257277391  2.0553039520128036  9.9993381409122595
  7.1377555642216652  7.3619304590217354  0.2923422201977152
  3.3427648559730567  2.9752505678223664  0.6462433943574203
  1.7394241089481930  7.5694576062093297 10.0869643944973113
  5.0192348726859226  8.5086771796760701  3.6615962617666926
  5.8407819357264605  4.5900529105548937  8.6744471418915143
  2.2148325791641499  4.7814471546494213  2.7042775169703339
  2.5356090403850966  5.1778292135620152  8.3647784614451304
  5.3791280905228138  1.5732281049230619  7.2256246966381132
  6.5667322020406793  5.7438037786217579  2.5308757707405984
  4.2819227458743523  7.6153283345915659  7.8968678934339236
  1.7359396542662764  2.9051124482642816  4.9335828878424524
  4.3620166001391549  1.3200297808094379  3.9479310303791797
  1.4436288548571419  6.9572947274166745  5.6424474269514588
  7.7270002089260101  2.7267021091362458  5.5198684173240817
  7.9116794292217127  7.2135024319808787  5.1217454861736424
  0.0876259309097703  1.6088162557564358 12.4652115338561877
  1.2519547532778326  9.5512341620875620 18.1460452570745865
  9.5128083664429859  8.3936310701705068 12.7083532954804674
  8.2890517449289440  0.2726474711291969 18.3558384910980656
  0.2486201824595888  6.5255901835941543 17.6000560353874462
  2.9136452553224541  0.1107916597632866 13.1789156510339058
  9.9641072656175336  2.9059240924082426 17.4011255838710923
  7.0790920824556300  9.9669959424814429 13.3522250026276836
  6.8485713545630311  2.6537545388671506 20.0186425028801054
  7.5724649067553305  8.8098946317790077 10.7665618691650096
  2.4271484231939979  3.7198759786503146 10.8154576655204959
  1.9779234071962786  7.5887003336055132 20.2650916062613433
  5.2993671106627263  6.7054482392276205 12.5479025573601337
  7.0852138083738305  4.7593661411868737 18.3730949891449491
  4.5344068829256967  2.4997589907587572 12.9268117594557594
  3.4406706052887874  5.3652134437159189 18.4488983956884702
  5.1324777951395832  1.2214035194271384 17.1828095066365449
  7.9221721750726148  5.4291329284332752 12.8673791717540258
  4.5305827641435075  8.3728299934271693 17.7803957354294901
  1.1883136251376383  4.8880840917668262 13.7937210267506707
  2.4219110905538614  2.3128543515693702 15.0969616351866716
  1.7443388851282733  7.6601286625046772 15.4654772586902691
  7.6914366781110326  3.4911678446261893 15.7324899844601251
  6.2627976342757075  7.7184587374286897 15.1294917923286558
 -0.1354390811746942 12.8994497423323189  2.4910077525726169
  1.7875519043539891 20.4523931174692457  7.8052169163423608
  9.6400015906987981 17.2896576927756342  2.9735123499034510
  7.8562349066412995 10.6811268499352519  8.1263337177923773
 -0.3092237188732009 18.2261528017414349  7.6759055576592816
  2.4590407884654475 10.9208472724143011  3.7597093352052475
  9.8333125398594934 12.9323559002497692  7.7107671082550802
  8.3515187891021121 20.2734324331470255  1.9816136623979579
  7.7208073043710286 12.9762963755774958 10.0028898980850389
  8.1963654407960451 18.0786262680005514  0.1093358913251264
  2.1731084454593517 10.9446480997708875  0.6579123970029589
  1.6229119578314799 18.7743913220413425 10.1356741085813837
  5.2814600420180575 18.1289184429139603  2.5458978652794100
  6.7935961144169843 15.4182397738191224  8.0953332883783702
  4.4945838938137150 12.7690999784223447  3.0280997157399931
  2.0815064045107552 15.8768225836080017  7.6652072260212991
  4.9795002043589722 13.0759894536036967  8.0340600479396187
  7.1335354360085814 15.7522130749001050  2.3891105894023914
  4.7197359749435019 18.3186398087399773  7.3069059984416986
  2.6754161830544270 14.2007195229130669  0.6667323479604997
  1.9141772641203798 14.9122062783059519  3.5693021720196496
  2.6274891928866291 18.2950157424228479  5.1611901733671823
  6.8359397882399833 12.4174879324436027  5.4364523438210748
  6.9079888277596471 18.7419260029882295  4.6727590130393537
  0.0103990561304469 12.9017038681128522 12.6008777625884605
  1.4503727290095558 19.9014580461597319 18.1263385010645628
  9.9138064941740609 17.9348451672469693 12.8277150799045554
  7.5800943759115835 10.5485540277675778 18.0227131967865795
  0.4231286543659015 17.2533526476470591 17.4625431765512076
  2.6840383764361553 10.9381650477280150 12.6402046803380994
 10.0838591665857304 12.9835592988659876 17.8790743123717810
  6.4608664871916552 20.0383682040363134 13.3015817489972683
  8.3414157131091198 11.9799934339593026 20.3962363018580533
  8.2493312463818906 18.7097405513849111 10.8797464720616794
  2.7324306160578282 13.3365701238550152 10.4109784851373615
  2.0371463865325472 18.0028054764168530 20.3663090895395626
  5.8030483742262673 17.7517276964264070 11.2050482261970341
  6.7633144375715801 14.9443083053530721 18.5758781344028776
  4.8505968426456345 13.8295679956560118 12.4972369114457411
  2.4750922412434342 15.4042920396354415 17.8794871071841293
  5.5863952889494115 12.9250592223074410 18.8716688584969745
  4.8346811052511569 17.6197424109980290 18.4183576311335315
  1.4358938899630656 15.4358427555559601 13.3348560135190350
  2.5852284324348442 13.2021542570337118 14.9342069963935788
  3.3650510043005299 18.5456716653358100 15.8641008595028108
  7.7614659777819428 13.0143473347615597 15.7860738073634295
  7.9808366317942632 16.3677416081591325 14.4803840520159373
  9.8074939709713327  2.6204647419802702  2.7610816078688005
 12.8993382224655591  9.8715164626256371  6.5259874805305254
 20.2068253728899272  7.8327587065242197  2.2703249649821076
 18.1761171088292528  0.3409921007498338  8.3355263729878573
 10.0961146283617431  7.9434735835759991  8.1734707215569404
 13.1971583027705037  0.3191091385891283  3.0730099586651280
 19.3828559024883305  3.7005384996294675  6.9218973336613168
 17.1473730561505171  9.7426743999654342  2.9254349258666417
 17.9492951543537096  2.9765396242689852 10.0658548245362489
 17.8837936127691428  7.7713007289459961  0.4014120215933491
 11.5039420267418109  1.8606238549336909  0.3191724962178349
 12.3757016789607981  9.7135175397408915  9.5617016507773656
 15.4960610282321909  7.3029488526725972  3.0184813013332055
 16.3551430305901526  4.4622072209390637  7.8794215405995836
 14.2598265880470638  2.8290391301219850  1.4775650004852448
 12.5227366179412059  6.3583414534609961  9.6476869688186166
 15.3015341283676314  1.6027214661441993  7.1543184175247143
 17.6506115709027078  4.8986940730685706  2.6048926810321302
 15.0905714968460209  7.3382715123342566  7.8238528446357698
 11.7567598092646346  4.8648503095324820  2.9978336824394831
 11.8079941239731596  3.1360528575428863  5.0512703743581557
 12.0823585326149701  7.2001033534586751  5.6750784552135487
 17.3509140512324613  2.1457823236393181  5.1816745867519112
 18.8547402825008419  6.8780073447341312  4.7142356461088166
 10.4669701219820102  1.6554308744449693 12.0125759864110542
 12.9149678180681029 10.0629253727997803 17.2602665129605093
 18.7980864641298488  7.3897803311920347 14.8729120877769247
 17.6255208082592034  0.3280285078689795 17.7202879554438546
 10.7979042066696351  5.9220961978089379 17.5869298468449138
 12.8925005300130593 -0.0115603717886804 13.0809446660862143
 20.1433112995931403  2.5780850509714912 18.2963834800019747
 17.5010080891721103  9.9619797219830932 13.2141819261640237
 17.5239698924420821  2.2828346389570804 20.2542400347884204
 18.6927882103490433  7.6923731517007203 11.0606497196015976
 12.8819298839670164  2.7376484350695751 10.6230378073110110
 10.8489231699935758  8.6396733554118441 19.3732070116535660
 15.5890283660103552  7.0191002441381842 10.8733672060185640
 17.2533809914711789  5.1544830584410377 18.2535112753763400
 14.9264402562959653  2.2135992070926989 13.9605705099401440
 13.5224402592391435  5.5093731003690589 18.6121623998468451
 14.8499770096804298  2.9074347258254241 18.3441788920403255
 17.7398908502722819  5.5033012878968277 12.7154564333851958
 14.7688735828522137  8.2695127485841979 18.0932269234876628
 11.3609828984043641  4.4711549658986929 13.2798144791683033
 11.4230304574457353  2.4284137110740578 14.9659476950816295
 12.5966190262837703  7.7277980264690536 15.6528013741486021
 18.2973109384952259  2.7383971710914117 15.8866051284208520
 15.3136132041860673  8.3500119255766787 13.4020483945869628
 10.0389351735832335 12.7580547508345727  2.7932478745272977
 12.5720365282249364 20.4336817057366034  7.4408049919425183
 20.1852172190224870 17.3396631406259054  3.0420651043720555
 18.2480908650137330 10.5655536644320875  8.2497604122976842
 10.8161682691217322 16.5479398982971837  7.3559303768844559
 13.6663798116882038 10.7353081071267251  3.2685486443105525
 19.8382944700414612 13.2419609012360819  7.1178522684887060
 18.5348609930859176 20.2668012729991105  1.6327388506089791
 16.9467307415766193 13.3423518996064008  9.9046174271889011
 17.7185305566560878 17.6398151425944008 -0.1025753212909670
 12.1348937514362554 11.5815532179315088  0.7261130672586772
 11.8517446917458429 18.7368933430236630  9.9650924046782858
 15.3653705828063281 17.8340493415643913  1.9632856290880598
 17.2757603882113848 15.2289775570582204  7.4564761323157347
 14.7137417026927455 13.7656122145329523  1.8241301344622809
 13.2647865886393568 15.9618097338782174  8.7962924399906139
 15.3031654154294987 12.3839435760915340  7.1781556044388308
 18.1342941143724730 15.6759968183026484  2.8983956599176017
 15.0318988371627000 18.3770756076723103  6.9229207384942280
 11.9425377164175135 15.1438200169718353  2.8119564085400741
 12.4346214187997770 13.3647415336771793  4.8035328859094566
 12.4309812295232636 18.0875005452285151  5.3336343846617211
 17.4984782821040064 12.4524904293940537  5.2579312920334518
 16.9415292262403696 19.2378947696406932  4.4401511773542230
 10.5156933254248379 12.2777151713135542 12.7647938314001017
 13.2119780902803345 19.6201189366204751 16.4028761346930452
 19.6671262933124034 18.0611063634542539 11.1638919156099572
 18.0195651268771613 10.6487533077456700 18.7593942960500044
 10.2923098392649148 17.8909510264828597 17.9789365233494358
 13.4355941642462451 10.9800761990892646 13.4970397882843258
 20.1881035883398674 12.3865695977442130 18.3918907565399472
 17.2131857198404319 20.3734711305517813 13.2368658127789729
 16.6317717270372967 13.6207966663945950 20.1240427213120121
 16.4640272177343299 17.9508103667433865 10.7363475354999220
 13.2269259294093349 13.2430273544921135 10.4550526359327716
 12.5370642533682357 19.6382122536331565 19.3385926524831753
 15.7484872291263951 18.2873832493427706 14.2965542704390316
 18.0638302247687861 15.1472084986703432 18.0278991352648355
 14.8503955134889427 14.6661733449547995 12.5213559729566484
 12.6540236199844163 16.3652133364005579 19.5765493911773518
 15.5216813160280189 12.2860554592180229 17.3474231598325552
 17.7828235759664253 15.7963735865611596 13.0687498090633856
 15.0435804392371750 17.3507651526710127 18.4877678119305244
 11.3122540159068148 14.9456087533006681 12.8969395489526537
 12.6734288269804889 13.3628543276709824 15.1825500487524003
 12.4235124263704879 16.9817817784744243 15.6552608085675597
 18.8009302296233471 13.3994420193267096 15.6031743504153919
 18.6661365996014261 17.5046787086935893 15.2517085832153683
 -0.3608504872626170  0.1819520406571746  5.1291528852964632
  4.7777137347862988 -0.1164789201119006 -0.0399189193369989
 -0.3548243699070990  5.2518832825631678 -0.1123601190716113
  4.7661631730311331  5.1380407672394979  5.2678474444810188
 -0.0724276228294812  0.0762095233315209 15.4421528428929999
  4.8886566080977660 -0.1226313572703685 10.3617715554217060
 -0.3967966484718371  4.9973359529378873 10.5156391953247486
  4.7085326398717573  4.9337172789799215 15.5139693674340027
 -0.2139613306043750 10.1723151385889956  5.2483359202018791
  4.9163141674443613 10.2539071998808673 -0.0686351604514547
 -0.1073628444769631 15.5049919562973351 -0.1604351038408775
  5.0460658351955603 15.4836786504615862  4.9510912425896780
 -0.1148545999705276 10.3688322935021642 15.1288599237082835
  4.6857083082243793 10.3387481542145476 10.4922666091960810
 -0.3610846202691913 15.4346254330343022  9.9794153913657020
  5.0376089972007572 15.2682773151213453 15.5460685012777908
  9.9065886216891723 -0.1912628994246851  4.8943383172911812
 15.0197833040705238 -0.0211298733453836  0.0372151387755448
  9.9574719832258314  5.1452784651627574 -0.0521981444580360
 14.9187778342627944  4.8057407340374025  5.0276675203852044
 10.3149607347074745 -0.1756907996025490 15.4126685562780903
 15.0930459400022734  0.0478127182821427 10.1938261051892169
  9.8189721887014567  5.0803156447167916 10.2907700618008455
 15.2487718809453110  5.1162574781879302 15.3657935070979903
 10.1379238381670813 10.3096262496930269  5.2691413254329014
 15.3935141253697907 10.2460679105092769  0.0823082546694696
 10.0886230213878854 15.3325660212125232 -0.0365708195880547
 15.3194064253937690 15.5068284410796622  4.9581383403194934
 10.1793646528543071 10.3148517523611432 15.5431010139324854
 15.1993537336858822 10.1517780642133175 10.3471813041800775
 10.1534484880765117 15.4060240224315894 10.0442606183672911
 15.4806633734980963 15.5616570348963599 15.5037280303811222
  0.2342629436423359  1.5617145788988871  6.4665053546185227
  1.0310136025035166  8.9363456656752263  4.1304064126995783
  8.8921630945985122  9.0500557734306550  6.2696800995303876
  8.6784409474516746  1.0485479694244231  3.8470748496771834
  5.9413980133798434  1.1736533802423956  1.1339662998178592
  3.5944355343275491  0.8589092805281132  9.2666121425314056
  5.8194425095676374  9.1786093747247168  9.0446847930975558
  3.8934243968464579  8.9013131619421557  1.2418352875906700
  0.9246590102766682  6.1788130042133931  1.1702728185389715
  8.6774733802214818  3.9324494223722590  1.2140756897391280
  8.5042728967113117  6.0182057167923544  9.1018638649138790
  0.6289246575453087  3.8397267416489727  9.1868360178068720
  5.9731373915461399  6.3128697629658257  6.4854970319333125
  5.9147071112918068  3.9388403899980067  4.0578208217998020
  3.5794766901822928  3.9932051221402287  6.4185998311122177
  3.6552733987674952  6.3548256377878101  4.0494297072977066
  2.3798441006982571  2.5639355629187035  2.7712502925779745
  1.9969518634590389  7.5740337982726960  7.8677134826891555
  7.3070867556882728  7.8888641505968957  2.9832953606984840
  7.3071871022084833  2.7319304196465257  7.7826829015571626
  0.9835961117617924  1.2475613409620849 16.6458209676149202
  1.0594460784566717  9.3688571208436109 13.7697150122142418
  9.3192164620100488  9.1124001644450576 16.7859308654064989
  9.1517829720960169  1.0653820543479260 14.2195277614237110
  5.9956650648201899  1.2577609920738830 11.4783336313235491
  3.7107722020009883  1.1219313227888337 19.2932536699072372
  6.0852301513006886  9.1791583625809086 19.3014731588463064
  3.6987365170725535  9.0013292939293468 11.6697821446469217
  0.5947723262639626  6.2986311210883557 11.7218931283894658
  8.7802483543633478  3.7116835142139419 11.3794009676132699
  8.7962113859806799  6.2554128942995426 19.2432362076998480
  0.9813236087276240  3.9057426731572367 19.5453026849192462
  5.9195941586913623  6.0091215300042702 16.9118478674315007
  6.0179257914754842  4.1002919638692976 14.1368192081953890
  3.7798127908840211  3.5536187159051460 16.5842309768645073
  3.5358321178966534  6.2390207912963520 14.3486701332394500
  2.2147396989010946  2.4611878201921340 12.8909770939429151
  2.2205275092180834  7.4785989231864667 17.9275088566447671
  7.3068613950076458  7.7824442295721994 13.0211513080954990
  7.6369495564410084  2.4261714132424914 17.7426539723881902
  0.8091228410668657 11.5972372524837652  6.4393945172581386
  1.0272484704421185 19.6184202078787315  4.1695939998094946
  8.6428577533964344 19.2297202323020038  6.1182549064746574
  8.8341266597435446 11.5844278743923876  4.2696969550739494
  6.0026672900653422 11.6333845802470321  1.0923405182386114
  3.5645192608183423 11.5434512880727933  9.3566639019408573
  6.0380040349305970 19.2666501763015212  9.1498027767852133
  3.4145922124919474 19.3117795715614839  1.0374277890793511
  0.9792561449520965 16.5704577430385882  1.2457856339272395
  8.8818858004061045 14.3231628469639301  1.4027587674139101
  8.7810497567143724 16.4084463119698469  8.9864963565841656
  0.7971232894163142 14.2187648128742570  8.7944517556934247
  6.3056386813592527 16.8111412301000129  6.0281812148374172
  6.2714691695781326 14.2491754351577757  3.8652199182411979
  3.7486224677347355 14.4361775814095790  5.9700949533601007
  3.8240998715802750 16.5834110868299511  3.5890156749452120
  2.1051504555335843 12.7801625478113028  2.4173287119816251
  2.0353477226664500 18.2118635482218032  7.5220536641414002
  7.5589316035592082 17.9205773047306245  2.3613658921675356
  7.4157223466946860 13.0348650623415043  7.6582437937350356
  1.0284274176056176 11.6665604607746225 16.2887241340511721
  0.9832439031095804 19.4257671557686216 14.2916633112039140
  9.1245887942751498 19.2019926942028079 16.4630329156006283
  8.6011680434068438 11.3570537474554225 14.4098083582854510
  6.2333428334094929 11.3614468193103502 11.4210268339453691
  3.7001914597266383 11.3684046129624896 19.2495802304856163
  6.1050469008123045 19.1329273823550032 19.5040183633488233
  3.8711024171372688 18.9794823899254723 11.5580336046600340
  0.8897121935957588 16.6219369441145943 11.0941509956954825
  9.3188506388445180 14.1774962089571606 11.4701399764881238
  8.8318149898538021 16.3699381193625086 19.2000721337228271
  0.9937668692097738 14.1640717380168901 19.2647323249869054
  6.0476105571236181 16.6707499226728508 16.6452849184352338
  6.3916355532044324 14.4152498239668958 14.2321133755156310
  4.1850052393913968 13.8159066307718437 16.6556367860283565
  3.5974967724669678 16.2370873896840848 14.3473820033065547
  2.2911221919993032 13.3156727530505119 12.8055833485460919
  2.4698103455389493 17.8162977304385670 18.1457867937878987
  7.6068193168319622 18.0345056546101752 12.9495008432627756
  7.8227800977210835 12.7337326744061325 18.1716462530688432
 10.8867725661030956  1.1437978673966287  6.0305211277890667
 11.4030075658535601  9.0784795098241844  3.9678638985356618
 19.0217136024575595  8.9274965354696878  6.2549885470744027
 19.0559515561182664  1.1638235339033323  3.6822965758877353
 16.1080948727983255  1.0631792305174661  1.4652957491077265
 13.6883715639352062  1.0475497354834629  9.0819177818043020
 16.2591477958845800  8.7934417468194077  9.1158593796811012
 13.9117072951550895  9.4037381522694989  1.2236178662683315
 11.2089074740334560  6.4065901077194738  0.9896560716092627
 18.9900655455768899  3.9333478283834138  0.8830855135077372
 18.7461914711031490  5.9226129279907997  9.3630734764132857
 11.3049995229185551  4.1219902743062038  9.1651969381293252
 16.3221459003393150  6.1503223648364544  6.0196998199452638
 15.8454709754990262  3.6916989803590035  3.5761781867176516
 13.8285655642202947  3.8311073376771860  6.4049706153207939
 13.6800222790019532  6.0778902822398120  3.9438199238189080
 12.2040129674658395  2.4633946424508322  2.6556381584629065
 12.4821671699208405  7.8281973323357237  7.6866257103452593
 17.7609033655136273  7.5992214430239109  2.6207307702378557
 17.4561933927492205  2.3171673847290895  7.6892520732769798
 11.4055829364291537  0.9420650556724732 16.8259269171747654
 11.2110853199208940  9.2744302341431712 14.0279851016224910
 19.5261112646646282  8.9585146223511725 16.4270522388799840
 19.1604402969496448  1.2695003589541942 14.3047889804747861
 16.4658652246870751  1.2888142676392638 11.2267174506366363
 13.6065145975527404  1.0620140826410958 19.6608674836508968
 16.5327239252905613  9.0253516405798937 19.5476577747394238
 13.9725722288335685  8.9823256883788165 11.4723058521560475
 10.6969547589843366  6.4972567299692896 11.4970328947481963
 19.2288464250287987  3.6852609180353970 11.8493368878302014
 19.1294851247923638  6.6203171005131907 19.3539774771256923
 11.3233457046503414  3.9088388529485920 19.2984995930101277
 16.2623820317804650  6.5388865464541421 16.5992115817661272
 16.5878678448998933  4.0048339576105603 14.2617748934033983
 13.8872899155966287  3.7041048878914449 16.3220396598420017
 14.0422299172043772  6.3785413567313221 14.3662796018655694
 12.6005569496974577  2.2978456374942016 12.8498265267658152
 12.5106084876973309  7.6893817694085547 18.0460266767410253
 17.4202573747441356  7.6761536465647442 12.8523889350918274
 17.6750300015498105  2.6658817121291443 18.0824538364649641
 11.3515273250400366 11.4934964929475001  6.5709143510948902
 11.0176113839805883 19.1911062982755674  3.7700565122615148
 18.8736343966520650 19.6030772693867910  6.2082431026399831
 19.2856506075513039 11.4037586149516788  3.9660239468442549
 16.5729577958964818 11.4938102781914733  1.2106277038207802
 13.9115982872363304 11.3681159177557927  9.2866975381250949
 16.2632064667235490 19.3986862378443092  8.9260093243721403
 13.8401582360112414 19.3037296906537641  1.1118867568530388
 11.1640344715741922 16.7946947158572222  0.9837570298599252
 19.0475488020876078 14.4702545787901151  0.9390048228619796
 18.6696660060615400 16.6919549329637924  9.0970379630768559
 11.2670779800413943 14.3296375889111260  8.8000149257056837
 16.6214178608970684 16.8550661489333571  5.7253219437164251
 16.4381434967543179 14.2134496814683988  3.9291432643327107
 14.1343352435825711 14.3440602430864104  6.3427178732576950
 14.1826219772304771 16.7071217964418786  3.7060460503961972
 12.6711992479933695 12.7150047949681966  2.5496425978128032
 12.6826551522637505 18.1868449191323798  7.8671481414645497
 17.7593791334928603 17.9289231578014281  2.0771642752628328
 17.6068828001692665 12.8170762364483242  7.5770375043533678
 11.4814580349776225 11.7173012272741897 16.3576505059618214
 11.6091828168233739 19.2265235127985221 14.3581160532628598
 19.6012850953992803 19.3823522093039990 16.7131248234453622
 19.1361055664353650 11.6749155867522099 13.9597882853192008
 16.5595685618725170 11.2798737056285514 11.3201585166039127
 14.0975609525665710 11.2357150637122789 19.2548354501034495
 16.1606074451100952 19.4706160276100526 19.3153719725619055
 14.1803198946964955 19.3401219553417967 11.4434227872068170
 11.5153938323247598 16.6428926141235749 11.0666629126219362
 19.1104651474096912 14.2899996030329159 11.2369688390915989
 19.5080515698392531 16.8409946073136325 19.2039751124158329
 11.3952535841273015 14.0951788639455557 19.7289941931304433
 16.5884071947302019 17.0640579480765631 16.4026341614460272
 16.6246478719597519 14.1133551383362583 14.4778301401943761
 14.3118150209336044 14.4348649181415656 16.7529088512123643
 14.2989627353233697 16.4778600691908643 13.9519304736970362
 12.8606760771280353 13.1827869159525193 12.8775007798773586
 12.6853939399764997 17.7564925023713656 17.6789373642798999
 17.8785700665010410 18.0772901159316461 13.0842167738877411
 17.7633030326356085 12.6881297658545069 18.1036028026875115
 -0.6711513859078009  0.6710452971662477  0.1733956030737324
  4.9877073915645935  5.0432913967042010 -0.4561125688188432
  5.0004735820504580 -0.2012764305146160  5.5048416107243190
 -0.3810546443492140  5.3145481098924945  5.6092714751433999
 -0.2228133777698998 -0.1491074681460124  9.9936581419056711
  4.3906153836686439  4.9127371900285866 10.3946591533882255
  4.5098924676199852  0.2575704797338066 15.0293345549368702
 -0.1957108897572061  5.6771266026300422 15.4038649812123722
  0.2241223529473035 10.3508308567774865 -0.4641729298204962
  5.2375136482851170 15.0271832818683162 -0.1204127771491778
  4.9871101058426248 10.4699510825036306  4.6876296541268747
 -0.3159567261729564 15.4748478934675777  4.3136416285137393
 -0.4872881938814064  9.5093088319310279  9.8180219053502071
  5.3481184915045192 15.2416408451147056 10.1663635768413787
  5.0884495768572551  9.8440725096738895 15.7172205331159560
 -0.4567221483425800 15.5217946066476031 15.7024385742916319
  9.5315811664434129 -0.0871107844230705 -0.2635614387515607
 15.0311373091775451  4.5742123498467322 -0.5883299541524291
 14.7132594070849692 -0.1326777203926237  5.4895166562263720
 10.1933628627255004  4.6952794327084684  5.1388344836315927
 10.0141907242978334 -0.3332474379219900 10.0981052418740500
 14.8922369877408194  5.1891586046839402  9.6032557697827645
 15.2504182707847651 -0.0454481880821707 14.7422495092841483
 10.0723138854187031  4.3026944970269092 15.6054978658343710
 10.2481336281096738 10.4905236309147796  0.3626052686278726
 15.6557202448748978 15.8826118858695153 -0.4064983960956703
 14.8887751140622147 10.0578280364251782  5.4099625985103605
 10.9033417398064856 15.8179154481454809  5.0228221160255302
  9.8237286157774246  9.8667031429254806 10.1173075178575154
 15.0114724110566193 15.1081127327844360 10.2723235961162072
 14.6502277331615982 10.4310335647352552 15.5318111316762852
 10.6970856692405256 15.3664088277208410 15.0158511370357477
Cartesian
  0.0142169321326679 -0.0051676648317575 -0.0067298213858635
 -0.0049341198765173 -0.0013780564941100 -0.0048129911857870
 -0.0051724585170951  0.0026803399345747 -0.0084532076351495
 -0.0005148184171911  0.0067275493935060 -0.0105840124973370
  0.0023781419424910 -0.0077619380038966  0.0080355466335684
 -0.0123698771361325 -0.0198617954757738 -0.0021479742783797
  0.0101127851423953  0.0033848405300089  0.0004543038735459
 -0.0166488553813736  0.0052418303034067  0.0026035017130570
 -0.0059416891594347  0.0071873487045785 -0.0036498469477913
  0.0146957995648001 -0.0080958518807216 -0.0091946157434205
  0.0040355606449889 -0.0055853862762389  0.0012393937729451
  0.0048270262096847  0.0041368936373812  0.0012758695339733
  0.0027225949564753 -0.0009899061870518  0.0061073596706262
  0.0053204059017295 -0.0033277777653863 -0.0052469021836425
  0.0107846905970537  0.0089913979851481 -0.0037318670125420
  0.0013171742489728 -0.0030358243742722 -0.0098587237375312
 -0.0046396069135371  0.0040397725960372 -0.0180392741234615
  0.0068180238446035 -0.0124538469871025  0.0000192127829376
  0.0035311779671629 -0.0076359610319558 -0.0052423405809462
 -0.0029157851927402 -0.0074148099391478  0.0149452046376581
  0.0017553565514334 -0.0119767083126380 -0.0103995130471410
  0.0036611443577276 -0.0090515505213225 -0.0005845921763340
  0.0023814466234127  0.0023298097511190 -0.0007175807351515
 -0.0068493643633178 -0.0031951941602049  0.0013280663796920
  0.0071317750838932  0.0099443889966035  0.0066737431259768
  0.0104698529515082  0.0085611098683410 -0.0089676527414205
 -0.0088060919512723 -0.0031863543903684 -0.0001326345593171
  0.0055986457564885 -0.0000505474003418 -0.0022779651720275
  0.0018784649797900 -0.0031544984954949  0.0030796205388467
  0.0184521719924569 -0.0160545838950412 -0.0047780287854579
 -0.0000953855895733 -0.0071965273780428  0.0092357173320912
 -0.0007145361223044 -0.0124901097834942  0.0027531912780202
  0.0018870025031832  0.0000554894332114  0.0075974477622380
 -0.0030246003929488  0.0135009669940300 -0.0017813368333377
  0.0028443182609166 -0.0016686795749698 -0.0018479008794699
  0.0151181402086747 -0.0036098548590885 -0.0072567323975994
 -0.0011577676421049 -0.0087209526729314  0.0142336868440756
 -0.0003803936345441 -0.0075002677754249  0.0053657451053028
  0.0026832476978321  0.0036092257939474 -0.0025460252069341
 -0.0014624476056148  0.0054596513483234  0.0068524964595857
  0.0060055426658988  0.0012155931527946  0.0019485088054450
 -0.0059002160486653  0.0043329377442567 -0.0011508873397664
 -0.0031194443879349 -0.0180132196568572 -0.0079432643897277
 -0.0033433594724895 -0.0089466825051742 -0.0005270306275800
 -0.0084468988572841 -0.0052513704394795 -0.0044483104561480
 -0.0070691260625307 -0.0151153577224910  0.0025040047022750
  0.0042299181168705  0.0026881825498802 -0.0004674213521005
  0.0030753393479866  0.0059670837125477 -0.0052668706351202
  0.0125368063402695  0.0034309154046730  0.0131536222719206
  0.0036890408919969  0.0095732411679744  0.0047309835465706
  0.0063085943576431  0.0101552126195190  0.0042073165561169
 -0.0032305792886262 -0.0082184693875988  0.0034125942512739
  0.0033960946803637 -0.0044663589886932  0.0082536067011803
  0.0014216865426485  0.0010692665241891 -0.0134090368903155
 -0.0003899469525667 -0.0064078615909558 -0.0004759912563894
 -0.0036390402101201 -0.0047400335920263 -0.0132646784606763
 -0.0053911443048337  0.0036374094512208  0.0007885019656746
 -0.0030289205029778  0.0059348729702256  0.0097731522898653
  0.0030381348932918  0.0115070274302014 -0.0007388426261969
  0.0081318626496553  0.0052090109054504 -0.0037889827232814
 -0.0086666538708660 -0.0028297875030341  0.0005886868495890
 -0.0056706930881768 -0.0074781971747081  0.0009161195187773
 -0.0123231838030482 -0.0012800210799763 -0.0033617982934201
 -0.0067513003271826 -0.0062317002989677 -0.0002037431972656
 -0.0000054145403529 -0.0018690647666276  0.0033198523511481
  0.0088414009583647  0.0011387877985872  0.0015945225101959
  0.0086893910596976  0.0074701365713599  0.0069265976860058
 -0.0010266757543980  0.0077716594150302 -0.0014589830167090
  0.0031990240707110 -0.0064809291548406 -0.0111173905437453
 -0.0073456345613852  0.0110449049672767  0.0001456171832017
  0.0021451907217987  0.0026329230417831 -0.0034987246707871
  0.0070431924821443  0.0021801920400806  0.0147686471579411