Li P  S  Cl
 1.0000000000000000
    25.1819793006824639    0.0000000000000000    0.0000000000000015
    -0.0000000000000009   14.5388225279766061    0.0000000000000009
     0.0000000000000000    0.0000000000000000   37.2126966544236950
 Li  P   S   Cl 
 288  48 240  48
Cartesian
  1.3412996962442494  2.7511616608851974  6.1824829947999485
 13.8503035869206030 10.1742519614645435  6.1804926245872922
 17.9205100091803402  2.2653205399632355 12.8747630853618862
  5.4336416603420785  9.0316435429046891 12.8853212786157840
  9.0984525172970034  2.3473623900326381  0.7162397107038851
 20.9159450285220707 10.3702636868630904  0.7809526546360830
  0.0256588737747436  3.2870464318047463  9.2203133282436234
 12.8873226092351594 11.9426035082617918  9.4393431807736228
 16.7874599385310823  4.9922657074146777 15.2015123138296193
  4.3133027824455086 12.8085923572340690 13.6053907490714856
  8.8788015683355539  4.6043804295619477  3.2633280930171877
 22.0349667725482306 12.6802501795139211  3.0449512733828539
  1.6751484045469132  6.1325742962542433  9.2775497253723440
 15.6439107348253117 13.7095990302243997  9.2641356037077305
 22.2644346860450675  4.4646946354470769 17.0109484595467642
  6.8714907921100616 13.0940560324214275 14.9315688424281721
 11.9418881887565718  5.4320101614249445  3.0006760843300362
 24.9101711067923937 11.9713909169345545  2.9237184165279726
  4.5158269100885384  4.1690659467901252  7.1184845028503929
 17.2876854556256916 11.2477471741837078  7.4330036872834917
 20.9432687680674618  4.3621989486500690 13.3351281529791859
  8.4353750022448466 11.0891880146976156 13.1530415741547202
 12.9858767430521169  2.7354910835127910  1.5305794681592961
 24.8849839176725851  9.6672608356691505  0.3290461062575918
  3.3667561231017409  3.7902377800232929  9.4749595008216989
 15.4702180237046338  9.7832718471790994  9.4127892813229721
 18.8502601814767310  3.0229547076235619 15.9112247346490356
  5.1631979490025586 10.6606224187785621 15.6960569688693266
 10.8676207211632683  1.9430358397603815  3.4304284792834601
 23.0820707529489582  9.0888158522848084  2.9617863091041432
  0.5079942737814903  6.2536859429959657  6.3632356250235125
 13.8853679617477681 13.6949111186272923  7.1509261080885986
 18.3104610840203605  5.7338176802213390 12.3185655001173000
  5.7984145187698042 11.9310253584136525 11.2091731457959352
 11.0553894216220545  5.3819348914377487  0.0970760907815930
 23.5303787458307703 13.7304313559936215  0.4251073088410197
 24.0679634226681429 13.2043618114282175 13.3072002690055982
 11.5049311715439533  5.8533832388479201 12.7551430818872795
 15.8856714050590337 13.5192075316494424  0.8238555546371221
  2.4961392047021347  3.8555014996068824 -1.2833140127839950
  7.4597731348161815 13.2586296769594263  6.6568860320324612
 20.9362662166935536  5.8851629061801214  7.3913248557214253
 22.9649595029986884  0.8332616936616342 16.3648324730562607
 10.3015376762543358  8.5338558168146683 14.7726339427355615
 15.2247911342167388  0.9529056075156370  3.6114410468767066
  2.5761937512431023  8.2907749640920265  3.1030317824354952
  6.1485189360406487 -0.1869255916777166  9.3156677799796732
 19.1281721818429951  7.0580582945703032  8.9684200958953237
  1.6899487939305671  2.0512999285309053 15.1350765835388348
 12.8689974034785664  9.6341498258269542 15.3956897204970673
 18.0179210218042378  2.2860472188542240  3.2440702456780603
  6.1193895956034590  9.3586831475294385  3.1296974186485067
  9.2509390723010014  1.8107533559517131  9.3013317199222509
 21.2034540329319796 10.4688461241058341  9.8287013515591521
  1.8490652453090879  0.3746841169595914 12.9268366008838385
 15.2168497049381646  7.7440349212027080 13.5099376825074220
 18.7990999753509342 -0.8239419000653223  1.4911511751223010
  6.4647219073177178  6.7587623358155877  1.4041622224563861
 10.3409013946475028  0.5330787606056371  6.6143393591708763
 22.7168023638723504  7.9812810262607510  6.3728589867286525
  1.2116169145349478 13.6008921229545034 15.6927892895843648
 12.1678844411232916  6.1674514477590536 16.2642563710169021
 17.0506688903519503 13.3442518338835914  3.6770597545559793
  4.7338491276956853  6.2196497245137836  3.5025122054201066
  8.9544990504515045 12.7411725514867129  9.4826901335987177
 23.0655494280389668  8.3293583075139708  9.3992152266554481
 24.0601981151737441  2.4058274455428110 12.9008715071399269
 11.8979576545679517  8.9655635100357269 12.2753134960392103
 15.3039357375056344  1.2293014153267572  0.3840469287750072
  3.8250504363661864 10.1255927991150934  0.5059815410783349
  6.8337365974129867  2.1618826335587240  7.5959440401224843
 19.8247024936620093  9.9314356654955009  6.7377814453418630
  0.7467108146976698  9.2842793218086310  6.8688811777213603
 13.8570804063161273  2.3706793272970375  7.0382695652517597
 17.8231852572678982  9.4022007624038704 12.8734625649615975
  4.9309181127316082  2.0493793718231963 12.8444009991339456
  9.4453798965418567  7.8291387279542652 -0.9392577175778598
 20.9523718425844585 -0.0589943876377250 -1.4550762752229471
 -0.0864953163992414 11.8834356460117814  8.6291350134315916
 12.3228383874528582  4.7263424570749955  9.5859199801191508
 17.3587998064320175 12.0357031803207875 15.2742831866623234
  4.2949950610042853  5.1348350429102947 15.4644139339298388
  9.3484732182561778 12.8703089088779503  3.1969812503651709
 21.2739682113700859  4.2710289358425255  3.1988129070181781
  2.4557285573908567 13.2213495997431227  9.0581205330769183
 15.5036555160761829  5.5952620207664525  9.8069166484497554
 20.9384676258491318 12.6203184471715986 15.2870557362070034
  7.8821682918244083  5.2721788053516594 15.3054750547812386
 12.6229659846280935 12.7981426015183182  2.4046497430871563
 24.8384411988195666  4.4276395324186826  3.4094597627842824
  3.9490582510310190 11.4665714776694649  6.1483027712113687
 16.3217478038051311  4.6445371004745173  7.1717852433158500
 21.3588042420166424 11.4303454349721942 12.8861067834247542
  8.4295028225324238  2.8002698057504984 13.5552510739419585
 12.5998225034817253  9.8633150806095955  1.2441533778561937
 25.3008081791700761  2.4047379985202930  0.8885846486527814
  2.5705957916597177  9.7278368127319883  9.3118309427926942
 15.3542120628705270  2.1224953287482857  9.8320262021195468
 19.2451430171362894  9.2220002696467347 15.1998352686487959
  5.0636796436643818  2.2270109813998320 15.9211741632584154
 10.7264316963064505  9.7299381270743748  3.2562977088745337
 23.2476322925383627  1.7804056182609462  2.8392372769979604
  1.0141240374629965 13.3388214650178920  5.6558745513046302
 13.5195742683809055  6.3409163080663946  7.3551079666105519
 17.7365787788766056 13.3735795908459405 13.1541229073598362
  5.7844695750537829  5.4512423289179495 12.3431717699031491
 10.7910184312724358 13.6130892074510683  0.3448709860451595
 22.6971318337266581  6.0991454838298624  0.7006502434236225
 20.0944485652788103 13.2016047016770663  7.0844699250944014
  7.9008668429104887  6.2793727129028651  6.3857684607414900
 11.0734740336804709 13.8444903496816494 12.9879298876521823
 23.9573657405317562  5.9323353700735186 13.0924868521834021
  4.5381634328873348 14.5697447456222253 -2.4590116639912969
 17.1371304143728089  4.7096355752421797  1.3185451304738336
 19.1692223781124227 -0.0706719703694191  9.2800055444961114
  8.3265852779597349  9.5827390673060009  9.5075282713803002
 10.2158270698064353  1.0608574698504101 15.4176563656385248
 22.9493045493514636  8.8961189922278479 15.2027965030463346
  2.5918240230168896  0.8958727757213768  2.6916688251266954
 14.6773055946299262  7.1515118531121846  2.0773335513297950
 21.3218800718739629  2.9296014123026319  9.0781239420000901
  9.6534704771140039  6.2935132094026471  9.2628655137811986
 14.5065374632137942  1.5397367371761250 15.5058809001829605
  2.1418892310671969  9.2345558872408660 14.6074138981680726
  5.6743088077048185  2.6418451297229026  3.4141411057301361
 19.3308660566124964  9.3170596164905266  3.8590025255838669
 23.3182257213181785  0.1445698348478432  6.9223453237853585
 10.9482851285887044  8.7455380044125217  7.4513192629456295
 14.3357855877964706 -0.9092680863504062 14.3435567611380055
  2.0882556716162917  7.0592355528527913 13.3128717813590889
  6.3369915071580234 -1.3269779174902701  0.4416985095544576
 19.1507974134403263  6.4077690074009030  1.1677566153584784
 22.8637135381850811 15.2863400139959023  9.6702058170816017
  6.7607765227305334  7.0241096095189031  8.9222653905540934
 11.4779509040861338 12.8516775267184666 15.7272777465224962
 -0.4439511700024237  6.3838233057332072 15.7983033996011031
  5.3756158961138389 13.7054914526311862  3.1717122653930421
 17.6570089493271887  6.4437443205374256  3.3309650632859880
 19.5507373532170199  2.3589079524886949  7.2035371426695765
  7.6392015342948358  9.8698201347300181  6.6314036696588579
 12.1970264636963730  2.4407069667678316 13.7142168830930640
 24.3260426658187541  9.5620465414128759 13.0195979826238446
  4.5735960115833807  3.0925169488691808  0.6374801601324601
 16.6716001340252760  9.6133748586772860  0.9956471778432094
  5.5717741885476544  0.7509165481781497 30.6579881041285276
 17.9940405630883511  8.6839401076209946 30.5157748935543260
 22.1071630529593435  1.1722762569049381 23.9458343179594273
  9.7741410423369359  8.4654220031143108 24.5167845162169513
 12.4841257010252296  0.5836102822122878 35.8900961040409712
  0.2394159263839974  6.5507311259889489 36.7270132726101437
  4.3711895448496971 14.1205790115953551 27.8191998731628125
 17.1281049702616350  6.8573367763654955 27.9119434271155740
 22.0294977895079782 12.6436626836901915 21.4550232663436731
  8.6969041509777920  7.6795775496139314 21.9471654170596580
 12.5390546676877701 13.0158017606524492 34.1253818541417075
 -0.9498707201556410  5.0292854421824069 33.6131559134985451
  6.8560151312550728 11.9125909094374176 27.7343447835390080
 20.5631507792822070  5.1496511222611963 28.0292510431292570
 25.1920834455413036 12.2536269399210571 22.1556001334669830
 10.1481564880701853  5.1713824559360528 21.5882923580578989
 15.3508741845044820 11.4565727705238469 35.5743200262007875
  3.4309069626318878  5.7403668075921281 33.7657520415845980
  8.2757241652161575 -1.2080050989826989 30.3403580735101137
 21.2101401795973707  7.3027882199952217 29.8199934732248586
 25.5251538497896817 13.7257191215265859 24.4079988028950616
 12.6518199839320147  7.0528427987696869 24.1178233452930684
 15.0771361519968785 15.8250465692254725 34.0699624704872051
  4.6229728078229675  7.3158858423268658 36.5953306954842574
  7.2898477333151641  0.9859250035755499 28.1959992637801875
 19.6126172585293297  8.6913204510815447 28.0857332786909453
 24.3468613250381836  0.5310575836021696 21.9125337633636121
 11.9840348887042722  7.3907838323734776 21.2578189575605130
 16.7381015535015827 -1.0175056626266943 33.3968819773981593
  3.0196825687347006  8.1829325582496786 34.6056596829188479
  4.8175514374446324 11.4508657780355385 30.0759590790715556
 17.8354924491229418  4.6724323991641370 30.4531276746696591
 22.3826450296689821 12.0130760647798027 24.4752564001613848
  9.8733971864091590  4.9983446677862613 24.5059025345064825
 13.5899480196708033 12.7047841974611373 36.8989274260998741
  2.5439001823154932  5.9591375383218832 38.3099614812000979
  3.2532592956327360  4.9525299667375888 24.2513704162280987
 15.8438400793939085 12.3955473904109219 24.0418005682417473
 18.8749050098464402  3.4825764036001678 35.9536329613974956
  6.5636286688399323 10.9926192824107058 35.7961570001389120
 11.7767663468560162  4.5549276301976693 30.3536320138229385
 23.5900490714954536 10.1922962457660304 30.7319616237244269
  2.6094124443125759  2.8317661471055775 21.3410663506129552
 15.2867368652773497  9.8668236527703339 22.0685670405860215
 19.8080123312058944  1.4283261784367094 33.8888716238450627
  6.2716061943813779  8.8547633529032392 34.2123038517659097
 10.6330260975929072  3.1151483645004641 27.6487154783597795
 24.2377907024417354  9.0172296208006433 27.3620933947453153
  5.4933953552700610  1.7225885759043611 21.4841708471757507
 17.8462825797509019  8.8924668129191051 21.8368655361184416
 22.9662888212600826  1.2163457357165040 33.8959643745018440
  9.6139985819723428  8.4602123485786258 33.8759930718795843
 13.7359141398998421  1.1746346600394471 27.8642819358212996
  1.8125384672680880  8.9047809327944716 28.0913340794840742
  6.7473849416498970  3.8233550329371635 23.7991257665417102
 18.9915362544416340 10.4212833405475109 25.1409026877776007
 23.3236434850276595  3.7330483412779056 36.2352082236245607
 10.7401119916482575 11.0673031949739187 36.4198199111896628
 14.7546594338872445  2.7558634596589222 30.5185125733766540
  2.1813004775951907  9.9681134637229931 30.8591971879413585
  4.6566813780041709  5.2966226010515802 21.7919180586522394
 18.5262211706273732 11.6859993503778465 22.4279641202504507
 21.3116967266983330  4.7786185607285177 33.8283949009453053
  8.6594949699394075 12.2775835680435890 34.5316757954585185
 13.3496601250470803  4.8684693555795038 28.1177506753156194
  0.0418083111343613 12.0169423263666673 28.6579621238129683
  3.5552791293590960  1.3076222946306442 24.0926677693411122
 15.5438146979828602  8.4978331448069024 24.4085394203365666
 21.0093416205949595  2.8946070672717403 37.9741551188971229
  8.7327218999986211 10.0114925933917327 37.9397420597121524
 11.7785302644654717  0.8212427961886568 30.5105962969425093
 24.3332801078871199  7.6699363845038304 30.1164054764276194
  5.5906754862778474  7.6120206329842839 30.7420850343556786
 18.3071816253622615  1.3843789324664981 30.4754892891410591
 22.5228200572957995  7.0552832284047495 25.4636677309516344
 10.1880139415214774  1.7432428062223835 22.8985022311772219
 14.2896267452967827  8.7928924175157785 36.5300552394494034
 -0.1807487146160749  0.4397162867988365 35.7800078991740307
  5.7982769554844626  4.7811159178562628 27.3486837806801901
 17.7350455983414044 15.2020275383244137 28.1095757372654269
 21.3207682637165767  6.3098820610798496 22.2177255321410776
  8.3808390082497954 12.9101984610104346 23.0018349094376084
 12.6535674161823248  5.8773543635292755 34.1305732106896897
 -0.0148749252758908 12.8512482443865643 33.9725701641781939
  8.2404034332673355  7.1150215422070522 27.7801449006024157
 19.7228976209732352 11.7972001855135531 28.3923095370567324
 24.1354047961989195  5.0189885020339293 21.6188202794776245
 11.5116197923859538 12.3593692067344563 22.3141871287656919
 15.2691656998586822  4.6344254232982580 34.2516822147544815
  2.6269540009495360 11.3562507359219804 34.4521002121152407
  8.4085171187053529  5.6878876379008849 30.1658273272641075
 20.7390940740554583 14.2588811882418582 30.9324049674054216
 25.4221339554969532  6.4578216488813185 24.3611486511305380
 12.4918962757553018 14.0228635997114299 24.7479026130060653
 16.7823249685324392  6.8667494307054149 36.2945370153063180
  2.7498105693195845 15.0841245704980285 36.9146327565955445
  5.1658831357144033  8.0052262998619170 27.9409048049100477
 20.8321759274099740 -0.0588365311126270 27.9416938189466535
 22.4785284849378435  9.0844993660552138 21.9883855642734609
 12.6741857849501862  0.6238976596377167 22.0227066987008939
 15.6856710255829075  8.2022625242312905 34.0442111151210014
  2.1625168594770159  0.9798437967909932 33.7831609140121643
  5.1606833415838551  4.2930713017067852 30.0045910388170114
 16.9855022171675181 12.4877265343944615 29.8173847811141890
 22.0229962252272173  4.2345847741291385 24.0975803134547597
  9.5351354622514997 14.2277571921041339 26.0519548011813171
 13.8805145915559152  4.6198309493356779 36.6417623303935542
  1.3904861898067193 12.4014597623412151 37.2078426462403797
 24.5207022990411474  4.5134773188509296 30.1423620661337353
 11.5857007982577720 11.9230835329175413 30.7628618479480735
 15.3678105962153566  4.5012155237621867 24.4418901494504404
  2.9552414458522516 11.6133855873414849 24.8558701910843354
  7.9988825092094702  5.3110556845718166 35.8362211823155050
 18.5702114159086555 11.7827857790282327 35.6040112365868637
 23.5715278826486738  2.1146627963644407 27.6018212964187732
 10.5805542034897755 10.8406039858023515 28.2426770611987479
 15.2354465383586302  2.9313899552771323 21.3183922342075043
  2.8367178720300426  9.1259008629045013 21.6931127080834258
  6.1359163035733033  3.0492108034723016 34.0206928005455822
 18.8940285636694725  9.2713192618362115 33.7320053140855762
  0.7441400881303103  0.4854611242263689 27.8141846398400858
 11.7053461667406538  8.5064344838226553 27.6270650546477583
 18.2516885848362342  2.0123813821772925 21.6750069204021152
  5.9236003399690302  9.7578713391526755 21.8613817230656657
  9.0356252319139188  0.8139049130267085 35.0033921232918956
 22.3837964113593166  8.2915890911086407 34.4079674883110869
  2.6235723501759143  2.5236960427633228 29.8827071493963068
 14.5351260360326755 10.1455210000972116 30.9286977134163514
 18.9522193289984671  3.2234061917121268 24.4688560190884168
  6.5045245429656413 10.5135101728434588 24.4213221753985437
  9.7043168672523130  3.9249209952219837 34.1006200383570430
 23.3557712409638789 11.2393638226019146 36.0389050625121854
  1.3824886255056152  3.9386636320111754 27.6567162860788152
 13.9891141103800436 10.3594239689010461 27.6862921214866766
 17.7199078807605623  4.7263442545186054 21.7544990192770165
  3.9110151991052016 12.4979293395339912 21.9718236435940995
  8.1856858446214922  6.4834712223901780 32.8736120950562594
 21.7966505209582202 11.7851460937315284 33.9692955210592515
 24.3441989023832122  0.6142887689345320 30.0627769932963176
 11.2898255103806608  8.1910461783999118 30.5556505446496125
 15.8578615674763395  1.1574973065887004 24.0252435448330068
  3.2056963717399434  8.4402533998625788 24.6525215829126374
  6.0135020943330586  1.7728907200257802 36.7638363966715360
 19.0793210594612468  8.6671711583886655 36.2637551260333808
  0.6098968212685780  0.1789587689863360  0.7282758269092972
 12.1667506170709636  7.5173198583974790  0.2660719611486090
 16.8877423416270176  0.8752272667068536  6.3219409873724768
  4.2806864386326424  7.9484993267635016  6.2373780048245244
  8.1840292074809629  0.4121222141361822 12.1529707688347877
 21.1343201458910315  7.4828816026193525 12.1323785175980579
 22.8719055294733415 11.4551663518477795  5.9624811993478097
 10.3827735831893424  4.1173687458604187  6.5106110926964913
 14.5534384203464828 11.2420093926842100 12.3713289815210601
  2.1399237274933207  4.2669464014042520 12.2028461739648897
  6.3055596096521986 10.9498539568232189  1.0845779707634038
 16.4664953661105962  3.3387050201048831 -1.0543988210036397
  4.3095791106070065  0.5211185367117090  6.3206252229481361
 16.5986090041977867  7.9920075584031105  6.3385700254914150
 21.1755455635156409  0.5236251622004271 12.3148641011616196
  8.2058055199147120  7.7680543536094833 12.1524549252664738
 13.2596039081899217  0.1346208527359725  0.9156743310103445
 -0.4812800736364907  7.7011249433600613  1.6278071957066662
 22.8815810865699873  4.0647361935856674  6.0091061982524039
 10.6399449589746720 11.5576993983679781  6.3868196727626918
 14.6932250849757846  4.0738616127915481 12.6579981119105938
  2.1247111687368627 11.5311268946429095 12.0894526540741118
  6.8172884149732242  4.3117250447572930  0.6046104402124520
 18.5646428617514516 11.2978533304662285  0.8012165749500726
  3.8073902072885644  3.3455366532694302 18.9039566350933903
 16.2821794082398732 10.6075231866212665 18.9927420705667238
 21.3339843206618767  3.0354642067783102 30.9541832558888821
  8.0936357200603819 10.0503256958347400 30.9121440268816308
 12.6714319123747803  3.0252387542225465 24.6626182082816676
 25.2677062739271676  9.9436415866653522 24.8695595065585202
  2.2845170940830943  6.2499803131720899 30.9608486087253034
 14.9283447677652621 13.7626217280373417 31.2611303320350160
 18.9854140802264801  6.6630088734231903 24.9722605448739650
  6.4628763730347076 14.3429692274045451 24.8160772016415478
  9.8573123349996603  6.8520566499609430 18.8133682587405247
 22.9714114958863185 13.0402332157465892 18.8013583913319060
  8.4802531630184941  2.6881000646567141 30.9266758389093894
 21.0709086141203308 10.2335960255307867 31.0767472667447535
 25.4231492889963206  2.7679222933207464 24.8617579198620078
 12.6194374007551691 10.5388811685246910 25.0829441379147191
 17.0949128333951101  3.4297445541607838 18.9668576121156143
  3.7570309096811085 10.4242088301529101 19.1450148958443656
  2.1265633212380695 -1.0286297203225487 30.8666942409809941
 14.8135918165895859  6.4125177639635229 30.8781281357490300
 19.0701328205769549 14.0366412926927691 25.1632750014921953
  6.5832685731393141  6.9265036428117375 24.9831607944129317
 10.5170338120959670 14.2032984720143318 19.2183531265691414
 22.9563531949317330  6.8135373115824978 19.1869706972888210
  4.2022618142862509  0.4988246366504685  8.4123093977289720
 16.8306664168565625  7.8787652730033901  8.4164181669748874
 21.0453810837680422  0.2742270650391290 14.3902862110497232
  7.8240587518750289  7.6963950830858101 14.1194708916764462
 12.9319653383126596  0.6887860710784357  3.0140779749990778
  0.8081890964049773  6.5295582904532266  2.7403200592144219
 22.0707608271130908  2.1935273485384688 11.6034914889287979
  9.2916181428250315  9.2934536217088812 11.6459135413394002
 13.8956304618594029  0.1259396231201410 18.0407792507746656
  0.7025936455322669  7.8112571191248845 18.2389112025258093
  5.2473689976089419  2.2901269845458940  5.6503412029500746
 17.6331254405463618  9.7156866819095793  5.7617151586843622
 21.9274585455920601  5.6925630319642782 11.4240977660811449
  9.1865868919267033 13.2634787215321683 11.7535711762105226
 13.6990828229596993  7.9498065545149723 17.2996841692597414
  1.1580157291487103 13.1505139316983310 18.2782926640775081
  5.3806585564610208  6.2323628633369577  5.8328709663274498
 18.3258793684369898 13.9843040588764751  5.8139642540549881
  6.2630986455130016  0.3771553806033717 11.4914913271418069
 19.1802873777302842  7.6437257043329456 11.3424194330267571
 23.1100958415184117 -1.5316280589027602 16.8594976777438710
  9.7660246489909230  6.8464839270952709 16.6859227818047344
 15.0758173719396353  0.2533628300418174  5.7206555701246362
  2.4511475666942006  7.6148662478464306  5.4233294229979432
  2.0033554077333204  4.1570380958052171  7.8238136801826723
 14.8948146824688852 11.4651465700338147  7.9694645132060478
 18.6552781311726044  4.0229783036736153 14.0117406124220896
  6.0971667600582524 11.1523772137927271 13.7283347686201136
 10.7256945266220320  3.8910099226923123  1.7496735326611881
 23.0400069288877773 11.1195368855575296  1.5328378506014106
 23.1370624672619165  4.5793118889816720  8.0845832152417163
 10.6425628578330915 11.1852771813479883  8.4934888205051706
 14.4522009421244562  3.9712811555159950 14.8179643384965498
  2.0153010327699170 11.7190876609819359 14.1577628657875056
  6.5067659990538758  4.6684366962129635  2.6195981839602767
 18.4254413396222532 11.5991369499146906  2.8147713727051191
  3.2258545239332621 13.2868959501428474 11.5034488840696039
 15.8211538648874299  5.7812043180019455 12.2041863308724103
 19.2371507096209449 11.1847315991833760 18.3800294059628264
  7.2123875789869958  2.6399403593616029 18.4406363501101502
 11.7997499932179384 13.1935564673024555  5.9272556738258011
 23.5365340266378418  5.8678942470449726  5.1819389202491255
  2.6098949793162891  2.3712023317704483 11.7400862690082963
 15.6632115384699730  9.6751803085485690 11.8391308096073207
 20.9173903303718447  2.5256449084548658 17.2497318595954248
  7.1689997685879243 11.7917463260922393 16.6977899867874662
 11.5388622321389356  2.4298024433596872  5.8852058097584807
 23.9110726397991158  9.7808228663342476  5.4318542650690880
  0.0883432497166355  4.3614363201396786 11.6656778998943729
 12.5628206260506552 11.3781860455128232 11.7528577041214515
 16.9283066740236876  3.1223331775006375 17.0183778113030861
  3.4643585670746306 10.7557057180417210 17.1770456231205983
  8.5596557748070641  3.9927794684447835  5.6820480375518141
 20.9707739953472583 11.5741017300445819  5.1612924584742110
 -0.0570768344965764  0.6012232211172428 14.5778554174095039
 12.3923573826638442  7.5266191545549370 14.0196737000294132
 16.9009300964767668  0.6062116702252098  2.0487599080953021
  4.5001241491076867  7.9302681580678254  1.7284908535451853
  8.3077303837615002  0.2374589380016155  8.0370673042115062
 21.0692035471672305  8.0192266997102557  8.0843684078180935
 25.3051451823811853  0.1468419000243288  2.7740709817890421
 12.3695053039303584  7.8634205932769401  2.4689890961513550
 17.0663179663353795  1.0031653986911422  8.4244214325238946
  4.3039057336699420  8.2550219988264004  8.3126414851503618
  7.9410564924122458  0.5047512407579257 14.1266507350679440
 21.0800536787513799  7.6517511568895493 14.2254186182185212
 22.2950850782225949  9.1097905322092672 11.3758852568475568
  9.2206939853660241  1.9301357480820889 11.4874755630167300
 12.8449171698757016  8.6733610690848746 18.9491429071072979
  0.5975584517029512  0.6269312206350053 18.3331920702422373
  5.2462803685606181  9.7637556513660577  5.4042302612727244
 17.1333390091927065  2.7911212212928329  5.5672827537492564
 22.3605883283568332 13.5538098661408597 11.4541611384937827
  9.1426954919221224  5.9897658488784735 11.5217914941567248
 13.6721345356468227 12.6113679957669049 17.5609376090834921
  1.4281933375491616  6.2299523995472592 17.5214472148225084
  5.2484819652309698 13.3739967227319454  5.7135868887656081
 17.7104912678556232  6.2942618369762879  5.8496913282807590
  2.4418246155540753  0.5006376354157062  5.3986447784280438
 14.6483281938238630  8.0126077615976961  5.6944700716135968
 19.1338102924681444  0.4255157062442737 11.7713022470254334
  6.3868407087079113  7.6711660003027848 11.3335874087328161
  9.5616236242979120 -0.5601154827460865 17.4271771974193861
 22.8355454410803524  7.1189950709723400 17.1937986365033311
  1.8542284609900088 11.2512787469147408  7.2499045937753355
 14.4074476526112338  4.1899932755183809  8.4643936689431900
 19.2636160302200423 11.4181473302226859 14.2530621109217943
  6.2617573305183436  4.0358422325624446 14.1511629589676353
 10.6925463052929128 11.5339857067561908  1.5533059814542491
 23.1840625055383853  3.7576246141515690  1.5357099304711608
 22.8875334763150917 11.7318208695637907  7.9364386531187598
 10.1146868774308363  4.1435797092012674  8.5690737090013638
 14.3453619565732673 11.2910258047916550 14.4488016243068458
  2.2402727808277128  4.7345084884840656 14.2143582836671136
  6.7265587681928256 11.9555922454835386  2.7896326018214217
 19.2034907680730385  4.2483134202898043  2.2289014547621404
 23.8804784949940334 13.0860469143518863  5.0416957685100341
 11.4758594798593521  5.6334913804585423  5.6618297030750133
 15.3844773237913355 13.0759017915216322 11.8746912069259665
  3.1677568950495010  5.5876433826643970 11.1608755841087586
  5.8711559304371246 12.8180202754061874 17.8916351849418085
 20.4315061307742916  2.5826126395502222 19.2671934724078575
 24.0117608815364107  2.5268776914902249  5.1867736710897097
 11.4795595460756434 10.0696084333152545  5.4164101698910523
 15.8219734708162676  2.4983159267818302 12.0058833054873091
  3.2736822301462500  9.9755354572299737 11.5849847787344231
  7.5023570098888506  0.9422794967324769 19.8272080025389208
 18.7289553366147032  9.2973095215997308 17.8047956767035274
  0.3086787824670674 11.4085703540878391 11.3102281478223912
 12.8811159119662584  3.9790877958389692 11.6744872962646440
 16.3312539010937989 10.6111999462420812 17.0123390253784059
  3.3182956014528764  3.3450663758474506 16.9635101997398259
  8.7469544028728432 11.7368766234866815  5.3924625364050938
 20.8746708932453586  3.8565999876547981  5.6112572160717260
 21.2266816535544969  0.8124143099891734  8.2147795400081236
  8.4793008155691130  7.9766368468984430  7.9234209402497191
 12.4439325029893837  0.2927702832908637 14.6632728515760196
 25.2491315935185305  7.8699450659265935 14.1407474858305537
  4.7572319273316870  0.9690716069528141  1.6894544872628228
 16.9684196407816898  7.2652138568692468  1.4026270258542759
  8.5145960240655292  2.9073039209324736 28.9219327065307183
 21.2692766937080506 10.0466303907348475 28.8644315682464025
 25.5057745217880090  2.7309029129361044 22.8320904464132326
 12.6713530927978493 10.4918678274877948 23.1004665827524960
 17.4051169591605763  2.4714108283727008 34.6272588051415724
  4.5614776579649785  9.8311132790875320 35.3768841199694535
  1.2203258531482697  1.2489256274283000 25.7434574971885937
 13.6830201773326738  8.8229609527044452 25.8488591606730118
 16.5970468679355463  1.4797624936969682 19.8540794453687610
  4.4323262654623337  8.6278414339798957 19.8132766132521922
  9.4930767633059254  1.0920111623641255 31.7488645266500278
 22.2002830080751892  8.5080871230961854 31.8377500556967554
  0.8295452981881388 11.5384292557809847 26.0475712132309809
 13.3233715037847542  4.9830619426819434 25.4991509836207761
 17.8648199564505745 11.6253686054525733 20.0592135284081934
  5.8474861897537078  4.0600778492768095 19.2359662692628817
  9.0680982299334438 11.5876214436464142 31.6955597375831921
 22.3318421034275971  4.7100594489313528 31.5605412587827558
 10.7405019404266415  2.7231357176051390 25.3479511140543359
 23.2478256554857836  9.7866218398173448 25.2133944109946135
  3.3855496341127553  5.0552362818080194 19.8262953475333283
 14.3906704905393923 11.8358650447821887 19.2939603773032857
 19.3701549150808603  3.0670820898202180 31.8681423599985685
  6.2126766745169961  9.8747106688708328 31.5735815740525716
  6.2054980701986233 -0.9209623816630714 29.3126074220122206
 19.0281824611652333  6.6752033347841433 29.3260735546663902
 23.3343378730063904 13.6315836952034104 23.3397616555243239
 10.6560601071733352  6.7936290131138701 23.2543534199439037
 15.1513998526138689 13.8922956739873182 35.5055799694605341
  2.7329550008198331  6.1031358014054033 35.9057309851705710
  2.1463643696600965 13.3087274486656124 28.8773502728049891