Li P  S  Cl
 1.0000000000000000
    20.5609999999999999    0.0000000000000000    0.0000000000000013
     0.0000000000000033   20.5609999999999999    0.0000000000000013
     0.0000000000000000    0.0000000000000000   20.5609999999999999
 Li  P   S   Cl 
 190  32 160  32
Selective dynamics
Cartesian
  0.9977919165222529  0.5113798323263806  2.4132402067753227   T   T   T
  3.1978187775596396  9.7285727289883077  7.1582372641525716   T   T   T
  8.2221516773549013  7.1795495484061691  4.6525887692663188   T   T   T
  7.2756510827158269  1.2727968277479980  5.6456033973357096   T   T   T
  5.1112439263502445  2.0370413503645333  7.6148514960170584   T   T   T
  2.0344887565282108  2.2811391175719780  0.3196670463947109   T   T   T
  9.2416639643553324  4.3800388163122683  7.0253989551044471   T   T   T
  5.3594675070306401  6.9919885229473344  1.5084726100713115   T   T   T
  6.2275295125096495  5.0558582185005800  8.4691948581577989   T   T   T
 10.9702736784922177  7.3025519839862660 -3.6588669053141238   T   T   T
  4.4285948411775067  1.5841420502454024  2.9521887646672580   T   T   T
  4.8745134457727106  7.7397715041353088  6.1242845525103720   T   T   T
  7.3271494629438108  5.0050127843675405  2.3985717602001539   T   T   T
  8.9312662131656158  0.0485714862492574  8.3699586250786790   T   T   T
  9.6990461234880350  1.7666142234349025 -1.9283322138922869   T   T   T
  2.5873297681757927  5.7494660791107144  5.7451833773735093   T   T   T
  8.1698826570623080  2.5685534626313578  9.7683415022021283   T   T   T
  7.7785511942054599  7.4381218907464817  0.0537241548604631   T   T   T
  0.4761133520989209  7.4766234978415698  7.4053548981042150   T   T   T
  2.9914859110322385  4.4973080810614565  1.7965910437080357   T   T   T
  0.0451662590769445  2.9638840825103863  3.0187199861025444   T   T   T
  3.0704412508959598  6.6772312109313354  9.3711300495867889   T   T   T
  1.9121318909291942  3.4166967281347196  5.5740971869278866   T   T   T
  9.9284128218435796  8.3878863935279515  2.3807629372883996   T   T   T
  2.2009219854062083  3.1589575465561568 15.3775607885314436   T   T   T
  1.3600625121994119  5.2221189067647753 17.6051507772117866   T   T   T
  5.5737813419759235  7.4151879275036681 12.2321534785978887   T   T   T
  5.5404992872084042 -1.5798851275960764 14.0951773283666135   T   T   T
 -0.2050104294229624  7.8522942248186993 17.8994183799918467   T   T   T
  2.3699415878749779  5.0098200439166316 13.1199263332330620   T   T   T
  7.8639161127418449  2.8080663005480577 16.0371812936390725   T   T   T
  7.0500534577087457  9.6483315060933972 13.1885641819103014   T   T   T
  5.2851737550368032  2.4159772374259867 17.6886885872387083   T   T   T
 10.1595937592230889  8.1475800929883668 12.6356043020122861   T   T   T
  2.3505373345889162  0.6584789125679864 12.8614314341177973   T   T   T
  2.6964031600205618  9.8742456027142111 18.0273612096097651   T   T   T
  7.0449016162536138  4.9777748818719534 12.0088075300383270   T   T   T
  7.2221940453528193  5.0646897842111667 18.6706461115845421   T   T   T
  2.8845445770163507  3.7521839152263730 10.6033260251853587   T   T   T
  4.6395315744825334  6.1256286512450515 18.2960384792371826   T   T   T
  7.2680814820139235  2.5813577814422208 20.3409303001364705   T   T   T
  8.7102784535454827  8.8031309710852295 10.5643701840431987   T   T   T
  2.8137806642779242  7.8143385674854882 15.5497283119422640   T   T   T
  0.0839967174052211  2.3787475497492458 12.6097472044742673   T   T   T
  4.9914281939660201  3.1220484168719840 12.4572169803132198   T   T   T
  1.5534177396502464  8.0216417100211181 20.2471021393193240   T   T   T
  7.5024544331725140  0.1773432195017288 17.4402088704659555   T   T   T
  8.2233175019102944  6.7026977782694441 14.7211349937248137   T   T   T
  3.1891038066990798 11.3692261274211006  4.6445944507379204   T   T   T
  1.1421284826041003 16.4519285310880576  7.3140406689214528   T   T   T
  7.3106884429566223 20.1945430175665521  2.1653468839350372   T   T   T
  7.7875032326940659 15.1008460760165626  6.8558431442513763   T   T   T
  2.9850691456169582 17.8849016668882008 10.2520661183434463   T   T   T
  2.9468717265635047 13.3159786644845664  0.6139005074518815   T   T   T
  9.8831701447916203 13.3071892015278763  7.5611747606924000   T   T   T
  5.5798419116254925 18.5353797324100356  3.6889704987776173   T   T   T
  7.2056906807264882 15.5953089193016581 12.5986427020055540   T   T   T
  6.8913288289444203 17.5664093549275862  0.1633943841643691   T   T   T
  2.3225887448699720 10.4835435450854426  2.0982976673082416   T   T   T
  2.4760198142845744 17.0083362048197912  5.3228471554792121   T   T   T
  7.0061278761049772 15.4742318671027661  2.1246250951116248   T   T   T
  7.6560351261988453 12.7002723738691525  5.3347424198267968   T   T   T
 -0.0039368393227168 12.8451133473888746  2.4363129741146432   T   T   T
  1.6571621850402050 20.3107857546097854  8.2769038510707933   T   T   T
  6.8369859723527107 10.4928720261980608  7.2385471526650944   T   T   T
  8.9159262734242404 18.0269987680277843  4.2125058607466226   T   T   T
  4.3557097185124372 16.2242527126662104  7.8113341260101423   T   T   T
  5.0946195055981587 13.0520321069661875  2.2553232303486048   T   T   T
  2.1011347733185279 15.0262041945092584  3.2932132113268366   T   T   T
  5.1447745393246445 18.8163722007894663  6.5426349019187651   T   T   T
  6.4191960922085167  9.5383770219897954  2.8164313920994410   T   T   T
  9.4770460943950727 18.5439895340485776  1.1634687196078504   T   T   T
  4.8010905360763703 12.3827479752597647 13.1411212208028090   T   T   T
  1.9936280089201246 20.2071507901715322 18.9031101729760955   T   T   T
  7.6381530688099248 13.3512860634987760  9.8882466977186265   T   T   T
  7.3713238698418726 12.9440421154603982 15.7587983245884402   T   T   T
  2.3451322356369908 17.5606595675940511 20.0046302624065468   T   T   T
  2.5353788064612619 15.7089091721591885 12.8313404877579575   T   T   T
  7.4051942930324497 10.0402762775756962 17.4567654307599440   T   T   T
 10.1070729543893840 17.9461014610144289 13.1739691764324895   T   T   T
  9.8285665667001698 12.1022848162654384 18.7227373231895982   T   T   T
  6.9029761414833635 17.8982099819105898 10.7324451292384673   T   T   T
  2.4634256303258200 10.5948834902594911 12.0355601399960523   T   T   T
 -0.4826419795193370 17.4868217782059183 17.6048691747133610   T   T   T
  8.2058888094242217 17.7448942259587099 15.3865552582443197   T   T   T
  6.8289250196431492 13.1321392898528444 20.3432888714084754   T   T   T
  3.0798299301512420 13.2476163242076979 10.4903295611130769   T   T   T
  2.5355342625797990 18.7628794805061183 15.8303021900580312   T   T   T
  7.4395950410687961 15.1520545929720143 17.9940039467104427   T   T   T
  4.5115831391085619 18.8367162676961577 17.7010158433536233   T   T   T
  2.5375936728507167 12.8910292216055868 15.2761714060834723   T   T   T
  0.2531027187827569 13.2309989484328590 12.8369341853184640   T   T   T
  2.0497042253619271 15.8637291996373104 17.0399147235604431   T   T   T
  5.1456387415087370 12.1386959341205731 17.3679992338107247   T   T   T
  7.9090594598182893 20.5177193777959346 11.8204341627778202   T   T   T
 11.2562251293641165  2.4493544063812895  0.7282648154482941   T   T   T
 12.9610383678778032 10.1112888145255599  8.1265119076238115   T   T   T
 20.2579240713111801  7.3872529451242528  3.2837191602065370   T   T   T
 16.9691661866489625  2.6948359668526485  9.8299481204477583   T   T   T
 12.3066411940451363  7.5813696612492736  5.5559669213107856   T   T   T
 13.7335288449293937  4.6474418758664617  1.3662515639021016   T   T   T
 18.8678944737158432  3.3809588264688326  5.6074146520399388   T   T   T
 15.6043594231804192  7.0817202751334944  2.1882003449561567   T   T   T
 19.8185457770309412  2.7759118102855571  8.9463492812575485   T   T   T
 18.2275935430673002  5.5662128858959257  3.1250926843918525   T   T   T
 14.8968124048871911  2.2819687860164506  2.7127378107013378   T   T   T
 14.5207652086005137  6.1786169536800504  9.0124086737322262   T   T   T
 18.8007797713859048  9.9347146246817921  1.6564281095944196   T   T   T
 15.7175810087324130  2.3222035562056123  7.0122174629130312   T   T   T
 12.8061097737655434  0.4807103332506159  1.4734505853303650   T   T   T
 12.1568858191479325  5.8023831533003358  7.2395819942805995   T   T   T
 17.4931783903988318  5.3613063924412581  7.7079318991976180   T   T   T
 11.7598679650230906  8.0864708424199421  9.5609063103440697   T   T   T
 11.4934136162129210  4.8145802154135762  3.0164273282586187   T   T   T
 11.0425045667215667  2.7318856488843135  4.8946257707515644   T   T   T
 15.1916994668952245  8.5643291356601132  7.0837672448250411   T   T   T
 18.0769244216222518  0.2967892238166095  7.6336049805151136   T   T   T
 17.3562149209245007  8.5960086688566957  4.7530348925594925   T   T   T
 10.3019803789841475  1.9404629474241633 12.8349583192433645   T   T   T
 12.6036868805166655  8.3187489506398631 20.4644542621274645   T   T   T
 18.8536910455341413  9.9190718786975260 11.1489529964020910   T   T   T
 20.0215667930435472  1.9526156914993480 18.9646260789238568   T   T   T
 12.9069854862947402  5.4362858889346848 18.4538781353475301   T   T   T
 14.5703057147248973  3.7900885999888430 12.6875983572098470   T   T   T
 19.1206469951444333  3.6483844678865278 15.9721436902764236   T   T   T
 17.7853982901753724 10.3844329351982978 13.6695711587136710   T   T   T
 15.7986470785576412  2.8202461582313352 19.0530261426516212   T   T   T
 15.7561171218975993  6.8279514997262529 12.3848129062702874   T   T   T
 13.4336891798053966  0.3532124830183571 13.2686538470840549   T   T   T
 13.0490618776021421 10.2025937636501585 17.8944451724385978   T   T   T
 17.1070465330028583  8.0205043838309020 15.1706428074370354   T   T   T
 17.6432739692490159  4.7284583262784858 18.8068162852194298   T   T   T
 12.2850474744456903  3.0486232548831298 15.2517843825301700   T   T   T
 15.2043056006374719  7.0869443765919113 18.6035718399024042   T   T   T
 17.2033774815292944  0.3617776608439651 17.8975805247550888   T   T   T
 18.4403455603825535  6.7871310322578653 10.8050157364328072   T   T   T
 15.8533618282467152 12.8562621087361233 18.0094611404675220   T   T   T
 12.3153612040941862  2.2625558765914913 10.5238990871972629   T   T   T
 11.0776011892577255  4.2045815476850930 13.0231566180938199   T   T   T
 13.9005211666031148  8.2747516628197388 15.7579009325159980   T   T   T
 17.0629973383895788  1.4717916744088269 14.6278519540241021   T   T   T
 19.8037612677057950  7.6566714298456464 14.0555932160504788   T   T   T
 10.7182593281988829 12.7222936948241454  2.2335796302006363   T   T   T
 13.6256402150951370 15.6467887821649629  8.5490270053980115   T   T   T
 18.0048555355436051 19.5823097796649073  4.6499439499812416   T   T   T
 16.0042011635906150 12.5183691651239215  7.1120444788112493   T   T   T
 12.1045712829655958 16.7372855955240993  5.0263146567021737   T   T   T
 12.5963410729971788 10.3500980446329471  2.3872396710207267   T   T   T
 17.6962935849899594 15.0174915545524268  8.4696357656283094   T   T   T
 16.6429124940928475 16.9081773264135578  0.3177007851883695   T   T   T
 20.7603190009635554 13.0709299902872775  7.0877662911334580   T   T   T
 18.6628822068991767 20.4337093232254574  1.6410991587121644   T   T   T
 12.7318437073222022 12.6739512040593372  0.3064787384334330   T   T   T
 12.5486686896835895 20.4532566835310234  8.0858887952578442   T   T   T
 15.7653749074536780 17.8703265667795144  3.1096968529439422   T   T   T
 18.2208048796140858 13.5399294788215823  5.5111806122403877   T   T   T
 15.5439933082320252 12.0492413978566937  3.1867984867034593   T   T   T
 12.4451061846233575 18.0809368824074710  9.9704189289940164   T   T   T
 17.6415750007845205 10.7820580688069096  6.6340161782551696   T   T   T
 20.4918264746129140 17.6172830674701437  3.2026864747726784   T   T   T
 10.7559384955169826 16.9211811847961080  7.4390058912445411   T   T   T
 14.3931925770648448 14.2504384021307686  2.1363411029586774   T   T   T
 12.7847741313571639 12.6252919284320537  5.1359806942847692   T   T   T
 15.1768132280636561 18.3755986960293818  7.0402240932655324   T   T   T
 19.5280567388331434 12.6356592066010727 10.0415681813459283   T   T   T
 18.0211633120776611 16.5407949302136075  3.6388579258346372   T   T   T
 12.6587806270559948 10.6457331845418093 12.3566979725844206   T   T   T
 10.6841213526830234 17.4576798069695620 17.4032376582133637   T   T   T
 15.6032649561577319 18.4214024712360036 13.2400554218970754   T   T   T
 17.5638700442563689 13.4048791847162239 20.2972466326380108   T   T   T
 13.1068389189958214 17.1295307653276154 20.7000073797992776   T   T   T
 13.5734095583665439 15.0086164736405578 12.2859677843409241   T   T   T
 20.3082402596949407 12.6770411906316554 18.2593181996908847   T   T   T
 18.9413363547395264 20.2362439873069704 12.4319250051821033   T   T   T
 18.2954814097711065  7.8229999088890221 20.8675333186216285   T   T   T
 19.0650143285602951 18.3725201772221318 10.5819500149568366   T   T   T
 14.9645913798226058 12.3508339699028067 14.4144110793874809   T   T   T
 15.1638180330070131 18.4806509069283820 17.3579706700168614   T   T   T
 17.9942143314472247 18.5895529242612376 15.0017100831319539   T   T   T
 19.2269346152411700 13.6006681758829924 15.8343565594873272   T   T   T
 11.7322344932446754 12.8714456737410678 10.9281998976978194   T   T   T
 13.4969615840838273 15.4462711831622510 18.3923242405952614   T   T   T
 17.9746646775869010 15.4629667511305851 17.7730461091191216   T   T   T
 17.2968587197603298 15.9374219651528648 12.0138872881009835   T   T   T
 12.9943523705447941 20.2566895152877535 17.8802914765930225   T   T   T
 14.9154758484119583 12.8546304283881589 11.0532052976197974   T   T   T
 11.4211710060138714 13.1386383912474791 14.4937528585308648   T   T   T
 12.9559659557987921 16.1205087731194432 15.9958395357341665   T   T   T
 17.4199026049760519 10.5761239348016520 17.4492528188629805   T   T   T
 20.0934213256955942 17.6176303761282291 13.5538364512701488   T   T   T
  0.2346149633860850  0.0766602285519968  5.4109152932888609   T   T   T
  4.6005274220619965 -0.1000501877239444 -0.0574205388670875   T   T   T
 -0.3270232652294750  5.1955420124788469  0.2301843355871989   T   T   T
  5.0962639150369551  4.7104364464411894  4.9553646401654854   T   T   T
 -0.1473223764260606  0.2587853128128177 15.5913152984099401   T   T   T
  5.2273789903329027  0.0599106093281956 10.3777891481947648   T   T   T
  0.0312718771611416  5.1297803570055560 10.1965170474186184   T   T   T
  5.4113562240008370  5.3724099697555845 15.5042522650959320   T   T   T
  0.2947591573988102 10.4051228428394555  5.1844677391257328   T   T   T
  5.1238098313565130 10.3438023911532451  0.1043108813819150   T   T   T
 -0.3329502428777996 15.5262877556515164  0.2178554849983296   T   T   T
  4.9456611821503147 15.5192571956560261  4.8405105160055601   T   T   T
  0.1191489563917110 10.6419601775294499 15.4197203718701275   T   T   T
  5.1251659602140318 10.2832437266965204 10.2699949062438520   T   T   T
 -0.0622690499078835 15.5303295339496170 10.3076991331782359   T   T   T
  4.9277152006480360 15.7463476711766450 15.4522524965618704   T   T   T
 10.1737937208732721 -0.3668824817544215  5.0939913376726391   T   T   T
 15.4356247492587819 -0.4115662433507770 -0.0354275024709983   T   T   T
 10.4931052793520774  5.1511629870149882  0.1058573189459952   T   T   T
 15.1923579480158999  4.9514794087706777  4.9696578444288839   T   T   T
 10.2155764179973509 -0.1127739154872050 15.6448155755586402   T   T   T
 15.5320014689611394  0.0675019487183821 10.4998320136372296   T   T   T
 10.1459677903233647  5.2845064105637451  9.9508362012258793   T   T   T
 15.3244359850362368  5.0295024857568240 15.5797644528464172   T   T   T
 10.3450164212787001 10.2240054106801210  5.1454698295077499   T   T   T
 15.6356233191386718 10.3323268040119256  0.0254405506041515   T   T   T
 10.2094837972782564 15.2688578310536247 -0.2141391749774229   T   T   T
 15.2405071340220317 15.0411457620273463  4.9597130015108988   T   T   T
 10.3583027637845397 10.2243309970001555 15.3873874163663569   T   T   T
 15.7248948494634604 10.1564179958606857 10.2491694571779952   T   T   T
 10.2377527290029455 15.5416344822435608 10.4755856247458912   T   T   T
 15.6845590624485531 15.3793208403622863 15.1802480914529863   T   T   T
  1.4333150884007120  1.3078631882232687  6.4166945167379890   T   T   T
  1.4164935884415084  9.1084727804478192  4.0701101271753544   T   T   T
  9.2717383324393801  8.7385741473858971  6.3382429626443280   T   T   T
  8.7555761161302144  0.7814528297795963  3.8598881336481310   T   T   T
  5.7169282025936168  1.1614868132951184  1.1892322824557642   T   T   T
  3.7929973251368949  1.0988405825915202  9.2197511391836002   T   T   T
  6.2944836727425937  8.9252405525025811  9.2178316596938608   T   T   T
  4.0745026397049404  9.1731426575496879  1.4884299076536551   T   T   T
  1.0803969519342298  6.2833756913754311  1.3620604819226338   T   T   T
  9.1590253547996490  4.1641290110198916  1.3646620759559001   T   T   T
  8.7728250890643924  6.3278365299410133  8.8790873882427714   T   T   T
  1.2635714339044757  4.0732997091217271  8.8936429228838083   T   T   T
  6.5769301630761419  5.9482374102950706  5.9354843467332863   T   T   T
  6.1119893472987039  3.4287732107706126  3.7349453080351811   T   T   T
  3.9805403970739595  4.0244881036587739  6.4959417909396171   T   T   T
  3.8564645795238746  6.0194954003573340  3.7682201224149448   T   T   T
  2.3604531248774463  2.6982946304970215  2.6332826355667209   T   T   T
  2.7467698277214700  7.5084309359731529  7.3157638789299693   T   T   T
  7.5952741129634083  7.2135271887687091  2.4346474849874009   T   T   T
  7.5929110516195095  2.6330068542889662  7.6841556360436609   T   T   T
  1.1317119941050111  1.2364470892695194 16.7735081649520374   T   T   T
  1.2461976925383009  9.4679211991743308 14.1807647056714075   T   T   T
  9.0998327104773420  8.9182715134922663 16.4926154650815420   T   T   T
  8.6996057024929918  1.1566683705066643 14.7859190691366482   T   T   T
  6.1955331651719980  1.3198550918891396 11.5414373300181605   T   T   T
  3.6946595743192967  1.3999228819985003 19.3837153301021878   T   T   T
  5.9940196634673812  8.8355594155106001 19.3379146633756704   T   T   T
  4.0407354920939813  9.2479925336312778 11.5037656846195979   T   T   T
  1.1850980360843182  6.5850869256750819 11.2182892584634875   T   T   T
  9.1125113977999987  3.9319282499278234 11.1984885846052435   T   T   T
  9.6838863940619362  6.3954760217248188 19.4134728579535114   T   T   T
  0.8165298890321934  3.8632914418560120 19.6674134271392660   T   T   T
  6.7590497493759774  6.3525350495555104 16.8114473874302881   T   T   T
  6.6033745041073777  4.1365459260056268 14.4158112967510750   T   T   T
  4.0324873460791153  4.2753888345458648 16.6005330729709542   T   T   T
  4.3473129878362435  6.5741243238463367 14.2439491040262869   T   T   T
  2.8269521856279667  2.7747212282806952 12.8602169246960170   T   T   T
  2.3216222651464467  7.5550164915773950 18.0969065981315111   T   T   T
  7.7976993343374223  7.5188243219679549 12.6971447880692594   T   T   T
  7.3900407042008647  2.4389773048577230 18.1195068530993737   T   T   T
  1.6602671542860703 11.5860376711429272  6.4000311237376950   T   T   T
  1.3750043906202782 19.3397041936770471  4.3221135142573806   T   T   T
  8.7429957458143388 19.0648140572163989  6.3287054496385338   T   T   T
  8.9542237265605760 10.9352449535504075  3.8766262784952765   T   T   T
  6.6289626534266350 11.3958947336512413  1.0821462995359181   T   T   T
  4.0497264301161753 11.2790576160448097  8.9862788988644269   T   T   T
  6.4590063562489339 19.4886895274151151  9.0882194208265581   T   T   T
  3.1318028027577580 19.4478298158025034  0.9041912572820957   T   T   T
  0.9699086242111747 16.8420579065946399  1.2644815538746561   T   T   T
  8.9784990633212765 14.0016532750389047  0.9947871223164014   T   T   T
  9.1268418670274585 16.7995766643550510  9.4170752494752943   T   T   T
  1.1559479442017702 14.3537616434898787  9.0819980636070721   T   T   T
  6.1140498222774999 16.6799270564828461  6.0943967083702049   T   T   T
  6.4567622039285331 14.3417098104092009  4.0341584070501337   T   T   T
  3.6462004359077320 14.7273774139075240  6.0724497224630776   T   T   T
  3.9707641904381599 16.5539271848551621  3.4860087412407545   T   T   T
  2.5517720385218770 12.8236214659119803  2.6745250918902754   T   T   T
  2.6375378413088315 18.0523971625710473  7.7689962810418294   T   T   T
  7.5430569433257766 17.9198655245287561  2.3976310720457228   T   T   T
  7.6086505147293249 12.9114568897989166  7.5803917487276911   T   T   T
  1.1570102622703913 11.7646911911825391 16.7953871693639876   T   T   T
  0.7518941124363734 19.6284572974055820 14.1891710400886595   T   T   T
  9.1586346183438483 19.2247571011745819 17.0274001450401364   T   T   T
  9.2447255771598087 11.3609054050166787 13.9889408815540097   T   T   T
  6.4859114252991246 11.3656087073137844 11.3693229057061469   T   T   T
  3.7492160066143039 11.4409696723454584 19.6669454510196289   T   T   T
  6.0217591541655731 19.3984050148075724 19.3927517315852214   T   T   T
  4.1918741652150375 19.3276709603441468 11.8008200945292216   T   T   T
  0.9742321783832123 16.8577337699406584 11.5234416624623925   T   T   T
  9.3158552906437997 14.2073224007860706 11.7243424859222323   T   T   T
  8.9349871206994607 16.5526496804640963 19.5221954786616863   T   T   T
  0.7956115954665941 14.4070999084488154 19.5308274580708137   T   T   T
  6.1044563653802184 16.9157143951386182 16.6724889584953928   T   T   T
  6.2073263256031828 14.5213018861076222 14.5413691010072768   T   T   T
  3.6258439390300774 14.4017508997842967 16.6657312584261668   T   T   T
  3.6260518212859121 16.8856676794059908 14.3442415668774927   T   T   T
  2.6147965491527412 13.2977518331607598 13.1048049694787867   T   T   T
  2.4304259779696467 17.8195928294549262 17.9095549691323619   T   T   T
  7.5561620552553617 18.1775629831646128 13.0987550293328479   T   T   T
  7.3010139017137057 12.4149976993480138 18.2309968151263924   T   T   T
 11.1061410250698760  0.9927576866677064  6.2725285122369714   T   T   T
 11.8217136926475082  9.2089444241993892  4.0131829850038399   T   T   T
 19.4410331056025001  9.1377624936734083  6.2331420327836042   T   T   T
 19.5184779613758010  1.2834612233181046  4.0745614683503986   T   T   T
 16.5701773650351640  0.8467665565313603  1.1262546166330918   T   T   T
 14.6157025399114708  1.6193932835753597  9.0227731016926249   T   T   T
 16.8633142977130461  8.9820398260692542  8.9842199721647606   T   T   T
 14.4558267783044787  9.0524608120513683  1.1780159465183950   T   T   T
 11.9271362871140560  6.3427868607794053  1.3000448818362438   T   T   T
 18.9758177443569878  4.0420186711023156  1.3177577752530483   T   T   T
 19.4075904747264261  6.2324596546145763  8.7782430206262170   T   T   T
 11.4212310409340141  4.1707216805266194  8.8285400432497205   T   T   T
 16.2330281654618105  6.5715820354261760  5.9499473484317802   T   T   T
 16.4819125165937521  3.8132688306287963  3.9462234535401253   T   T   T
 14.2528577227055813  4.0730648554041595  6.5636345298244665   T   T   T
 13.9892018731740233  6.0128067036623341  3.6619299521424988   T   T   T
 12.5893237582957180  2.4399180782253000  2.6205975454833381   T   T   T
 13.0688320060200489  7.9615693389325584  7.7534140846406014   T   T   T
 18.0349443498876951  7.8174993174156029  2.4187571594297008   T   T   T
 17.8463679981635295  2.7417457356798205  7.9040213961875487   T   T   T
 11.3841984505925495  1.1745952379362012 16.7992733945189485   T   T   T
 11.6143589630526183  8.9630131458953279 14.2218155539366649   T   T   T
 19.4519984760204707  9.3777630148336986 16.5453422050005337   T   T   T
 19.4417318817121441  1.5711037651467632 14.3380386004365672   T   T   T
 16.6167219947296800  1.0251258223816035 11.8820135804941476   T   T   T
 14.8433286025540578  0.8030496991961961 18.9020753762823617   T   T   T
 16.7054634930238848  9.0476099420494833 19.4404160312124432   T   T   T
 14.3211289449926209  9.0656166364608097 11.2543279176147699   T   T   T
 11.3861258952466624  6.3078739248411022 11.2615612012013635   T   T   T
 19.3681063062278014  4.1419724198034915 11.4175911807923551   T   T   T
 19.2725746502282220  6.4458031011247279 19.4531938454458349   T   T   T
 11.5206379624332502  3.7171689155063063 19.6387259122811599   T   T   T
 16.5555371431097669  6.1614711099566470 16.8918156740844445   T   T   T
 16.7466176365629948  3.8931669692254709 14.4376994288889762   T   T   T
 14.2566150546642803  3.9514340318518544 16.7596426108665106   T   T   T
 14.3056889584731302  6.2952875329793265 14.2525425122482829   T   T   T
 12.4481768968957045  2.4599999284007370 12.9348972510484543   T   T   T
 12.8482825535300300  7.9637832005589599 18.2439959382638577   T   T   T
 17.8516346878237897  8.2396702162697810 12.8422876144727098   T   T   T
 17.9488869072546677  2.5908930285485274 18.3108738412145975   T   T   T
 11.3902032462416862 11.5151864400026547  6.5466105049081902   T   T   T
 11.0595208864201471 18.9097683202348179  3.7081656377440950   T   T   T
 19.8060559397593323 19.6971423240304659  6.8924708273261324   T   T   T
 19.4886988520441875 11.7010782081567442  4.2265699141246458   T   T   T
 16.8639844320609598 11.5053965891669883  1.0921939636233804   T   T   T
 14.6422931839544450 11.5153230064942633  8.8211607883011478   T   T   T
 16.8245472564252765 19.5049239767361513  9.2656990911297115   T   T   T
 14.2757283076243464 19.2659323962689015  1.2865670389627182   T   T   T
 11.1501923285849163 16.3180981951258097  1.2496729656467493   T   T   T
 18.8695416586401450 14.5874235139120909  1.4650397511396800   T   T   T
 19.5047514000234017 16.6761648551367685  9.0962034076777609   T   T   T
 11.6912555305694585 14.4721106077926045  8.9856027015294515   T   T   T
 16.5655433926478821 16.3314790458239223  6.0243769649156498   T   T   T
 16.4976803192274915 14.0778593542757804  3.4610376387098531   T   T   T
 14.3361957792236758 13.8311228032158233  6.4290964216418089   T   T   T
 13.9562523780809951 16.0476730457441050  3.7400030230252566   T   T   T
 13.2639651442396396 12.5084463558789274  2.6900398848812919   T   T   T
 12.9575858330995377 18.0432177010988006  7.7955061542446638   T   T   T
 18.0544725513713118 18.4410089627941822  2.7756360317497921   T   T   T
 18.2614738848794289 13.1474524540216642  7.5380950299007097   T   T   T
 11.5223335412563888 11.5341140462815854 16.5250962670017998   T   T   T
 11.5100332308050426 19.5120891491852433 14.4068701949897520   T   T   T
 19.1045518508844481 19.6910952147348723 16.6842278411255940   T   T   T
 19.2817043588773132 11.8448975037662354 14.2129847922907260   T   T   T
 16.7919814711984614 11.2990448342230092 11.5236659792787002   T   T   T
 14.3692488579669462 11.5541079205916120 19.4330182514243006   T   T   T
 16.6069174923554783 18.8049671054104550 19.4147847416979964   T   T   T
 14.2007421765406434 19.3688082039836438 11.3401044300615688   T   T   T
 11.5299147604563057 16.7236655451627598 11.7031309842163047   T   T   T
 19.3075388042783587 14.4613765077980467 11.5124943967033033   T   T   T
 18.9486798706113930 16.7526438665012130 19.6685568264219661   T   T   T
 11.3183050929538052 14.0426487692822661 19.3075657007737931   T   T   T
 16.8060438818562545 16.7772841352317883 16.2293111463854558   T   T   T
 16.7713076149141287 13.9851075073721987 14.0319045514207552   T   T   T
 14.5708872967226633 14.2173566169029204 16.5054780130372585   T   T   T
 14.3190704383311456 16.5906200964431463 14.0310662834240105   T   T   T
 13.1365820512841207 12.8630985718692994 12.6860234265780196   T   T   T
 13.0136769343930414 17.6350037639640043 17.6970574405527366   T   T   T
 17.9335013479669385 17.9109631124476643 12.7805646964312398   T   T   T
 18.0108568526662509 13.1756762439335162 17.9683086920078523   T   T   T
  0.1088076252988429  0.3684860628082244 -0.0506481828768334   T   T   T
  5.6003718198405377  5.1232669972955600 -0.2762237237453374   T   T   T
  5.0482219294709960  0.1186763237773935  5.0139775416403634   T   T   T
 -0.1683698112902304  5.4067661776967393  5.0391009432815670   T   T   T
 -0.0875948548292335  0.6521308385080177 10.7955211204603359   T   T   T
  4.8115812642529150  5.1678636771041786 10.7965200942768291   T   T   T
  4.4375779258473900 -0.2458381090754995 15.8963705868162108   T   T   T
 -0.2379557839569630  5.7756359131321267 15.0534263840815505   T   T   T
  0.1843361863165559 10.1609427909893828  0.4825944493507245   T   T   T
  5.1605138838803084 15.0560367165220299  0.3249168518881236   T   T   T
  5.2237734358613732 10.1396278638138444  5.2326108141285070   T   T   T
  0.3603130260434980 15.7343014862804313  4.7409110821929410   T   T   T
  0.2611364334092872 11.0993485815183313 11.1673146724962908   T   T   T
  4.2235010115955554 15.6642767237929359 10.2213217691412321   T   T   T
  5.0744459646438580 10.7240836998261049 15.7150584942091989   T   T   T
 -0.2056937189796093 15.8570929130203258 15.7839883510141394   T   T   T
  9.9749399566785613  0.4772741284524278 -0.0239082269809542   T   T   T
 15.0872032064914574  5.1342683211352611 -0.3211175727414146   T   T   T
 15.5555676940459175 -0.5543266248182150  5.0196280375076805   T   T   T
 10.7387210960256798  5.0844763220806728  5.2737494470380293   T   T   T
 10.4170190628906525  0.6091922787319610 10.2257658157041806   T   T   T
 15.4461327082265107  4.8732285890917710 10.7835615100655371   T   T   T
 15.5413616937500336 -0.6977277982321975 15.1062510980629803   T   T   T
 10.3796988481853116  5.1272670783395657 15.6810634056164435   T   T   T