Li P  S  Cl
 1.0000000000000000
    25.1819793006824639    0.0000000000000000    0.0000000000000015
    -0.0000000000000009   14.5388225279766061    0.0000000000000009
     0.0000000000000000    0.0000000000000000   37.2126966544236950
 Li  P   S   Cl 
 287  48 240  48
Selective dynamics
Cartesian
  0.3403417073887194  4.3178741844137631  8.4403489757626247   T   T   T
 19.7586007118043092  2.2059176169344226 12.0075448109097618   T   T   T
 17.5449449949551877  7.6904044011281831 18.6683775031450132   T   T   T
  8.2469242072833513 11.9487567592782788  6.4346987596040552   T   T   T
  8.4064401370079302  0.5577560557137702 -7.4375417034900408   T   T   T
 23.1009414671964457 11.5517200738839385  2.6395101642413112   T   T   T
  1.3760258540711248  0.8950017113140317  7.4549745377128138   T   T   T
 14.3601339965171970 10.3045591272324550  4.6933289352861243   T   T   T
 13.4652538067493257  1.6526830973490498 15.3816568625861745   T   T   T
  6.0092753182473455 11.0996839187427661 18.9329472351317492   T   T   T
  6.6097301953551524  7.2352172161856094  3.4919729280593170   T   T   T
 21.1616780375760243 11.9959813247036351  5.4140997408443567   T   T   T
  2.9019394759152108  2.9710929311450665  9.8919316594084243   T   T   T
 13.0409397355492480 12.6903206082664113 10.9201312386429841   T   T   T
 11.7055812918645366  7.8533899581410855 17.6602159500388218   T   T   T
  7.0868121264340438 20.7029344718840136 13.8989547554833024   T   T   T
  8.6032252998816823  2.6824880036352918 -0.4995320453452188   T   T   T
 22.2942523750759065 15.7295186213878289  8.2735295312860480   T   T   T
  3.4328567610843148  5.0850947646558415  8.3601925003333513   T   T   T
 17.7641262354416867  9.8688081594727848  6.0336568397872146   T   T   T
 16.9841044979501739  9.7626317027481662  8.8711022517886544   T   T   T
  6.8988087924977055 13.7089663894873830 13.8547692595415608   T   T   T
 12.5734351747436666  3.3474437822782011  1.0189424320061296   T   T   T
 25.8770105950390850  9.5167437452582035  2.3046867541076121   T   T   T
 -0.7134194895630659  5.1838205017284000 12.7325374534890443   T   T   T
 13.6572990397877891  9.3912407146103298  8.1081545509909603   T   T   T
 18.5348800623804628  4.9702611952691731 19.4427339884840684   T   T   T
  7.2808301496666292  7.7432085896233938  8.3904366467211826   T   T   T
 12.0935602990516280  2.2082493514315149 -2.7775900054569593   T   T   T
 22.2467896349848218  8.2559667258646101  0.1017527318685288   T   T   T
  5.1065793336937597  2.3940270798400456  7.6701783735721891   T   T   T
 14.5280952279977260 12.3963910320033577  7.0543684662193638   T   T   T
 21.9319398260880440  3.6861084734385940 14.7360678524585165   T   T   T
  5.5113568177919809 17.2380597561110100 16.8112154928525790   T   T   T
 10.4662682838179748  5.3710678572078772  2.5969845578898774   T   T   T
 25.1421586339209320 14.4244137210130177 -0.4848649181233339   T   T   T
 26.2249133573933868 16.2936013782645439 14.2775420969424562   T   T   T
  6.6970423495556819  3.9116873641384253 11.3317456448706739   T   T   T
 14.3112256819463468  9.3110210078579243 -2.9198960990276563   T   T   T
  3.3383656193415101  7.2301514473718527  0.2674550422838822   T   T   T
  8.8598656260407758 15.1319737935188243  5.6412488016903266   T   T   T
 20.2706224139899653 10.0079497820922576  2.6023299083442590   T   T   T
 21.5676831311417310 -3.7530451311699222 14.3227070295273275   T   T   T
 11.6067771562705140 -0.8610241383313254 22.7157874082050384   T   T   T
 16.1066993504034386  1.4526691582048097  2.0702165259572554   T   T   T
  2.9333582701806962  2.3953768516067031 -0.4894901086255600   T   T   T
 10.6858638617206960  5.1740880653432537  8.3771056000483473   T   T   T
 23.2164805283682263  7.1681840361545346  6.1911741679017167   T   T   T
  4.2946138929245992 -5.3256069880164310 14.5386696197584193   T   T   T
 14.9906281539155959 11.2382430816110279 14.5126699736035309   T   T   T
 20.4094167959953552  2.2587211197183610 -8.7868202826370538   T   T   T
  2.9402867210751773 12.2290547202841715  8.9534056544343716   T   T   T
 10.3169541641732163 -2.0541767409504654  3.6309358116410215   T   T   T
 23.5648387058858262 -2.2904710376187616  8.8469205599839977   T   T   T
  2.1421259459028694  5.6818401943961545 18.0814492929972452   T   T   T
 10.5793883930765098  5.7329123109774764 14.6919285379493552   T   T   T
 22.2434500248302207 -0.2022988499077139 -0.0339628286103198   T   T   T
  5.0300075292204038  4.4130426234349152  3.0089349338314602   T   T   T
 10.3328673252660401 -1.8083677361418999  8.8440042230217699   T   T   T
 19.8256632075742516  5.1254792235034943  8.3568772834981733   T   T   T
  0.7161242334043578 12.9766882242270611 11.0337311455610720   T   T   T
 21.4627663955621202  8.1965665546793680 13.1672764926487567   T   T   T
 19.2532975116482490 14.5906622734435274  1.9958966647095324   T   T   T
 -4.9827539391323912  5.4785808224685564 -3.2843476619590843   T   T   T
  7.3126263624788184 12.9617524831617388  8.9711276174104686   T   T   T
 22.5406838358525157  4.5229465351887272  8.7154199866580058   T   T   T
 28.2329450484424314  6.2709458066066732 14.9499692330927623   T   T   T
 15.1279788096675052  7.8988748812150114 20.9138009194198595   T   T   T
 10.1896510732953800  4.7506927963027934 -1.2417904942019111   T   T   T
  2.6261417589318761  4.3975221653216821  5.7557545223106104   T   T   T
  9.8045473920325659  8.9355889513183264  8.3695303552910172   T   T   T
 22.4081573087741752  8.1992414670776839  9.0807877695057577   T   T   T
  2.2875727368776735  8.5837449240329207  5.6265387476099553   T   T   T
 14.2424412543366241  4.3835018414849953  6.0547667690635070   T   T   T
 18.8846949349017983 11.1112218750189982 15.7554537671683281   T   T   T
  7.7686618158526244  1.1323983935996496  9.2852995264300855   T   T   T
 10.4512954648110625 10.4524490441954470 -1.7669802257513767   T   T   T
 15.4712165614648534  4.3817008510120798  1.9623460217724782   T   T   T
  9.1056831463799899 10.5445729046200434 12.1106315739151444   T   T   T
 12.2214450862576403  1.8985146553066992 12.0931400559579831   T   T   T
  8.0846685028082224 17.1085769713525657 15.7785725948959392   T   T   T
 -0.6105794166882365 -1.5559711359848076 15.6406850664894339   T   T   T
  8.5368702940055208  5.5213855475112368  4.7855852011915170   T   T   T
 23.8282320879370459 -0.7579222137105567  6.0556216449529305   T   T   T
  0.6443170383987110 10.6938038068308003  7.9091370514899326   T   T   T
 20.0891840245877269  4.1870863244099059 16.5644354430954230   T   T   T
 29.6203797183882678 15.3298214174297094 21.0682214543937185   T   T   T
 12.0714343477962380  9.0696162134249541 23.9336379011954783   T   T   T
 17.3095302405175389 14.6430612877955966 -0.1197279924404237   T   T   T
 22.2147082761838561  2.3942936212214572 -0.2475488570557388   T   T   T
  2.5317753450278544  8.5168044569914372  8.9210895284298406   T   T   T
 17.8517479986720708  2.8677996327931101 17.6412153196491666   T   T   T
 24.9865103138892941 10.6887681314668157 12.9679221155956181   T   T   T
  5.3617681242489414  3.0115232936000824 13.8326532712859329   T   T   T
 15.7802968426571528  6.1513838372814948 -0.6721824968208565   T   T   T
 21.6025245603792548  5.1558471825820655  5.3648318436162574   T   T   T
  5.3792595586432403 10.5879565259737305  6.9983623259023080   T   T   T
 17.4943144577090379 -3.4776971049481809 18.7776101508216726   T   T   T
 18.4374671042440248  8.3719598550896457 12.3542578621296126   T   T   T
 15.6978665673789006  0.4478600997341847 20.2576729558915680   T   T   T
 10.6568934150518917  8.4645725232300393  2.6349023325464138   T   T   T
 21.5228644290658337  3.2417302841270876  2.5559329903113164   T   T   T
  4.0482324253549997 13.9053859186832831 -2.6668948256362786   T   T   T
 15.4994327433909884  2.6682328970633757 11.8785582218106516   T   T   T
 20.3527801540000333 15.1619691842522357 14.9273640887291723   T   T   T
  5.6203519157878796  7.5058785009777838 11.7936255275467428   T   T   T
  9.9231291153592807 16.4804084776216939  3.3232200331088007   T   T   T
 28.8608645505377943  7.3485466753173174  3.3150742706286480   T   T   T
 19.6260960442933126 13.9708957317654523  8.9249307508994917   T   T   T
 11.8373086534462697  6.7458353527583368  6.1567751923874248   T   T   T
 18.3923764687867468  5.9278917791846313 23.0128474718489286   T   T   T
 26.5264576652410184  7.1008639236485678 10.7023160947420575   T   T   T
 -0.4095861710118823 10.1066189424040331 -5.7666024394782784   T   T   T
 17.3508238181408885  3.2257034105388347  5.4708463269182310   T   T   T
 23.1232228735845560  0.4683939006587810 13.2685569150854832   T   T   T
 12.7763531180222198  6.4476249477129182 10.4311071130300999   T   T   T
 15.6660110776404533  6.9653131856902624 12.7329531963103300   T   T   T
 18.8867409021766619  4.7282243494908869 14.2199981695432598   T   T   T
  7.0223415086526195  6.9246679906996462 -0.2138543178158240   T   T   T
 13.2025879609709378  9.1168332549308140  1.0135319968584398   T   T   T
 27.6274837247682896 -3.0166002345859346  5.4673163903534778   T   T   T
 15.9217851111907258  7.7706565677875785  7.2041850216600150   T   T   T
 14.8970776938250395  5.6752242746414536 15.9924053434536244   T   T   T
 -6.9673170256782297  7.5735179422980456 15.2065430340058718   T   T   T
 11.0720261273129381  0.3979432120288492  7.3343987037581213   T   T   T
 23.3485268190443982  8.1546551214855434  3.1434759908764081   T   T   T
 20.5458280359896683  0.6888056282334620  6.3544834529287506   T   T   T
  7.7342249146503947  4.6803947654452172  7.5606212762717044   T   T   T
 16.4454832445166446 -0.6163195629204057 12.2203280671189241   T   T   T
 -6.2925015350674451 11.7204791295927784 12.7108196781290932   T   T   T
 13.8592188555940901  1.5916516078091882  5.7711674382626237   T   T   T
 11.0902585202167643  1.3233128193518773  0.4732191646853368   T   T   T
 20.9771829085716028 11.2153540710069741  8.3431356848142606   T   T   T
  3.3425098313886217  9.2765961680927518 23.5062129563679534   T   T   T
 12.2431936598886786  8.8377213018073171 13.4732039183796637   T   T   T
 -4.1276007853713228  0.1432361260455883 18.5011722842887245   T   T   T
  1.4780520875819247 13.0743563459831655 -2.7426644016512047   T   T   T
 16.9936994276757467  2.2183419669419644  9.1495754726218372   T   T   T
 19.4334805495982970 -6.7442263018620032  8.2597739524427745   T   T   T
  8.7955957674185683  8.2686878129961983  5.5062361152548425   T   T   T
  3.1735764080053044 -2.4096272480576442 14.2213216252478816   T   T   T
 16.2464372720304162 13.7256450142496043 15.9141076697917434   T   T   T
  6.5240163950882772 -0.2504089973200638  3.5404675279946201   T   T   T
 16.5305933818304638 14.4332669051667182 -3.2961189537170825   T   T   T
  4.1744201194013799 -5.6100678809541682 34.4815108801211352   T   T   T
 18.9293745778414539  9.7931343974551943 28.5453720012469070   T   T   T
 19.1582612578514713  3.3053955371117896 21.6464180842078058   T   T   T
  9.9666038144666853 12.3243638182768720 18.9171347826397636   T   T   T
 13.9115511986007085  4.5116006615087416 28.0743798572961474   T   T   T
 -3.0422328407531825  5.6352336153800229 36.7134501574957426   T   T   T
  5.4323715744083172 13.4601492128242874 27.6574792966798064   T   T   T
 18.9077649402650287  5.9710402323935918 28.1785305748984669   T   T   T
 15.5828281866991212 19.9810611183947415 19.0418835298721127   T   T   T
  4.5526341893271800  5.4479123571767767 22.3556144414862743   T   T   T
 10.3987781099531418  9.6790770222431739 26.7620009993527432   T   T   T
  1.6894185147135932  5.8614027400776498 28.5229414113327699   T   T   T
 -0.9756911708504084 16.8087433190393227 30.0529998377080325   T   T   T
 17.5254710521516515  5.6911447855662791 30.3907179469189650   T   T   T
 29.7618511930631300 13.3678300742906764 16.5392151766825926   T   T   T
  8.1987097814229521  6.0356112258504702 24.0369404001877278   T   T   T
 12.9476359240081909 21.7306034732105111 35.5851031045168185   T   T   T
  5.7174299078420505  4.1336264752445295 34.2565420665108320   T   T   T
  4.4135603838435369  2.4868112335002008 30.1232221362543378   T   T   T
 17.4941049987583135  8.4646233951685161 31.8528383267294508   T   T   T
 25.5402674765881805  9.6694035528415512 20.4502828853943264   T   T   T
  8.1774245047499932  9.0397910097703971 22.6507000877113818   T   T   T
  8.1957509898387961  9.7063874393371243 34.3160471492697638   T   T   T
  2.9423124672363676  9.8899508458106844 37.2908954546593492   T   T   T
 13.9702896834483372 -1.4044799355295388 28.4474961544009481   T   T   T
 25.3196783693202683  9.4175841863722098 23.8227773064825961   T   T   T
 34.8361299926501431  3.2746778422688121 12.4823163881585533   T   T   T
  5.7578440842379761  6.9190955968245662 19.6975488457802399   T   T   T
 14.5619681201425806 -3.0274283482261088 30.6821761287398083   T   T   T
  3.3990277638259703  6.0131810910270049 34.0245474036152444   T   T   T
  6.4698391055137474 16.0942776740497848 31.5631387372900463   T   T   T
 20.8758855323402273  8.1804987425337536 30.0671501104932943   T   T   T
 21.7176102658568801 11.8156220199659359 19.5880907498118297   T   T   T
 11.8447135084130881  6.2778486134167863 22.6452825781471674   T   T   T
  5.5561259485117613 18.8592265021609862 37.3943587585825696   T   T   T
 -0.1152582715767725  7.8124577485536184 36.9983972327787285   T   T   T
 -1.4124680311807449  7.4092607402882251 16.1667363665376520   T   T   T
 18.7727721703368644 11.5680187081485606 24.5389628494936929   T   T   T
 22.7250927553937743  5.6978765768829192 34.1221987876274113   T   T   T
  1.5077335638767189  5.0885826613518450 35.8177053488453652   T   T   T
 14.7161084196662326  4.2588819886527487 30.9669677165594166   T   T   T
 23.1336355054592566 10.7162513258876650 29.0723599994783903   T   T   T
 -3.4315938958883780  6.4671221224463373 18.8679644690775383   T   T   T
 16.6788995770714337 12.9557139149756004 25.5370445368962216   T   T   T
 20.3682777826175681 -0.7323343093550696 28.6008473515696373   T   T   T
  0.0572976158055370 16.2477243199957186 34.4225473351511084   T   T   T
 11.0736851140498622  6.5326820793161309 25.5720704202765177   T   T   T
 24.7863904890118327 13.7117579437659103 28.3453113744728142   T   T   T
  5.0868981940230462  3.9121738102082753 25.8880159729402024   T   T   T
 16.3499346649774218  8.2732849099883197 28.5299135740013163   T   T   T
 19.1215945443503834  5.5246779962324046 39.8845337438501417   T   T   T
 14.6916772411470422 13.8384389244097399 38.2965867627913212   T   T   T
 10.6867072797791511  3.9082753940035513 28.3461666271354353   T   T   T
  2.0801250456187415 11.4808719510098527 30.6719139464779254   T   T   T
  5.5541677728060659  8.1476632368544450 27.7362823189945438   T   T   T
 23.8530772348526803  7.2819908834998941 22.6387045028954255   T   T   T
 19.6341334067470612  2.2060267756599004 36.8602760431158174   T   T   T
  8.2611189917129977 14.0118302605612399 36.2855864682069154   T   T   T
 12.1424258647241672  6.3907405643718338 28.9979786665251602   T   T   T
  1.1600377004993458 16.2173291332212415 19.7620803711940383   T   T   T
  6.6548224686238813  1.8162626808101674 27.9643427545798424   T   T   T
 18.1013668175129041 10.6944520409386392 21.8781634284607911   T   T   T
 16.4655512962457564  9.1014404364988657 37.8849661886064126   T   T   T
  8.2510480668413972 10.7693043329184093 37.5394490904056823   T   T   T
 17.2436519197034706  1.0195566883832141 27.8530545193901737   T   T   T
 -0.8766298732460461 13.3469888387647444 31.1261704682034939   T   T   T
 -2.4617205930919073  2.9877252012155817 17.5209529531280772   T   T   T
 26.0470178296163901 13.0996556100939117 21.6439217358460425   T   T   T
 27.8110346661983137  2.6824453672276980 34.3218584358074992   T   T   T
  2.6011549497774160  1.5426852223682672 41.7217360055570907   T   T   T
 11.3317030595246990  2.3834444008950131 30.9604842497148276   T   T   T
 26.4245687939953626 10.3745124022445658 28.2672134327904701   T   T   T
  4.9142828528373448  9.9908339915385227 30.7767433912205988   T   T   T
 22.7953686189406035 -0.5794596764991330 24.7677835806645312   T   T   T
 20.4510444252924231  8.3189429125674259 22.6091120052373569   T   T   T
  9.0539097859527402 -1.6843812013635946 24.1439995077230627   T   T   T
 19.0238480819387021  7.5269379896638808 36.9769280197884029   T   T   T
 -3.2088492052641082 -0.1195812577434094 39.8444838744159426   T   T   T
  7.7313303028732232  6.5068883254921541 28.6832309502664025   T   T   T
 17.0439582937529188 13.3861329428637852 30.3426893806652203   T   T   T
 23.6824431128364239  8.1181668867458789 26.2305209901475749   T   T   T
 13.8234854432133858 17.7406030749467831 20.5098344175084364   T   T   T
  0.3937910258613171  4.4656130227390598 40.4154233750664673   T   T   T
 -2.6136885426048551  9.5779105830608096 34.0299315301639211   T   T   T
  4.7832115533091786  6.2038801515931237 29.9074532965422613   T   T   T
 17.1761902020142010 14.0800444062930659 22.7896376269506220   T   T   T
 24.8180066545528746  2.8969715466373787 22.3835117363847118   T   T   T
 10.7277102586618245 17.1454513693255990 23.3315626283958508   T   T   T
 13.8016209915120509 -1.5131617488587394 34.0275255323219739   T   T   T
  5.8994445168735705 11.6872850083709174 35.7943312923620738   T   T   T
  7.6726784938374797  7.5454360261577929 31.6391396016067716   T   T   T
 21.3284622663090957 15.1192577105228274 30.8965352874899857   T   T   T
 22.8890343256507514 10.3729762634195559 22.6615901193852309   T   T   T
  8.2944622736964853 15.8433281670843975 23.4116959039683756   T   T   T
 11.3308014450825123  5.4122032180116246 31.8430610597824852   T   T   T
 -1.8289421979236899 13.2516348836528408 34.6352761090741836   T   T   T
  6.1430334664391060 12.4840205551993648 21.8492698812150010   T   T   T
 14.8735378174470387  6.0620286715351668 24.1448222451715822   T   T   T
 17.4154592832410628  1.9444991253518591 14.0257728454275821   T   T   T
 19.6400521127534518 10.1543797587362050 35.2722843706817883   T   T   T
  8.0006647828661670  2.9490576211041235 20.9038099521721321   T   T   T
  7.9962758603074811  9.1466429655494146 29.2252463795844477   T   T   T
 18.0755587304744729 17.0643736625741447 30.5904929591485200   T   T   T
 21.6367114069335855 10.4395577152581644 25.0303901216671925   T   T   T
 11.9898405400973118 15.0918242690680806 25.8772611967485560   T   T   T
  9.2277293240085925 -0.9081883545764914 34.0938894769168002   T   T   T
  1.5178607531769135  9.8108015906485342 34.5698618846394368   T   T   T
 24.0572142237357447  5.9126970103095440 30.8248280942513766   T   T   T
 14.5071476042967120 12.5094506962919745 23.3182998329352884   T   T   T
 25.7221110135511779  1.1792169669883745 24.5217347197144946   T   T   T
  3.6373381943736902 13.6746166205019293 23.4903906216204561   T   T   T
 -0.1832933570363255  6.9437056965815689 33.9418179097483801   T   T   T
 17.7818667642162183 11.4448992138046783 39.4259054698713385   T   T   T
 21.9338818510246902  2.6958273834897764 33.8787733639176167   T   T   T
 10.3087810892322125  7.6813909487869916 20.7815379334471118   T   T   T
 20.0743802412007852 13.3380929180730412 22.3587567298465295   T   T   T
 -3.5969051172035176  6.2071867000761936 25.0577894275288493   T   T   T
  3.5286839963374770 -1.7083411996654931 37.4374486027270166   T   T   T
 17.3849436708558471 13.4115514602192789 41.3386792646685990   T   T   T
  1.6971337748916315  4.5706394499839362 31.0914693933049300   T   T   T
 11.8209745805611792 10.2585578414936194 31.7687047225119947   T   T   T
 21.4783193273572373  2.5147455697080923 24.5551880591242835   T   T   T
 12.1556086081884143 13.3087507849431752 13.7273314781706155   T   T   T
  8.0251765283279362  2.2851832338589140 34.1180134850788619   T   T   T
 16.7400321321904357  7.5460624501905347 40.7234545819003273   T   T   T
 -1.6283248914275452  5.2799854530131638 28.2805633825076761   T   T   T
 13.3562882262907099  9.9998022973591638 28.4906799797902544   T   T   T
 21.8449496068088820  2.1534758391465489 20.7276100695924761   T   T   T
  9.0904717637792753  9.8412180969525735 15.5041880598939414   T   T   T
  5.0346396124626747 13.0908582302526284 30.8093087398682464   T   T   T
 23.2446859534508548 11.4992443162259868 37.0255117019313928   T   T   T
  1.5866654398951554  6.7019342716466461 24.4855550889351932   T   T   T
 15.7931708101639110  9.6295662902361094 24.3341795822748246   T   T   T
 11.3469289913303086  4.4138212788428328 18.8642539512702143   T   T   T
  8.9105001650589291 15.2984605943578629 26.0954430865662168   T   T   T
 10.3445521456330418 -1.6904196352189409 28.7669189012713957   T   T   T
 20.2271459833206890 12.7912676174176916 33.9832097323053830   T   T   T
 26.2459697035187780  2.9441755106719483 28.1086528935992135   T   T   T
 11.6645424779928817 12.9880330143868754 31.7046617727873858   T   T   T
 15.0933612686164533  2.2383584994491401 24.2985911798359737   T   T   T
  7.3855387320024821 15.5099177057930362 18.3970784142489592   T   T   T
  8.7395857764007303  5.9112813508814579 34.3338081599626292   T   T   T
 20.1864043595125757 11.7365316929051531 37.5830127977486086   T   T   T
  3.4438472897441321 -4.1843684905613330  3.2219380246851999   T   T   T
  9.9140668161258692  8.0472714136890175 -0.2052949871933562   T   T   T
 16.7344495209649367  0.5396302815420454  6.8293693482921149   T   T   T
  5.3597149644007649  6.3818268672082592  6.2849994778166360   T   T   T
  9.5592216575666900 -0.2383385924232604 11.8991531831882043   T   T   T
 21.6347050580545961  5.9719445068040473 11.5293764932187823   T   T   T
 23.7355168535844108 10.0268970265378350  5.6261690203291730   T   T   T
 11.0808116701523609  3.1533568579052771  5.4187846388076979   T   T   T
 14.9532283514815134  9.7568614732380041 11.5692461865083001   T   T   T
  2.3553345968244117  4.3600923732192411 12.3308696463119194   T   T   T
  5.2717234080388939  9.4270371890319140  2.5701885327473915   T   T   T
 15.6937075108421507  3.1547417949969185 -1.3202429300339991   T   T   T
  4.7858760604009509 -0.5660539736336868  6.2058460978800918   T   T   T
 17.8492697372702622  6.1792493103378945  5.7893856388865377   T   T   T
 21.4224169878390569 -1.4168368066109782 11.4041163576741820   T   T   T
  8.9546791583687995  6.8652893180498333 11.4056904844499005   T   T   T
 14.0678374940389119  1.4372632282329656 -1.1134434667123314   T   T   T
 -3.0430887697608719  5.5023400586246796  2.8380048776782330   T   T   T
 23.9834949427406094  2.7687428100055160  6.1005460941247698   T   T   T
 11.4470036163353832 10.1316907288302716  5.0435636622360027   T   T   T
 13.3700915921478956  4.2808663199430663 13.3065114298522698   T   T   T
  2.5565869524549032 10.2491440139913550 11.6475011446156511   T   T   T
  4.8251138102474833  0.9716183531417972  1.1016512733911905   T   T   T
 20.6637225323432361 12.4380751703284069  2.7062027400808897   T   T   T
  4.7270485303224588  3.8788126984743609 19.3994085422858191   T   T   T
 14.8321817874195947 10.3078860146039908 17.7390545425128501   T   T   T
 21.1714906686741529  4.2332512484506468 30.9785283062026409   T   T   T
  8.2169161504071067 11.5475451885649001 31.1722163019734424   T   T   T
 12.8134457620978264  4.0018194497617747 25.4539557825627085   T   T   T
 24.9913414611555496 11.9038508067255151 25.6134293073965900   T   T   T
  2.1107230831559973  8.0702029814655383 31.2804021645536210   T   T   T
 14.6080623310806583 15.2462432695721972 31.3085994406887309   T   T   T
 18.4863133134004620  8.4299642067199620 25.3746242708389680   T   T   T
  5.9195451753617787 14.5944146801449364 25.2016869150783940   T   T   T
  8.9758993782504159  9.3542625451329506 18.7288714970357546   T   T   T
 23.6712116869070890 14.4449861391239445 21.5179336307444267   T   T   T
  7.8519317380827385  3.9969290510627116 30.9584090311504134   T   T   T
 20.8230734193374367 11.3510430753676346 31.4498002670415637   T   T   T
 24.8938002141657222  4.8838364118978062 25.3801586159090675   T   T   T
 12.2550291855739761 11.6873934345794126 25.5295962634942697   T   T   T
 15.9281096007061453  4.0589033903365683 21.3069649319307146   T   T   T
  3.4979890178297870 11.5039220413087229 20.6029825314132040   T   T   T
  1.6181328871445142  1.0055931118096437 31.3354267005281812   T   T   T
 14.4538376935569044  7.8184105984807122 31.4760174340773204   T   T   T
 18.9385081360968464 15.2741872211101573 25.2049554576972064   T   T   T
  4.9701318979124443  6.8277286033181932 24.9107379919916241   T   T   T
 10.4157492691829550 15.2807776396452333 20.0047342191222164   T   T   T
 22.6926524955187574  8.6395441668968438 19.5024416372298042   T   T   T
  4.6515231662906471 -0.5279315638458032  8.2865219365741272   T   T   T
 17.7631125726426120  6.2469218729433376  7.8917226562163050   T   T   T
 21.0901454196609492 -1.2478971345195797 13.4741227805027002   T   T   T
  9.2524614293761118  7.2640734117118235 13.5353457696366331   T   T   T
 13.4439251774030470  1.2629706139315271  0.8920270003327906   T   T   T
 -4.2934220924978668  7.0638304853001834  1.7968161800507740   T   T   T
 19.7206314365881994 -2.2437666926058584 10.6112746543856531   T   T   T
  9.1519051653217698  8.6301270735152542 10.6352998693907654   T   T   T
 11.5579917696172707 -1.0085385605146258 20.3332790299478603   T   T   T
 -2.4920148720935917 14.3404741472787336 16.4222698457799865   T   T   T
  5.5649285481778969  1.1137197052517227  5.5274746215267268   T   T   T
 18.6671717400428676  7.8617252430651146  5.2074547253480814   T   T   T
 21.0390729071353775  4.1804263514906959 10.6768434923271744   T   T   T
 10.4585607719513689 12.5464642651267049 11.3709144314654882   T   T   T
 14.4128980098292665  1.6273329456280345 17.5413140232294609   T   T   T
 -1.2133778520849585 17.0731955211397768 14.7762369552554560   T   T   T
  6.1812202340419926  4.7680605694764351  5.3165057707773515   T   T   T
 17.2782914929851401 14.2630566085108832  8.5487169437043704   T   T   T
  7.4674964208756629 -0.4232820695961920 11.4820698653748643   T   T   T
 20.3877909877758512  7.5348959147252179 10.9695492060233661   T   T   T
 26.5611210645565698 -0.7659617059444684 14.8191551376621167   T   T   T
 10.1627330399488436  6.2193471414287993 17.2230053784997388   T   T   T
 15.4920609400389271 -0.5957991232287873  5.7182323210297659   T   T   T
  3.3039729049674040  6.4139524058222381  5.8789572054708197   T   T   T
  2.7083217145710923  2.7910790568014532  7.5126053331794633   T   T   T
 15.5231159845124420  9.9851952054085658  6.7347373749397859   T   T   T
 19.9754162291053987  2.7565362771269721 14.7667108861302978   T   T   T
  7.7616438848043332 11.4100776682749192 14.2055008024190279   T   T   T
 10.3408129856877338  3.3727509240776183  1.5605380438871714   T   T   T
 23.8566722110608076  9.4789049230766267  1.2302705337888911   T   T   T
 23.9660105603909415  2.6165864549117028  8.2017030698846742   T   T   T
 11.5779990427003892 10.3149169378935284  7.1254949657334397   T   T   T
 13.5243685397316877  6.2388436737015773 13.3740091338735212   T   T   T
  2.1481805793487214  9.9893777837306814 13.6074775116688080   T   T   T
  6.4865792817192451  2.1614387642852777  1.2752703551162308   T   T   T
 19.0436484259873531 11.4695809234439139  3.9516822525515432   T   T   T
  3.0515671922629606 12.2467769143823091 11.4118648337040582   T   T   T
 13.4598049305324672  3.8582935653988963 11.2690462719426243   T   T   T
 19.0455066146169507 13.2001156141290572 18.7992045211892780   T   T   T
  1.3261615530804225  3.8772324089726351 19.2901976862153965   T   T   T
 12.3462612351244587 11.7604111290862896  4.1161363189630915   T   T   T
 24.8249117626943878  4.5478352680229825  5.7468096138434959   T   T   T
  0.8510668069738205  3.5778139374005300 11.3959957536925405   T   T   T
 16.1751810662623505  8.3885252327344979 10.6337489791847695   T   T   T
 18.9432023896982287  6.3345874017743222 17.3120560653416540   T   T   T
  4.6418709084917751 11.3739414745708842 15.6749565201523051   T   T   T
 11.5712818581975050  1.1926508242765472  4.8000476200342703   T   T   T
 24.9829254939447161  8.5159253092360672  5.2618339645596635   T   T   T
  1.7728798873208427  6.3134597669082453 12.9470700450143763   T   T   T
 13.1487419942741717  9.4979283502906853 10.5798934534516231   T   T   T
 17.2259634975794285  4.9828207291688287 17.2333564159869681   T   T   T
  5.7928194909837352 10.9454447032213196 13.9954928570340549   T   T   T
  8.9877344370678625  3.2029544570848172  5.3330272022795322   T   T   T
 21.9036781636873563  9.5684300437206886  4.8384092354213823   T   T   T
 -0.0073514987763094 -1.0239367621811506 13.2928311963835259   T   T   T
  8.8506440153957069  8.0031155631282829 16.9605466563712604   T   T   T
 16.7921600977154313 -0.8201173250429258  1.8765716046670724   T   T   T
  5.3414551339736658  6.1957159813907854  1.4801649345896657   T   T   T
  8.9807658821123493 -0.5474395992448450  7.7182048596656676   T   T   T
 21.4647861878893025  6.5896770199965244  7.5002554344179408   T   T   T
 27.5955582563609134 -2.9790933417924941  1.9771503469405241   T   T   T
 11.3248729810572222  6.5422077245047774  0.5209949055727030   T   T   T
 15.6700102473992384  2.3062958741484541  7.2332604672897016   T   T   T
  5.4634724784129007  6.3919020720126349  8.3662924689563525   T   T   T
 10.0503722526131511  0.1492993294544112 13.7820475309863522   T   T   T
 21.9773613693714438  5.8124400297037155 13.5699177230819163   T   T   T
 23.6699890079317932  6.4321603319829652 10.6160160950364322   T   T   T
 10.2136306344964911  1.4127447387181737 10.8093211953800541   T   T   T
 14.1778559356251126  3.7782526063691422 17.7854145301035373   T   T   T
  5.0762955094581983  0.9387397632880102 15.2522763461200928   T   T   T
  6.2045047547242458  8.1029361856185105  5.6387298379852151   T   T   T