Li P  S  Cl
 1.0000000000000000
    25.1819793006824639    0.0000000000000000    0.0000000000000015
    -0.0000000000000009   14.5388225279766061    0.0000000000000009
     0.0000000000000000    0.0000000000000000   37.2126966544236950
 Li  P   S   Cl 
 286  48 240  48
Selective dynamics
Cartesian
  4.9104300086679231 -6.1160774310428456 14.0440313252034805   T   T   T
  8.6884392832776953 17.7161175703323046 12.0348325063727177   T   T   T
 23.4165996129717726 -1.6152176376123379  7.7738741448175768   T   T   T
  2.4527275789489575 13.6821776390502698 12.5382088877452489   T   T   T
  9.5542706660682928  1.4142959616677304  2.5395324349684776   T   T   T
 21.6772040419423107  7.9003045057379326  9.0157957429353655   T   T   T
  4.6631251115163170  3.1111472910780633  5.9999136833491704   T   T   T
 12.7494901315739604 12.5508229324251239 10.6229030493464673   T   T   T
 19.1554409997426376  1.5129260281123644 11.6205211912211102   T   T   T
  2.5494354020658849  8.1048432697419557  8.7895753253105031   T   T   T
  8.7541087829610493  4.3116719566337460  2.1128724624677315   T   T   T
 23.6030059048288265 14.7383748660272538  2.7077253282747331   T   T   T
  4.1316506180820776  4.2038589113705775  8.3972573741250010   T   T   T
 16.6247282356302293  9.9386223181682851  5.9805285173221368   T   T   T
 14.6208549633458400 11.8667161916482087 15.5519866034560170   T   T   T
 10.1306231739916548 12.2593788229466938 15.2294345304919041   T   T   T
 14.8276936583164893  7.5960986630859342  3.1229326799391939   T   T   T
 20.6344114342333143 12.3041615898051511  9.2081881645647954   T   T   T
  1.5270844691139942  4.8821734414938458  5.9466398378139100   T   T   T
 22.1364133140989381  4.8109327262044328  9.1033130743778994   T   T   T
 22.6584126289976524  2.9696611556635726 17.9737013319498438   T   T   T
 10.8138179826903400 14.9262512366042230  7.2951465011957097   T   T   T
 11.8027115076393940 -5.6158259169872329  1.4976915018810182   T   T   T
 18.8669196309596501 13.5478830640468715  3.1353715037646657   T   T   T
  4.8929565534991077  1.6318567095973520  2.7600173581900829   T   T   T
 10.1512459121138257  6.1171436659230007  4.8582688696339575   T   T   T
 14.7132991499615535  4.8235415379520337 14.0228498318113868   T   T   T
 12.8151228534541861  7.9527069980891190 16.7933147063986929   T   T   T
 11.9595798338343720  4.0324274723518405  2.8642633917979858   T   T   T
 18.6639811733085779 12.0117692100605993 -0.1383180739193541   T   T   T
 -0.6125981944860178  7.8014868284874259 15.4871979358338496   T   T   T
 13.4842933557272424  8.3230597590069237  6.4443994821989383   T   T   T
 21.8728686685188478  1.6317442867079552 14.4066428809281568   T   T   T
  2.5598952088995035  6.1495999067325435 12.1355817199618095   T   T   T
  9.2027015099734761 12.7402314994143531 -2.7132120209023229   T   T   T
 22.4755135425894750 13.9232255911640159  5.2177750612258569   T   T   T
 25.5816791854580146  6.7612076207060765 18.7239144513295841   T   T   T
  4.6680049215077526 -3.2948535343418528 12.5950344136270243   T   T   T
 13.6581000799583254 12.1092802158849366  6.4283996209136669   T   T   T
 -0.4073004054037921  7.9130644602511007 -3.0429389680164536   T   T   T
  9.6787302837728166 12.5238241142796447  8.6668863915861145   T   T   T
 19.9293923055317990  8.7348007035300412  6.7028854837205394   T   T   T
 23.2879389795688141 -2.5038281545963699 13.1909743824665924   T   T   T
 13.9299157374660414  9.7761423448321558 23.7122927232103784   T   T   T
 10.8173945757777812  0.8531028784578885 -0.1008852546509083   T   T   T
  2.3095534235395023  5.9206344822374843 -0.2917997148470990   T   T   T
 18.3753768239604085 -6.0204873009691671 11.7956728291857118   T   T   T
 20.5024557613710527  4.3497650048755325  6.3875855610385708   T   T   T
  0.6198067038803740  0.7476498552615454 15.1505335635380707   T   T   T
 14.6470574087425618  5.4304934900483595 24.2332542222204985   T   T   T
 21.1391955382888881 -1.0580594204167630 -2.6809034875820341   T   T   T
 -0.2750249043599309  5.4623100563887714 11.3218698852555590   T   T   T
  9.6560728301246055 -1.8268106603222223  4.9721565465720783   T   T   T
 23.1808801881256770  5.9600067121154865  6.1147784756700867   T   T   T
 -3.1761458182134001 -1.6669180613313290 24.2008987044363728   T   T   T
 12.7898449001713299  4.6030438690709685  7.0121462260694027   T   T   T
 14.2604629881195279  1.2628060504580334  8.6366334295039984   T   T   T
  7.3075277527844049 15.5343286890985155 -5.3282337685022236   T   T   T
  7.7607673404015287  1.2130043600905991  8.4319656476891129   T   T   T
 18.1243370855920602 -1.4079936683512158 16.5288415999258085   T   T   T
  5.6316824697796974  0.2330933008309285 11.4600052313356731   T   T   T
 18.1485861357601834  3.2582856784045089 22.8401197300283343   T   T   T
 16.3996380321412474 14.8041201387419328  2.5305968376757320   T   T   T
  7.9285235220404537  6.0889495595282570 -2.8169110667773722   T   T   T
  6.9778414908470872 12.1979577776695258  7.1262720502499626   T   T   T
 15.9374432997850981  3.6303164085406525  4.7780347511427399   T   T   T
 30.2137599495361755  1.4568436253420258 14.4881811027571725   T   T   T
 18.2058319403109365  3.2253439621177740 17.6089363955226297   T   T   T
 16.5620004424501772  5.7026888580779076 -3.2111792477692953   T   T   T
  1.2468252975297878 12.7221686674125962 -2.2363230689583133   T   T   T
  7.8422387742418573  0.6898613688521390  5.4670746287359702   T   T   T
 19.1029478744176870  5.8532722740977920  8.9967106493397360   T   T   T
  5.9094584343384557  8.2464631111131048  1.8632480326767387   T   T   T
 14.2497483334057620  0.8770076040226147  5.1142894604140592   T   T   T
 15.9544498067945835 14.9684852292608888 12.4633458132581669   T   T   T
  1.0376139840263439  2.6877781381961228 17.8540855523200825   T   T   T
  4.8864895240354693 10.4517298592837307 -2.6097742812160791   T   T   T
 15.0558510600697719 -3.1421911499619952  0.8927158325777247   T   T   T
  1.6398850125054103  9.0694808394711792  5.3035486092656274   T   T   T
 13.5146946419842529  5.4684060056104906 10.7237100284648594   T   T   T
 18.0551706929984448 11.1417964038335633 18.8566570790206640   T   T   T
  4.1203639254654734  1.8434585339772038 18.9441060018710630   T   T   T
  6.3701108823025141 12.8420351562574560  3.1156679798260689   T   T   T
 21.7719212056783604  7.1471522397510361  0.9181528352262238   T   T   T
  1.7072246238386155 18.7298840770914765  9.1719362687423605   T   T   T
 12.2053845618488097  2.1377296858136212 11.9866087706418938   T   T   T
 21.7913556891624083  8.9587375769348938 13.2573156272729573   T   T   T
  6.6862092437042921 -5.5084054122669217 10.9930024118146541   T   T   T
  8.0947769292227783 12.7341127321136227  0.6037881350364054   T   T   T
 23.5645319677169240  4.6290748993256852  2.9113452845530610   T   T   T
 -0.7170313662716454 15.2220517191151323 11.7883486366969805   T   T   T
 15.3056172498385052  5.0689423850038233  7.3836808199976787   T   T   T
 16.8569117510368329 10.0994124462875234 14.5802326718371429   T   T   T
 15.9234219838136681  4.6690886204798492 19.2336405644005275   T   T   T
  6.7638952821987459  7.0769384164275433  8.3997863986874517   T   T   T
 24.7094365720982978  8.1097605747312649  0.2480543920956019   T   T   T
  1.4790272819830150 12.0926277930045423  6.4644783417484275   T   T   T
 12.2146235070225071  8.7315228563221510 12.7952505898511841   T   T   T
 15.4945875288559236  7.8015833893533184 13.0199852426426563   T   T   T
  2.2851164353848072  3.0745336896681619 21.9427897813436203   T   T   T
 12.8495800570633918 13.4149102195430707 -3.3297164326162716   T   T   T
 27.6644238531308631  0.9037837339039514  8.3683422981198490   T   T   T
  0.8403346494112365 10.8884013253455230  8.8250152357697456   T   T   T
 17.0219925415404063  1.9175460284777983  7.5147971614872651   T   T   T
 19.3399825356923785  5.4527916722798384 13.7028152397634884   T   T   T
  7.7027450911548714  8.7312059910910982  6.2682703290581729   T   T   T
 10.7963335144233490 16.3214025995131138 -3.0521571305693378   T   T   T
 35.5046120908680862  4.7900903291078549 -0.7826489700678892   T   T   T
 15.4858596646015112 12.5426157808414622  8.5694198687914636   T   T   T
  3.6406814293392551 11.1823350797695547  8.4209379841780017   T   T   T
 10.8389175906356172 19.7417866619279287 14.2760902437683175   T   T   T
 25.8167506937164219  3.8252922607480522 13.7936936219043993   T   T   T
  8.7670639037435301 10.7365617454374664 12.8121652267392658   T   T   T
 15.0557046678226936  6.1315745618316768 -0.1329805797656761   T   T   T
 20.0733727174727505 -2.6476284915663739  6.2284829336427840   T   T   T
  6.8575936220077338 -1.9628558447195079 14.4289934719470274   T   T   T
 25.4626291924501658 12.4599680356416833 11.1620584046701339   T   T   T
  7.9378206041742390  6.2507645353784715 -0.0001378508792927   T   T   T
 18.0662558331117893  7.4724001770081143 -0.3673024808776590   T   T   T
 25.4999233544140722 -3.3031119191143525 13.9186114090809472   T   T   T
 10.6268724014845670  7.5135117111263527  7.9750789950158989   T   T   T
 19.3252546374200875 -1.9404787759601425 13.4909343327129108   T   T   T
  6.4586444990723537 11.8809938277593368 17.7797462145305509   T   T   T
  4.3006491547737413  4.8659311550349598  2.6306019976542991   T   T   T
 23.0378013998532580 11.5065154529887188  3.3325674696259497   T   T   T
 19.6232052544642741  0.7592978981118225  6.9025781431924358   T   T   T
  9.0492658428608586  4.9694385158895891  8.6736633285860361   T   T   T
  7.8757912367245400 -6.0033421202347945 13.7274484006147102   T   T   T
 -0.4469791915784350  8.2054680277972594 12.4641618434136827   T   T   T
  3.5515351594072668  7.7744709971640011  2.9882663947893349   T   T   T
 18.2403367513162209  7.3802072769343425  2.8147474405144748   T   T   T
 17.7411512296771505 15.6654691484768449 14.9951746448052798   T   T   T
  4.7935788079592401  9.9268536009923913  6.2217721207450820   T   T   T
  8.9003754409582623 16.4136604053374846 15.2030780738775686   T   T   T
 -10.1082344889622444  8.1924269380030488 21.0465390973446951   T   T   T
  5.4498620163007327 19.9250018347919067 12.4861838957834159   T   T   T
 17.3193485991198770  5.1530413974092673  1.9034719357062591   T   T   T
 21.9894316346838181  1.1913956157879213  8.6627839768742465   T   T   T
  7.7927244309596047  4.2842787463668230  6.2656138843033036   T   T   T
 10.4436756913784770 -4.8299382038060674 17.1498989334621221   T   T   T
 27.1614098503204247  6.3128942229449798 15.3582113273415430   T   T   T
  1.9558597039943038  2.6260879067532930 -2.9276693388172266   T   T   T
  9.5081965183418440  7.9906948336181927  0.8110268606500840   T   T   T
  4.5490748939891015  2.3052727795635883 31.4563226370799178   T   T   T
 16.5889396760427559  6.9985143208318314 28.7471761902710021   T   T   T
 21.2857069469873252  0.3995755751217406 26.4035174265978156   T   T   T
 11.3387795460544272  6.9735124195625540 22.0625824694113994   T   T   T
 13.2423806094463927  5.5893935392546110 34.6687594263513219   T   T   T
 -0.7552530521257110  5.4036095716943189 31.7113867125363527   T   T   T
  7.7371261065110621 14.7551659989077706 28.5701528856618481   T   T   T
 20.2426599229723934  7.7995831318633995 31.6545983224458318   T   T   T
 28.2424356668340408 16.9234483296922313 24.7008449838745250   T   T   T
 13.8723076749774847  4.1698158629715882 30.8238020285873020   T   T   T
  4.6407225319541432 10.9607511055192290 40.0345823281583577   T   T   T
  5.2217099658523889  5.0752804922696590 36.8886988256182136   T   T   T
  5.7564675473528908 17.6166778425374240 28.4494370743207092   T   T   T
 20.8998861762837649 13.5224284109424921 37.9913999637634916   T   T   T
 31.1889839699775351 18.9063207627203269 23.7702074355946245   T   T   T
  9.5811607439434727  6.7529513579190699 26.2469270932574084   T   T   T
 13.7425309101263089 11.4528549638311006 31.5922532532515064   T   T   T
  1.5838521727241515  9.9970233482294262 34.8569079832563915   T   T   T
  5.6387650461834715 -1.5559515218774811 28.6695126150800910   T   T   T
 15.5374523276065677  8.7975392355048072 37.6112032444907953   T   T   T
 23.6681140610671079 14.0204852288094948 22.2346658510705062   T   T   T
  9.0650024326567280  5.3204385988406688 24.3028803690715094   T   T   T
 11.8091613472651868 12.1983799959029007 39.2381305614837359   T   T   T
  4.9253759831251847  3.0388349444249489 34.5860734213201795   T   T   T
  5.0454587324197933 -0.9248042281965909 31.3618151713535234   T   T   T
 17.2569040953673394 15.9656838791795828 32.2233096601609930   T   T   T
 23.0412270681369549  2.9530816607571864 23.7880696726941778   T   T   T
 12.1165594640285033  7.4086690409293299 25.5154097692070785   T   T   T
 20.6502476815044602 -0.4045058654982387 30.1155974437636651   T   T   T
 -2.6162486672480005 10.3083104793396920 34.6184493388354042   T   T   T
  8.2108880257258985 12.8391680923453393 24.3673828294710191   T   T   T
 18.2321096314740174  5.3304109351874853 30.3360060256680661   T   T   T
 22.1276899631960475  5.9437626159683798 24.8280032447002412   T   T   T
  8.0021413872383054  1.5279055608744185 23.1637563696138429   T   T   T
  9.3230059892347619 10.3968712447131111 36.0569237340204296   T   T   T
  2.1930616912010024 14.3352010132829122 39.7782005805125252   T   T   T
  3.8457426643542445  6.6564348640338178 23.4067522097863119   T   T   T
 11.9278223053269965 16.6831732129077075 23.4534733902191554   T   T   T
 24.0132045803600178 12.9732122034292416 36.6909396828555643   T   T   T
  6.8588629242684576 13.8925726367017361 35.5674544908649253   T   T   T
 10.4079861155194884  2.4425436568688057 30.5315039227254879   T   T   T
 24.0659548298734052  9.7005595740264461 22.5025585719293630   T   T   T
  1.5358332533198154  5.4934901820916702 22.1435544386762899   T   T   T
 21.5182414586932040 11.0058744950031979 20.4564743863867520   T   T   T
 20.4030786444477599  2.5219139092814693 34.1598850219339454   T   T   T
  2.9978668588212036 13.5793446341249719 37.0786664102089674   T   T   T
 11.1489269770885429  4.8582341166519436 32.0773639627951113   T   T   T
 24.1083012001776069 12.3482217271613344 31.6928526359545764   T   T   T
  0.7667060902654438 -0.6367238712813323 18.4925795332666318   T   T   T
  8.3067940404076435  8.1749928957053513 22.3747432233644048   T   T   T
 26.6843291486791259  1.7739999648417220 42.6954702504560544   T   T   T
  2.8948597351413881  8.4013382726290757 37.6368088902878313   T   T   T
 14.2170528303576909  2.8198319938963210 34.3090549119879498   T   T   T
  1.8891706654689997 11.0021010212970438 30.4057830456442701   T   T   T
  2.5026053515564737 -2.0453850455706011 25.9490608204938944   T   T   T
 17.1151143164276291  6.4659654164149716 24.1294002530988436   T   T   T
 20.6524212442633015  6.5742709135259965 34.7961352375281621   T   T   T
 12.1450410356744918 10.4604324012193466 36.0747852838804732   T   T   T
 13.0619264062940381  1.2221912443048621 19.9425074716880744   T   T   T
 -1.8098550760167367  9.5100508712984997 30.7792180363010814   T   T   T
  2.9118037068238585  5.1821082344228149 25.6649305819722677   T   T   T
 20.6162759756886018 15.9205130926887151 23.1532943770230908   T   T   T
 21.4658425719777739 10.3907789947909208 37.4258022182725796   T   T   T
  5.4035588018251737 11.7236553302317468 37.5588554517056608   T   T   T
 13.8983948499549701 10.5561145644707253 28.5052161686171495   T   T   T
  9.1691683078535231 17.5395678034880333 20.5232744359205377   T   T   T
  4.0972740877944585  1.3411605392806876 28.1421321430248454   T   T   T
 15.3889198233672726 10.0157540242754131 18.9972387646556307   T   T   T
 19.0801259915029959  1.5818809710601733 38.3132252824474975   T   T   T
  7.4510900660105763  9.2940793484747424 33.8711813562485347   T   T   T
  9.9576307954807568  5.3284887005797623 28.8196309839188736   T   T   T
 22.5895412589663565 11.3595581971345148 28.5284616155343862   T   T   T
  7.5316878104599958  7.4008202395290530 30.1022224954054956   T   T   T
 16.7513372987331479  5.2398442764348756 26.6744008984889192   T   T   T
 23.3718076597689688  7.0327840500988827 21.7285812687798980   T   T   T
 13.4520528546361398  5.1785089898418928 17.3343011420826620   T   T   T
 13.1126507036210462  9.9961918401280982 45.9426681968544059   T   T   T
 -2.1230201200853411  5.1357604443903400 35.5464873418624165   T   T   T
  7.2738661178565271  8.6151925890163241 27.8731732088351229   T   T   T
 25.2159186719955741  9.6570996686069037 28.3084945442350460   T   T   T
 20.4665869046156956  4.9692972494308858 18.6743617083398838   T   T   T
  9.5078597379370962 24.0693200046302493 24.6280283696521636   T   T   T
 13.3264953661405041  8.9402329978179793 34.1581830166730853   T   T   T
 -0.6244481563512624 15.9842015078697592 34.4655765001191554   T   T   T
  5.5569479851538865  5.5922946623114074 29.7191873248222009   T   T   T
 18.2270037613946627 13.5505438170589834 28.1475942323894230   T   T   T
 26.6926889786282899  9.4666099606075171 19.2848082039643209   T   T   T
  9.3688702221231974 19.6877091318386483 17.7952205430234898   T   T   T
 16.8471223881807646  3.1218437692289687 36.2988175837113047   T   T   T
 -7.1755311515202544  9.4604978897557430 22.7976581026036555   T   T   T
  5.4936933576546441 10.1476517981061818 29.6346505958833930   T   T   T
 16.2525436240223087 15.5045151621547284 29.2037382257946447   T   T   T
 24.6311426996892635 13.7762346222702590 29.0122336114014026   T   T   T
 18.4840653777784425 12.8437686509997135 23.4209220926359478   T   T   T
 16.0765739112697119  8.8706679565681057 45.6630389523235038   T   T   T
  3.5350569687103337 14.1454206226597989 34.4064370199719107   T   T   T
  3.9190002860474284  8.3773389712784940 27.9464208541718158   T   T   T
 20.9729300188783299  9.4832706691398734 24.1097010346225993   T   T   T
 14.6958878657040213 -1.4804758112122265 17.8999915547397670   T   T   T
 12.6386191932519356  6.5380475316876270 28.6463365148556584   T   T   T
  3.5172897841274677  2.6124777062107696 37.3452130331895660   T   T   T
  4.5190885075428948  8.0001131497885218 31.6678952780551874   T   T   T
 19.0913855280413145 18.8192614897633881 25.1059367168220859   T   T   T
 25.3990732504076959  8.0695056379319077 24.2551902793150305   T   T   T
  8.9650380826410405 12.8110213342445576 20.5638430621679014   T   T   T
 17.3007476338625139 -0.2206995038637259 35.9781081477525717   T   T   T
  0.8305023121056994 11.1360021732970189 39.0120926819761564   T   T   T
 25.9237533675218259  2.7940820880971744 28.5804060112271223   T   T   T
 10.4785940674690998 13.4714068983108071 30.7111030428759975   T   T   T
 22.9181821185720125  9.0263468439988017 26.1212248859840450   T   T   T
  5.5332833973535935 11.4551592069611488 25.7861508573126024   T   T   T
  9.2216119135990411 10.5962578287824130 39.9089196452159598   T   T   T
 19.0659301186254027 10.0851200733828392 35.0232852256152327   T   T   T
 24.6938148446820946  2.7156717087412798 31.5909138814814234   T   T   T
 19.1684820226432109 16.9888054310040815 29.6000749305840856   T   T   T
 14.7693767745046003 -1.0470357652872171 24.6320932476055141   T   T   T
  3.0967085113557014  9.2395052281201657 24.4210694271957109   T   T   T
  7.5211180928346426  2.4236995039703788 34.6403704467071094   T   T   T
 20.1355253033026784  6.8054235464922535 28.8132314896610886   T   T   T
 -2.3320450319134980  4.3415135913095630 28.4744033802159251   T   T   T
 12.4662889024416419 13.4498088106160587 22.7816485636937962   T   T   T
 15.5063547242702313  2.3712517156066051 24.6783522318277342   T   T   T
 11.5367391730065307 -2.8208421543673263 18.8341842224128406   T   T   T
  8.4379939159236148  2.3743377765044680 37.0090763355779586   T   T   T
 17.1071312597189333  9.5742686598686717 31.2867197098129601   T   T   T
  2.0517301588175143  4.7625077507229898 30.4131355124243079   T   T   T
 10.9125264307716403  9.9383226640761038 31.4699506811054341   T   T   T
 18.4625492817093217  9.9240004159881821 28.5866102204773114   T   T   T
  4.0493752485713328 14.2417252766284861 22.5638750395094050   T   T   T
  6.8030698890822947  9.5256114280474016 36.9523679652702199   T   T   T
 25.7360104635438205 15.2980678260562684 37.6696379650128890   T   T   T
 -0.7127276764003705  0.7685090704998722 25.6030127652302397   T   T   T
 10.2031953307526582 10.7837660850380814 28.7259925755572674   T   T   T
 16.2526950476409411  0.7150712534725272 21.5676544003525557   T   T   T
  2.3171356370212832 11.3785482596587748 22.7388892615975706   T   T   T
 11.6519175636849450  2.6102075233345925 27.7984144582003907   T   T   T
 18.0463943082392575 12.7402687429369550 31.0647919608912062   T   T   T
 24.9988690931355890  6.2150215657660022 28.6869390217560500   T   T   T
 12.2987927204690735 13.2497869688249139 28.4996096216694816   T   T   T
 23.2501846206594820  5.0942576081080855 14.5265861033567383   T   T   T
  5.7556528476941340 11.4519807127573827 22.1343352352286828   T   T   T
  3.3446215898452993  6.5388485311450628 34.4219964207107054   T   T   T
 14.1710673885419336  3.2877583945914242 37.6448957179587609   T   T   T
 -3.1599368960677179  1.5242042048131492  0.1800806288206338   T   T   T
 11.7678134664885974  6.9087295095689525  0.4168522718548485   T   T   T
 17.1706977959810771 -0.7867283386537210  5.6247981279872770   T   T   T
  4.5635013889680467  6.5881898712280238  5.7414818092323161   T   T   T
  9.1041826411712297 -0.6118643721142689 11.4950119205011525   T   T   T
 21.5318826415079201  6.3767972959542796 12.0605424875866056   T   T   T
 23.4795126142044168 10.0850995458852282  5.9743630999440862   T   T   T
 10.4970131110049802  2.8562035706246949  5.4976612093034252   T   T   T
 14.9050161414523927 10.7930339610439425 11.5960727255144427   T   T   T
  2.6829373764938942  2.4912694500717349 11.7874060001794376   T   T   T
  6.0705389620815540 14.5750691218072603  0.9995990198632555   T   T   T
 20.5297249776940163  4.8858715026116961 -0.0298689052477332   T   T   T
  4.5480826558048566 -0.9951377878810818  5.6776212958243866   T   T   T
 17.0805311349649074  6.6694503688997271  5.7486610931424087   T   T   T
 21.3078507222409286 -0.8547249342881762 11.5837326861196495   T   T   T
  8.7952345244404118  6.6933948569231978 11.7478781501343850   T   T   T
 13.5175839337730306 -0.3871978041344435 -0.2322746005652579   T   T   T
 -1.9797025785607949  8.1439573004222616  3.0760985335785924   T   T   T
 23.4345760356095099  2.8350885446354286  5.6685596505259657   T   T   T
 10.9617274597841021 10.0600458269409891  5.5543368603007544   T   T   T
 15.4610620971647492  3.1971406917171796 11.6078683390779176   T   T   T
  2.3051902606982191  9.9121708750843318 11.6007815088211288   T   T   T
  5.7637475420954782  1.8788315174236188  0.2265733555971218   T   T   T
 16.1843568087151297 12.1636385797503763 -2.1319078207645523   T   T   T
  2.2461059947763173  5.1630540045029631 18.6169767790081515   T   T   T
 16.2258455912717139 11.4379111429264384 21.5023925414244559   T   T   T
 20.9188170167986840  4.3437539991524163 31.5972444767490614   T   T   T
  7.5074825330777228 11.3065899187977799 31.1776533945496581   T   T   T
 12.2182640545939822  4.3898514657677614 25.5127686773286655   T   T   T
 24.8699271558299628 11.5961704715968317 25.5236319777474954   T   T   T
  1.4680481884845595  7.8569812603497677 31.4064549861292370   T   T   T
 13.9054561481794625 15.2038781663828502 31.4068179634079883   T   T   T
 18.9217805411112039  7.8518681979607186 25.8346938980439731   T   T   T
  5.8258795395061096 15.1194725785462190 25.5969195983723345   T   T   T
 10.9769066771395387  7.4815720945513675 19.4011460345004458   T   T   T
 21.9831204121871409 14.2194629015749499 18.6606470989332962   T   T   T
  7.7300437577486969  4.4970653040251056 31.6002562339363209   T   T   T
 20.6914263286369007 11.5051220352814063 31.8744707005488728   T   T   T
 25.0632402775938132  4.4523756301226438 25.6277149106417070   T   T   T
 12.0168797754887748 11.3436550510871612 25.6714903195023929   T   T   T
 15.4972532398351657  1.8787486330356835 17.9514409061973943   T   T   T
  3.5798039575100167 12.9953162147738794 19.3153064019129097   T   T   T
  1.7480774887562414  0.4652155841364510 31.4839434982926498   T   T   T
 13.9531358637273346  7.7576303284043986 31.7250008425368648   T   T   T
 18.2253910143886344 14.9355789292206573 25.6037527870941517   T   T   T
  6.3645488694052172  7.6461880238167588 25.1707697736963603   T   T   T
 10.3285422084494680 15.0369698045043805 21.4040903099107425   T   T   T
 22.0502310024601726  7.2372750068781864 18.4056011689156058   T   T   T
  4.5877619800693337 -1.1081293070989175  7.6767478897422468   T   T   T
 17.0067179922129412  6.5576646254879751  7.7772913948032949   T   T   T
 21.4824633905174167 -0.9050442711583278 13.6825404601817660   T   T   T
  8.4327935026538690  6.2456025764353589 13.6898732004682753   T   T   T
 14.0663143130306008 -0.9108481978452317  1.7521228095975172   T   T   T
 -1.4767529044312517  9.7188635272627586  1.8074740925658537   T   T   T
 21.8644020214941435  1.1251961564526527 11.1938257790409921   T   T   T
  6.7994393169155121  6.6129007075498345 10.9572858954711911   T   T   T
 15.6317721323163195  3.7811836441820939 17.1928093639996611   T   T   T
 -0.3279374641938544  8.3336784212377353 20.1397237256118373   T   T   T
  5.5762175400065130  0.7417795718176564  4.9146575265383250   T   T   T
 18.1980598849721744  8.3865031691828520  4.9666850663006539   T   T   T
 22.7032444408491614  4.8165992427178113 11.5799024569710909   T   T   T
  8.0885813537810858 15.6248745562349427 10.8387470367672503   T   T   T
 11.2875556712151290  2.3874762011425297 21.1150733968177491   T   T   T
  3.3751698982251388 15.5876516782829171 16.9637860078066502   T   T   T
  5.6654108619570094  4.9004152889065944  4.9754167767766999   T   T   T
 18.0860501228554114 12.0663051295396180  5.0891160285661012   T   T   T
 11.0487635693143567 -0.4444073922737048 10.7797931688568571   T   T   T
 19.6327445762235513  6.5292080361580798 11.2964125326544345   T   T   T
 28.6848847092494665  8.7255616193682073 16.4348598380167346   T   T   T
 12.6809359450017105  6.4855533535668037 13.1556764675742937   T   T   T
 15.3493286124897601 -1.2098465804844931  4.8255764234471581   T   T   T
  2.5763013169982729  6.7090048583450459  4.7580814427811671   T   T   T
  2.5432955882891490  3.2804970281841324  7.0415120094628456   T   T   T
 14.9174744657809839 10.3700441516502977  7.3021087853111020   T   T   T
 18.9240778448323894  2.7400119893228543 14.0315788127264867   T   T   T
  6.3864134054267341 10.1608615715971453 13.5951557290879137   T   T   T
 10.6764906688205166  2.9117549491827046  1.1658636953096793   T   T   T
 25.1888947297206371 13.3103633320832238  1.5655873415381001   T   T   T
 23.5454482584615832  2.8186505857471595  7.7849463623874104   T   T   T
 10.9420143849581972 10.1208779063991336  7.6264851972376784   T   T   T
 14.8526636121388922  2.3150426225587424 13.4168184671355846   T   T   T
  2.4417999723709722  9.9791789121137562 13.6311550175462841   T   T   T
  6.1772317498013249  3.3683843863313419  1.7338947745456672   T   T   T
 16.9602828877610818 10.5992800027664735 -0.5967925022400856   T   T   T
  3.0250975847874191 11.7130854656002086 10.8616552398230066   T   T   T
 15.7312676085986141  5.2428471674885611 11.7541288809855509   T   T   T
 20.6135704572920986 11.0036303324829454 18.3805777839140632   T   T   T
  9.3186035207249187  2.7369944846269427 17.4075795602625121   T   T   T
 11.9535801510734849 11.6234751423214888  4.8070635008633875   T   T   T
 24.6334766723312342  4.4081958866490449  5.0861964159365707   T   T   T
  3.4346996221630826  0.8176035459956151 10.8108986072226614   T   T   T
 12.8742830329246392 10.2901525871210886 11.1101617799521701   T   T   T
 21.0600229669291679  1.4514207936319321 18.8914133929310104   T   T   T
  9.3159282953208766 12.9530287083635400 17.3853710129543124   T   T   T
 11.1724421914625527  1.0501320122722735  4.9002091063572983   T   T   T
 24.5076914983956797  8.4134982255136102  4.9761791763802723   T   T   T
  0.6995329381329631  2.8628804022229706 11.3470312157660924   T   T   T
 15.2872908046504890 12.5902023085921293 10.9595766393468317   T   T   T
 20.0399468550959696  2.2603528086702638 15.6775985907778512   T   T   T
  7.3151429126601029 13.3861323900715838 16.4695860094052371   T   T   T
  8.6016315195772943  2.8645175748123730  4.5780969598619521   T   T   T
 21.6133148411077300 10.0225202011420471  5.1672967957351688   T   T   T
  0.2952020181735041 -0.8973542070120428 13.2959193995291329   T   T   T
 13.6360179143626326  6.5397241128068817 15.1327077695080376   T   T   T
 18.4627282138351703 -0.4895594151992870  0.9595402014716395   T   T   T
  4.2997624365204636  6.6632783053811240  1.2029265574790724   T   T   T
  8.5612433133090882 -0.8209230466837083  6.8899704743050689   T   T   T
 21.2618436191715503  6.2572972849159001  7.4696773346779297   T   T   T
 23.5131698508502325  1.9414208902909251  1.2454461891738431   T   T   T
 12.6005556128103873  6.2801236252495087  2.1375058151802855   T   T   T
 17.0778911934092434 -0.3818441299877080  7.7493423737308333   T   T   T
  4.2839430493403707  6.5836311311565794  7.7691480831665425   T   T   T
  8.8042891794190314 -0.5524238857600902 13.5336434951914555   T   T   T
 21.4718723254283148  6.7236830219910191 14.0039790024820068   T   T   T
 22.6008117250638207  7.9610298415099887 11.1589691437962610   T   T   T
  8.3900482356449704 -2.2812117759389618 10.5537982211489414   T   T   T
 14.3085379148675642  6.7016729138135442 19.4844464211275188   T   T   T
  2.9195241394205844 -0.9379538709176696 17.3570511224665616   T   T   T
  5.6309824481125181  8.1957279807153007  4.9093807405032015   T   T   T
 17.9699418687575658  0.8409307959608932  4.7872374272363745   T   T   T