Li P  S  Cl
 1.0000000000000000
    20.5609999999999999    0.0000000000000000    0.0000000000000013
     0.0000000000000033   20.5609999999999999    0.0000000000000013
     0.0000000000000000    0.0000000000000000   20.5609999999999999
 Li  P   S   Cl 
 192  32 160  32
Selective dynamics
Cartesian
  3.5553420832714488  5.6918075724455353 -11.7225144502838763   T   T   T
 -2.4221918832251266  4.7750339592317301  8.2161316478912756   T   T   T
 12.7340404323417946 12.8406363334409601 10.7683032975833921   T   T   T
  8.7735441816846276  4.7652021364416886  7.4681460229336283   T   T   T
  2.5390149036325744  9.2322618171395003  6.0977242982907649   T   T   T
  1.8147071448255001  4.5557268946345610  2.9239151611247118   T   T   T
  5.3763559949755173  3.0634014383005095  8.6950985673363252   T   T   T
  6.9122265268792784 14.2844779638724511 -0.6858284587104626   T   T   T
  7.2779340438795197  0.3285056168991150  7.0079506362773110   T   T   T
 10.2081992383870155  7.7989963482553755  2.1634220213262254   T   T   T
  4.4073197206753223  1.8105093394409602  3.1580853114028251   T   T   T
  7.2561596101718360  6.6622953844923281  0.5114219670912632   T   T   T
  0.6715491443532891  2.4431331591254768  4.9971390997266418   T   T   T
 10.5078880764404996  2.0896367493776986  7.7755793721486510   T   T   T
  3.0145654696372808  2.9490383972251544  0.5532587245818815   T   T   T
  1.7652755617854394  7.1303662327662396  4.7574069939230794   T   T   T
  8.1023803583800849  3.2572817076753835  5.6269172920990362   T   T   T
  8.1199799167857840  9.9993098659078274  2.1459605672251736   T   T   T
  7.5175018646335223 18.2666107977706176  4.6339039987141284   T   T   T
  2.0349111612171287  0.3600161579623128  1.4075435737730844   T   T   T
  0.4524612593432291  8.5712546831478491  7.8339709361314576   T   T   T
  2.8046956980280284  8.9200354634520487  9.3199012893986151   T   T   T
  7.9549181404177061  1.7916661593766892 10.1964131790624606   T   T   T
  5.4981710290783274  7.9782231760557734  3.0047091242630097   T   T   T
  2.3761180299888416  3.8190853188428546 11.5366631040710654   T   T   T
  4.7296637748497501  7.2826888935600591 19.4971561513268625   T   T   T
  9.5358432983531181  8.7456743346665373 12.3737769384466816   T   T   T
  6.5037250960823778  3.3125683336390206 20.4185110847746998   T   T   T
  2.3949401943904625  0.5267731656432495 11.3622897989715046   T   T   T
  3.3455496971080385  0.5798445147552855 14.1224180266575488   T   T   T
  7.2978446240481336  4.5897623644140841 17.5939087669542289   T   T   T
  5.8118897574951669  7.0661603927963634 12.3788291714057994   T   T   T
  8.0722586907128999  0.2095593517614422 18.9375657835897186   T   T   T
  8.1874262559139872  4.9125494281883091 13.5715434093130529   T   T   T
  0.2276566811618748  2.7735423903070160 13.5353480288538446   T   T   T
  1.6006422114345491  7.5805792432218180 19.9588631129570899   T   T   T
  6.7250142279619878 10.1320529997457598 13.8458010116258254   T   T   T
 10.0149801907192764  2.1453689666835967 17.9740223029967936   T   T   T
  9.9087447775171675 -1.9915239903956079 12.7591428704911909   T   T   T
  4.5782786758964455  9.1328111803750787 17.6820233609609261   T   T   T
  5.0145104259003626  1.8512395243410751 17.8427742620618943   T   T   T
  7.9533471267163138  6.3597111559929234 10.8042917262367713   T   T   T
  7.6842609620482900  2.0285247784683498 15.8705304745542808   T   T   T
  8.7850852095937526  7.0932251964204696 14.9246126546405886   T   T   T
  5.0026621467065864  7.8895191594995842  7.2978094502771835   T   T   T
  1.6510503911047363  6.8999617855707678 16.0690321237940026   T   T   T
  2.5084043468484474  3.2687923680614621 15.0869619255669800   T   T   T
  4.2783227680733624 14.5621723049825658 12.4563594402736122   T   T   T
  4.1490844527754929 13.4924989337636489  2.0230272563482070   T   T   T
  3.1000944159533463 14.5930824915068467  8.9434346326290335   T   T   T
 -0.3936089622639004 22.8015031787601075  1.9757210622422270   T   T   T
  9.5355578553469140 13.7167135748366764  7.9597897970043503   T   T   T
  3.0239892608642673 20.0283571857658984  7.3709005407142056   T   T   T
 -0.6339933070054580  8.0409121441967795  1.4352681911787193   T   T   T
  6.3898216675928401 14.9909756828346818  8.1998094963522021   T   T   T
  5.5013472480214531 16.7239306839855217  2.6816078522010525   T   T   T
  6.9263618919568666 10.7654753819963229  6.3028607529821050   T   T   T
  9.7348712074021542 17.0245910722386213  3.3108809614467858   T   T   T
  8.6568537216133059  5.3614474623685755  3.1610091994218461   T   T   T
  1.7087509235471683 15.9373811383592372  6.0465314634978462   T   T   T
  8.5897914255850925 19.9125257202896506  1.9412653164325246   T   T   T
  8.8433965813180038 10.2209774575967955  8.9582382990071405   T   T   T
  1.8785509901061550 15.1908048904151265  3.1301608980296520   T   T   T
  0.6498641533602052 18.0242418156291038  8.4437248410057499   T   T   T
  7.3719275235885187 13.9331537031139252  5.9287523407773168   T   T   T
  2.9059349137734807 19.9152979245094244  3.9801330128798500   T   T   T
 -3.0525771591957844 19.3302799183731011 14.4340554732388018   T   T   T
  0.2297359518031819 12.9954110618936696  4.7431730556902023   T   T   T
  0.3330040837786939 12.7091818044932108  1.7899222715100815   T   T   T
  3.3383374318348604 17.5009418809040938  9.8928599449072312   T   T   T
  7.7932302937284224 12.8817507351360927 10.1210594109402479   T   T   T
 10.9228761509201373 19.6318123691045940 -2.4182253168509944   T   T   T
  3.4984530627784416  9.8756208405253219 13.5573331029234421   T   T   T
  3.1635186582544521 16.7035388436171246 20.3520393572371248   T   T   T
 12.8226793999583961 20.9662548756309235 11.4466129676525430   T   T   T
  5.7474972780511111 12.9376806685244130 16.7336389889138957   T   T   T
  4.7929450460547640 18.3746878137552443 18.1571706983218064   T   T   T
  1.5913097472708071 12.4410279539995603 10.6491986021200216   T   T   T
 11.2425355476998323  5.9017675148868252 16.8585179447493871   T   T   T
  7.2994551735415092 18.3712128978687304 15.4172349681140499   T   T   T
  8.7323944718822126 13.1535374586048928 16.0077050029240553   T   T   T
  4.7974673877043026 23.8325979999189528 12.5387095081832598   T   T   T
  1.5903800673900637  5.4316977330099112  6.9835616218236058   T   T   T
  1.6603709574818042 19.9800324251607151 18.3383120187247783   T   T   T
  7.1090062727274921 16.8176651363741883 11.3522451943532374   T   T   T
  9.3734920853074470 15.0652014395478488 17.5172969198186976   T   T   T
  3.8716635974159708 12.3148316109016331 14.5014263888977890   T   T   T
  3.0318580306791754 18.3745187575761619 15.8990803906679687   T   T   T
 13.2846750152139936  5.2081886442122771 18.7135969403300422   T   T   T
  9.2826665677676559 12.6308191687149236 19.4386725997960639   T   T   T
 -3.0009560876023826 25.6602136986226981 18.8294037637334881   T   T   T
  0.9477279159981216 13.4612125950371038 13.8561485018741077   T   T   T
  4.7887780487555087 12.4528942128397393 10.8406933382521622   T   T   T
 -0.0445886126181966 17.2754359984767589 17.4071644605327904   T   T   T
  7.7329131093198411 10.3376920300569335 18.1257925828096944   T   T   T
  4.4605398231870215 17.7076187031247443  6.0463771389201888   T   T   T
 12.8779122873490586 -0.0556751698046296  3.5624109468023164   T   T   T
 18.0205130004156153  7.3619648640031299  5.1563739840014833   T   T   T
 15.5260063435147657  6.7231761266242271  1.9594645602579750   T   T   T
 18.4512618691061512  3.7041636325389633  5.2663113297425532   T   T   T
 13.5421257333568530 10.2670147393370019  8.5517083472473896   T   T   T
 14.1944380976706057  3.0091209490063586  1.0886058567019201   T   T   T
 19.1626049042560709  0.0468709573112401  8.3240372707485548   T   T   T
 18.1949549404582491 10.1701426825579802  2.1776407275304521   T   T   T
 16.8181589095298953  0.9345103852531791  6.8823356987187605   T   T   T
 18.3189759065092836  5.8762135965098583  2.5639231864458760   T   T   T
 10.1496826028354317  3.1438787232064622  2.2536332055430739   T   T   T
 15.1731211201475418 13.8867951294203227 12.8271743470257817   T   T   T
 10.5419989496978204 14.2075667120619027  2.7325931654676334   T   T   T
 17.4482188315602649 -2.9392869588976223 10.6584471615904839   T   T   T
 12.8007898646430274  4.8756215933431921  2.8706687576344323   T   T   T
 10.3667184973304156  7.5000055370191410  6.7520048488666946   T   T   T
 18.1855910613450575  2.8040780926948958 10.1105499145068976   T   T   T
 22.0519539359019738  9.7212411371931218 -2.3639897196828650   T   T   T
 11.5601832520282795  7.7262076246183939 10.1192126801923727   T   T   T
 12.3101472201707178  1.0170039483071802  0.8063128855108008   T   T   T
 20.0284058448014868  3.9019993178231331 -3.0395923800492062   T   T   T
 14.5887632112927470  7.5646725228158989  9.2195023086247954   T   T   T
 20.6897289847073722  2.3872073459045851  8.2738557815155076   T   T   T
 15.6825554923465411  8.9357992130887158  4.0481408066606503   T   T   T
 13.0805228226451806  1.8797879023025783 14.9573122434880421   T   T   T
 18.1727122833902008 10.0033867317669696 18.0982191181102152   T   T   T
 14.0259756662188853  6.4101651714120056 12.0020896447236680   T   T   T
 23.6538922972496621  5.1909420266983259 18.3312064032807527   T   T   T
 12.8655604719035779  8.3811914007534334 15.9998474941134461   T   T   T
 11.0796886531140881  3.8272586891474409 13.2867389967207341   T   T   T
 17.7324323266217050  1.4827515295196996 20.0460199988023717   T   T   T
 16.9540256281531221  5.6246659070214138 12.8477533034449216   T   T   T
 19.2035560404662213 -5.0806912703201812 13.5045964873972881   T   T   T
 17.6836273808737161  7.4000285673676771 10.5178698838040336   T   T   T
 13.1060081843438994  5.7214468349655041  7.6654995786715618   T   T   T
 14.7595967195171074  9.6309372602496008 17.7749445641124382   T   T   T
 17.5183807361534107 10.3699020557261914 13.3378507153338894   T   T   T
 20.2905249501413181  1.8928827927518674 18.9114097454227448   T   T   T
 15.2456502127523805  2.3081772522804305 13.3675942102540475   T   T   T
 19.3936834793199928  6.7961857786596642 15.8163365300913572   T   T   T
 19.2360920632394397  2.3580588218695016 15.9533753300742127   T   T   T
 20.3900580290741580  7.5281939589299425 12.9507825218861292   T   T   T
 13.5092630471621735  7.7220378078540097 20.1431482889378515   T   T   T
 14.0581032340835250  3.5955086355557504 10.3649915971384203   T   T   T
 15.9651944284605598  2.1407605188626184 17.7616555740119395   T   T   T
 16.0540662708866257  7.7222226302508270 14.6752997209045031   T   T   T
 16.2216207546098836 -4.1576193187037536 12.7787497678579562   T   T   T
 18.6220727336104552 13.1138807804497031 15.7951887367430892   T   T   T
 12.0692956961190543 13.5064544215016031  5.2201508634290263   T   T   T
  6.7767995133919863 20.5116718857439579 13.4945903412918309   T   T   T
 18.3617289982526835 15.7842312216204306  3.3862040672296780   T   T   T
 18.2456767719935122 14.2358272655032927  6.3001567673851051   T   T   T
 12.7958165939412876  9.2535055158433508  6.0574467864246193   T   T   T
  7.1799610773673370 17.7146606072396509  0.1597327404452960   T   T   T
 18.9969403193568986 11.6120900272475520 10.7008404286865950   T   T   T
 13.1112459070271221 23.0981567646404997  5.0250491009301204   T   T   T
 17.5502064865357674 14.2537248900784714  9.7256726816814485   T   T   T
 16.7666874272226920 17.2366067014221471  0.4186364828989642   T   T   T
  7.8025908752210453  7.9997152772315046  4.3715700008333291   T   T   T
  5.2969268891091525 18.2459027236389915 12.8497668725340652   T   T   T
 20.0040143284705643 18.4117202322209295  1.7597581474081678   T   T   T
 17.6617645423607641 10.5859232340332063  7.4371191043705815   T   T   T
 12.0864412281487876 12.8903899875737746  0.2588095800214315   T   T   T
 10.7959649607862982 18.8629881803759929  9.2562364894839106   T   T   T
 20.2838032073770762 11.6583125129339091  8.6321523423207438   T   T   T
 15.0435359008278091 18.0576778032397556  3.1098702101007394   T   T   T
 12.8389175446057511 18.0542980623757074  5.4347169515161386   T   T   T
 13.3044105496453291 15.2135422868078916  1.9267099116152695   T   T   T
 10.2348251725265893  8.5018056952639647 -1.5130289025744870   T   T   T
 12.0493777678334606 10.6021107846086000  2.5053174855056786   T   T   T
 14.7451103671074950 12.5510122139480895  3.5012785598811189   T   T   T
 17.3528600720798707 18.0993800429612790  5.0814922770676789   T   T   T
 15.3279839065173444 12.6266329156995081  7.1224567058323984   T   T   T
 13.5810230715770288 18.7711109652501804 15.5025713931395206   T   T   T
 13.4443402548516175 15.5514083983042219  8.3805988510024569   T   T   T
 17.2007797942690104 20.1247384268052869 23.9123266659063987   T   T   T
 13.7982222506859245 15.7572651852230532 18.0304792621126495   T   T   T
 12.4446441647123187 15.9525137550265406 12.8721365371005447   T   T   T
 24.0025467258747263 10.8757901754563981 23.3234623657248079   T   T   T
 18.3065194148241126 20.0359933877232450 11.6442099220393693   T   T   T
 22.7526040671058389 15.2778681997855941 17.3387351231289273   T   T   T
 20.6480934358309902 18.7269385276110185 12.0968490681082965   T   T   T
 15.1140206877090524 18.4652649435750931  7.9746004432147766   T   T   T
 18.0116496334619498 14.9491063486372049 17.7689587120620445   T   T   T
 12.4970370437165350 13.8897549337685025 14.9809655080012689   T   T   T
 23.8238353233342650 12.1833306211052186 25.8433776873189132   T   T   T
 10.4269112158260064 12.8519293171383069 12.4862182229497520   T   T   T
 15.4349846377474123 19.2596440472145289 18.0659815201696006   T   T   T
 20.4278807301622010 12.7818284199421139 17.9601986524102841   T   T   T
 12.6929133816959823 20.7355497138472415  7.8848859092356225   T   T   T
 11.4070953380778501 16.8319369766755429 16.3739894591684347   T   T   T
 13.1155242304583961 11.3331192658710052 14.2526197041469498   T   T   T
 15.7137124721637349 12.2039915009648485 18.2504813612283172   T   T   T
 12.6944415634779446 17.6535574900360572 19.8464563527977731   T   T   T
 17.7764014546662210 12.7273268489683637 20.5390335762077925   T   T   T
 10.8345651861182546 16.6638178521093892  6.9764405470015785   T   T   T
 -0.3627564859398811 -0.2133553569739857  5.2622308608398995   T   T   T
  4.9965900393623359 -0.1382056738204474  0.4783646858883733   T   T   T
 -0.2705800047234528  5.1184491555437130 -0.0038501914211682   T   T   T
  4.9992702576580612  5.3931983332464259  4.8092827298478085   T   T   T
  0.2004019865469367 -0.0990706807347281 15.3889906404228149   T   T   T
  5.1171480516689423 -0.0656206309173702  9.8946458305234035   T   T   T
  0.1383475067332699  5.4147997735159050 10.1640106757151951   T   T   T
  5.1331046433378988  5.2081618082633936 15.2836803491242836   T   T   T
  0.0859987736655489 10.2157883738482713  5.0307970768335331   T   T   T
  4.9527545443174175 10.3379830051736903 -0.0615458377810293   T   T   T
 -0.2398048311159025 15.3996168899898969  0.1151507157553959   T   T   T
  5.1038067592946268 15.2881909264832370  5.1799377638734727   T   T   T
  0.2825446441722396 10.0175387847323805 15.4823055911489362   T   T   T
  5.5799778474846775  9.9728934360856965  9.9865538736680790   T   T   T
  0.2958492525237967 15.1762440938170844 10.3613879730248861   T   T   T
  5.0378922361142431 15.6024689521438251 15.1665332266314614   T   T   T
  9.9378110127745227 -0.1110546873060937  5.0782461520725795   T   T   T
 15.2125055062140007  0.3567405087913956  0.5120933260577762   T   T   T
 10.1939857575194104  5.2577482908577968 -0.2032144133211683   T   T   T
 15.5157842195283511  5.2552340798896182  5.1980250564285271   T   T   T
 10.0467380798519752 -0.2567752001497069 15.7026599174994193   T   T   T
 15.5477586878124043  0.3011225828999247 10.4993803334057230   T   T   T
 10.5209938943274182  4.8195291234658804 10.4735815232316671   T   T   T
 15.8597538335449482  5.0179242946579583 15.6917148796970061   T   T   T
 10.1950971477582701 10.6121967457733319  5.4390555926192334   T   T   T
 15.2308337043751152 10.2246250864909882  0.2565881267167088   T   T   T
 10.4032390698633268 15.5981077888614266 -0.1881845106774612   T   T   T
 15.3988624678478914 15.1142169393393591  5.2979126392296854   T   T   T
 10.3347320452496518 10.3788976399769535 15.2217171308669492   T   T   T
 15.9141199983165311 10.6188568640556635 10.3028700449125363   T   T   T
 10.1325630595353751 15.7664907601765343 10.3719887546569858   T   T   T
 15.7183044519692459 15.2662923725164141 15.7215864041023305   T   T   T
  0.7841754465349298  0.6670254390945388  6.5755044554762332   T   T   T
  1.3382540257033055  9.0931819135521028  3.7672119158277875   T   T   T
  8.8678491511495743  9.3987903138729667  6.5732488360556012   T   T   T
  8.6479663300760414  0.9152953057822540  3.8338976081267577   T   T   T
  6.0507374792529198  1.1003706539436340  1.7866536443054131   T   T   T
  3.4961544486295053  1.1225263611004219  9.0997306837909289   T   T   T
  6.8207380721121273  8.7329467262147542  8.8942738264246906   T   T   T
  3.7510514542543967  9.1544307926882986  0.9935298855967903   T   T   T
  0.9853150524609949  6.2029045274457255  1.1816125266697650   T   T   T
  8.6961863895886520  4.2906198359872967  0.8213041465084113   T   T   T
  9.6511072145970989  6.2139970059333933  9.2022219722446739   T   T   T
  1.2711742751518582  4.2764829301933069  8.9308115330987157   T   T   T
  6.3482287674962485  6.7340651012613115  5.6266612932974471   T   T   T
  6.1142905300769890  4.0379094304910126  3.7233005008785427   T   T   T
  4.2017643188127813  4.1434629071713269  6.3796125390165495   T   T   T
  3.8075185241400660  6.4625078565438203  3.5563917461941861   T   T   T
  1.8218653936843956  2.3700469245806297  2.1907872562086594   T   T   T
  2.6164503095309155  7.5101460923738319  7.4030376794043669   T   T   T
  8.1509959745339611  7.7569662958991898  2.3535328226704584   T   T   T
  7.9946592555684663  2.5081711816969610  7.7825252116204577   T   T   T
  1.1514626939637103  1.4460745052246962 16.5168336601491603   T   T   T
  1.3841616339847480  8.6764333646929526 14.2422180222182995   T   T   T
  9.2347192710102632  9.1744248306731482 16.5156116257732961   T   T   T
  8.7865108105691725  0.9994005144850243 14.4132279291331109   T   T   T
  6.0414295696327462  1.0426404430190199 11.4234682784346457   T   T   T
  3.7144868742464707  0.9755674628518688 19.9262584281241715   T   T   T
  6.3793522352066230  9.0280849305923017 19.4624438957256629   T   T   T
  4.5265240133270916  8.8817784956269001 11.3770796865318395   T   T   T
  1.5966814790600881  6.2769173785475658 11.3857596070905309   T   T   T
  9.0843421522734733  3.7594586026446537 11.2631216471591351   T   T   T
  9.0667677593360860  6.3992016747320086 18.9673005283668417   T   T   T
  0.9979603022637201  4.0210862131481147 19.3524341373409356   T   T   T
  6.1077707440014111  6.4861586677493648 16.4562040706085995   T   T   T
  6.3840393085068028  3.9595619082559921 14.2757086277204959   T   T   T
  4.0959385850646699  3.8956414882113077 16.5692644211809181   T   T   T
  3.8221000128351816  5.9809139187903897 13.8913624015918842   T   T   T
  2.6474446337878526  2.3798296200100975 12.8792154065064377   T   T   T
  2.9603340084771754  7.6252378694720333 17.9407090491666210   T   T   T
  7.6899315844191047  7.5989598041620887 12.5743740548842826   T   T   T
  7.5657912972096808  2.3703979869237219 18.2734555851438216   T   T   T
  0.9539414354924993 11.1193986465744228  6.5998857588611912   T   T   T
  0.6876237031387408 19.1281827674186076  4.0274308232878191   T   T   T
  8.8947220465948007 19.4600367790743718  6.7022456209317731   T   T   T
  8.6743575778479247 11.5228459559884318  4.3031956263316022   T   T   T
  5.9225820451792641 11.6247436001881805  1.2973749902676124   T   T   T
  4.3398530541634068 11.2441255547713244  8.9530894239680556   T   T   T
  6.2496182367059063 19.3717070801019631  8.6094743998430054   T   T   T
  3.8885914358431335 19.2029953449868103  1.8133536968320985   T   T   T
  1.1438287866426924 16.4847706193654915  1.2457923695308597   T   T   T
  9.3736786229348201 13.9345901691186445  0.9098446779222807   T   T   T
  8.7560267317336642 16.9302493482755594  9.2069255981893914   T   T   T
  1.2409361993093473 13.6861320777748450  8.9166204559603646   T   T   T
  6.5556436213032869 16.4930804423337563  6.1803605979220340   T   T   T
  5.9292109636370220 14.2097433368912220  3.6127220302499405   T   T   T
  4.2531475842405282 14.1770183055070707  6.5318573394051933   T   T   T
  3.6332628034571650 16.5623214153929936  4.2053824754846900   T   T   T
  2.1010780581892958 12.5865334256413650  3.0686172871050670   T   T   T
  2.6448258139586107 17.5468989436494596  7.5918466385741326   T   T   T
  7.5784867548651960 17.9943065816236469  2.4392216005990148   T   T   T
  7.5329537509800533 12.8240560218061610  7.7792767026999954   T   T   T
  1.8794949232554949 11.2443266479854351 16.0513718275398318   T   T   T
  1.5806294168192148 19.4802200672682346 14.1652241800720127   T   T   T
  8.8978428554773661 19.0829841571407428 16.9370596286282762   T   T   T
  9.0528864414034356 11.5750433267474531 14.3353180682533061   T   T   T
  6.8911855488213352 11.1626501538201506 11.0763359528632197   T   T   T
  4.0129345756611361 11.5822250474437247 19.1761092152755737   T   T   T
  6.1258471495822997 19.4517493425048684 19.6140847766238053   T   T   T
  4.0744571116840902 19.3636870401608050 11.2655307381034913   T   T   T
  1.5075326606359407 16.2685704505732929 11.3865598331638687   T   T   T
  9.0851335236523507 14.6864752200108519 11.7588595462877592   T   T   T
  9.0417542582478792 16.7135038733244627 19.2361933635326565   T   T   T
  0.9330674001548727 14.2297921142037627 19.4773049065672055   T   T   T
  5.8317954873099378 16.7879811434910238 16.6689597204652955   T   T   T
  6.3573641976341770 14.9415852711965798 13.8919327526234149   T   T   T
  3.6167816208009254 14.1063444033144343 15.8472926652881050   T   T   T
  3.8657485204875668 16.7590887292104114 13.9237012219274057   T   T   T
  3.3179431413565075 12.6135712438010774 12.5966852627070338   T   T   T
  2.1840228382245188 17.4440397930277911 17.9998656830346562   T   T   T
  7.5958738946209250 18.3976098564574642 13.0131197718755480   T   T   T
  7.8564574164729066 12.6352002458391528 18.0370690543259471   T   T   T
 11.5716944961870034  0.8620707127135974  5.9977558816761984   T   T   T
 11.1790469916013659  9.1465447113048146  4.1136871425719077   T   T   T
 19.3382770220928997  9.0511744507777347  6.3932908330551230   T   T   T
 19.0115549082673212  1.2827017944181158  3.9715485605753416   T   T   T
 16.2129782460624625  1.7210433758356360  1.9483533933828254   T   T   T
 14.3028212941505100  1.4255729780234143  9.2229107443419416   T   T   T
 17.0539354832916032  9.3970586277096029  9.2835886146568924   T   T   T
 13.9178036786348756  8.9298791453078490  1.5834638368035889   T   T   T
 11.7613337007930951  6.1202611645593308  1.3550736593292763   T   T   T
 18.9992472420868701  3.9074076778232838  1.0821117422447424   T   T   T
 19.7080894301063161  6.7580600648121729  9.0043504629683078   T   T   T
 11.8739984256619007  3.8406293555204081  9.1535116283163838   T   T   T
 16.8636145531720807  5.9499407391462631  6.5087313622998746   T   T   T
 16.6229499080636884  4.3499633396081716  3.8266050266478908   T   T   T
 14.6914459276017517  3.7977274449814629  6.3608278722278451   T   T   T
 14.2296744990614954  6.8406660486674724  4.4409511582947365   T   T   T
 12.4159650840745783  2.3775888023040674  2.5698887606260938   T   T   T
 12.7878684426431946  7.8859844247635857  8.1349979508315684   T   T   T
 17.9264753589278740  7.9774799040547490  2.8835322614838006   T   T   T
 18.3978664124183169  2.5923710998510314  7.9086549754180879   T   T   T
 11.3829705271776565  0.8839300333775911 16.7104119594765308   T   T   T
 11.8144412389217432  9.6620791848048313 13.5898602364107344   T   T   T
 19.8575741880582974  8.7629632469440466 16.8030016163187241   T   T   T
 19.5602768693549258  1.0095304776353360 14.0625343465204864   T   T   T
 16.9398240411657000  1.5306152353554145 11.6902180951333836   T   T   T
 14.0017147219370255  1.4743799975429259 19.9031465825338216   T   T   T
 16.2194494263523517  8.9775290218376433 19.5082834092220665   T   T   T
 14.6024792629636870  9.2930624133881050 11.1339657511147898   T   T   T
 11.6174149218712959  5.7249909624173840 11.9502620776803195   T   T   T
 19.6840994814822814  4.1405621982861849 11.6344812811456606   T   T   T
 19.4978058761762298  6.3562504613313155 19.1363595640529383   T   T   T
 11.2947703871307574  4.0421689299968495 19.3487926993198371   T   T   T
 17.1867238364490724  6.5262093446167251 16.8754056638803931   T   T   T
 16.8484192510187505  3.7292830912355632 14.5578271224153948   T   T   T
 14.7381360073112564  3.8599272337234503 17.1901558816889235   T   T   T
 14.5635324972024698  6.0382266917031773 14.4898325910500407   T   T   T
 12.9826903808048879  2.5081067291135457 12.8751249438740594   T   T   T
 12.5425142790446635  7.5226477880455169 18.0486696392949710   T   T   T
 17.8672125293734325  7.6070713184392540 12.7841294619638344   T   T   T
 18.1953625885825545  2.5028968492198342 18.1927781748921333   T   T   T
 11.3889148394242010 11.5899664318978424  6.7123170628519455   T   T   T
 10.9992858900915778 18.9973566586247742  3.8538415113102120   T   T   T
 18.9156822753630465 19.1657265320543928  6.5329553285218456   T   T   T
 19.3603369202942623 11.5273684719745493  4.0988340880678091   T   T   T
 16.5193474840853867 11.3583578915205035  1.4138727976744958   T   T   T
 14.5813040203096591 12.0382137047136268  9.4370963426601282   T   T   T
 16.7637507273569994 19.5973429199201306  9.2094078905154682   T   T   T
 13.9438391450395915 19.6894818685525408  1.5997462019319479   T   T   T
 11.4130970450545597 16.7616638373935487  1.4286841214834798   T   T   T
 18.9648131589756055 14.1788358083290955  1.3719432848576776   T   T   T
 19.3888259468433120 16.2618525997887673  9.5301531169172744   T   T   T
 11.3289243270468258 14.5136121505942892  9.2541295147699181   T   T   T
 16.7446366721876601 16.2854623989721219  6.1799529774864830   T   T   T
 16.5020301326118606 13.5834841660184118  4.5615864914902930   T   T   T
 13.9027633359601417 14.1495541924489991  6.5900326616364389   T   T   T
 14.1605441653545885 16.2630264519283259  4.0916090890208823   T   T   T
 12.4739578999306495 12.9309073828564856  2.6526432353677643   T   T   T
 12.5992579411435823 18.0490972697788692  7.8530340116081705   T   T   T
 17.6765392383342572 17.8465614650995050  2.8119242406340685   T   T   T
 18.1515624119248642 12.7177838461089472  8.1407997591777512   T   T   T
 11.5672762925589154 11.6845316562814645 16.2752901448181504   T   T   T
 11.1782623541549828 19.1152016533065279 14.5233556662055552   T   T   T
 19.7100274664636146 19.7734371378258800 16.9448288733709660   T   T   T
 19.5922962989620295 11.3543609166282380 14.4411257898434542   T   T   T
 16.9621339234468884 11.6686304624525832 11.8028878478214612   T   T   T
 13.8733349713092924 11.4533283742403817 19.6711598907425724   T   T   T
 16.6299878670086407 19.8585746187016312 19.9211747716659957   T   T   T
 14.7553286045417451 19.3882631723499159 11.6288719682229704   T   T   T
 11.1393803266561555 17.1546928712019451 11.4086065093632048   T   T   T
 20.1593126397627138 13.7596659607587348 11.9033646659892014   T   T   T
 19.0535308007455981 16.5482907000436370 19.6506730563156324   T   T   T
 11.5845842057066974 14.5378069384137714 18.9759283186726364   T   T   T
 16.3285950744204840 16.7347132294837309 16.9914169852347712   T   T   T
 17.0624578125366568 14.2850035654703458 14.4432684228526806   T   T   T
 14.4183994409546568 14.0314135685905086 16.6294331336510837   T   T   T
 14.7235365849737487 16.2686825748421526 14.3210350973834153   T   T   T
 12.8404183808028272 13.5866491605136783 12.7051800075963666   T   T   T
 12.7859544101573679 18.1008314218904545 17.7985993040135497   T   T   T
 18.4932967900238836 17.9818564961128686 12.9698139164887696   T   T   T
 17.9143545487383555 12.5475867827875511 17.9069642162277134   T   T   T
 -0.0869532692964532  0.2770000375526683  0.0035185610414747   T   T   T
  5.2485874697000012  5.3314993242959519 -0.4785254398049274   T   T   T
  4.1845924044593232  0.7282715610560021  5.2277080355563177   T   T   T
  0.1772610871095055  5.5149656252576333  5.1707920163370620   T   T   T
  0.4700157449304033 -0.0198293270451742 10.0916576781346752   T   T   T
  5.2478183565083159  4.8341419272595783 10.3320997275977877   T   T   T
  4.6515261944302955  0.0730000322839455 15.6625336079891397   T   T   T
 -0.3945509442417959  4.6083520476365472 15.2882427725571333   T   T   T
 -0.0747820340874233  9.9270581309331032  0.4463788391270170   T   T   T
  5.4728695919691992 15.7867289181255739 -0.0695570927801277   T   T   T
  4.5929423736021988 10.2156619450128066  5.4531458082535140   T   T   T
 -0.2809264013695538 15.2792307717128928  5.0672414860750523   T   T   T
  0.5302536561113386 10.2684257946244557 10.0495988590117467   T   T   T
  4.9066862895121757 15.1361884453991209 10.2134366946104507   T   T   T
  5.1025660299123379 10.3743591724079867 15.2346455245713521   T   T   T
 -0.2557258954245559 14.8867631617203209 15.7688757558376640   T   T   T
 10.1589581361543075  0.6209227470932593 -0.0469549493789071   T   T   T
 15.1782947863592383  5.1294841815462640  0.3566445366478865   T   T   T
 15.1420121916844419 -0.5183113543778274  5.4966425242047912   T   T   T
  9.8224478703426410  4.9903821566964313  5.2556647973114199   T   T   T
 10.8864696106888896  0.2839688230301493  9.9421543328154520   T   T   T
 15.3166051552537343  5.7759919266581781  9.9488896393886623   T   T   T