Li P  S  Cl
 1.0000000000000000
    25.1819793006824639    0.0000000000000000    0.0000000000000015
    -0.0000000000000009   14.5388225279766061    0.0000000000000009
     0.0000000000000000    0.0000000000000000   37.2126966544236950
 Li  P   S   Cl 
 288  48 240  48
Selective dynamics
Cartesian
  2.1492361203695181  1.9846702535924288  8.2346371002193486   T   T   T
 12.9555667386196021 13.3869542570552689  6.4003650280756581   T   T   T
 19.4477398630048413  5.2525327294618211 10.7798944996531230   T   T   T
  7.4729106010732620  7.7362180895593733 18.0974616405428961   T   T   T
  8.3491249705003288  7.7533785135423576 -0.0267109643239434   T   T   T
 23.4002606441592391  9.4089457729248984  2.9573256929613891   T   T   T
  0.7289366522992853  6.2002083932035150  6.7103476066090550   T   T   T
 12.8180337664321105  9.6439621137518259  6.8934823608124782   T   T   T
 20.3758409317188409  3.1951450576126299 14.5271896001656309   T   T   T
  2.3444954723043243 11.9979795703566765 19.9272210243644103   T   T   T
  7.3281274449668112  2.2854721576526908  5.4203721318715870   T   T   T
 20.9207354334442783 14.8698185866844099 -1.1789916870613553   T   T   T
  1.3416416213023572  3.3864160633279825  5.3281084045762279   T   T   T
 15.8512961428397148 11.6455045874468404  5.3758700072962551   T   T   T
 22.2624596644646715  4.5906392404658147 16.5295338917425028   T   T   T
  5.6107540117129009 13.9556520318893575 12.2965764776150905   T   T   T
 11.9880915703952304  4.5586494795223542  3.2366330272735264   T   T   T
 24.8457895454288504 11.8146942481456527  2.6568400634971763   T   T   T
  3.6774080361638610  5.6395803073654394  8.7170723485158472   T   T   T
 15.7184983661840061 13.7925536995047864  2.9538284891581990   T   T   T
 20.7426280153508742  5.3546715045360767 13.5701404087857487   T   T   T
  8.1207441685105337 13.4898961560682729 18.1439955285814598   T   T   T
 13.3675681167927074  3.8445520475044872  0.4349116786552619   T   T   T
 23.7721161918179718  6.2001012247146150  0.3914521155208989   T   T   T
  4.3122221969459194  4.4319195354458865 14.5457954259897164   T   T   T
 16.9305231124421738  9.7643477105977432 13.2564840607265744   T   T   T
 17.7845984223196183  6.1115549095736528 12.5006174680172624   T   T   T
  1.7547417849475497 16.9458741548319907 18.3856404605507500   T   T   T
  8.7029031233232033  2.2969648632066906  8.4552913158857059   T   T   T
 24.1565524435802743  9.3759367258146611  0.2208906384890201   T   T   T
 -0.0007835854449361  3.8862475067331652  8.7968141921613778   T   T   T
 13.0855996104502328 12.2978515256179861  8.9891218321455000   T   T   T
 24.5975730849374088  6.3927065716457827 11.7313419596945625   T   T   T
  4.7092780468620967 16.7599294830629368 18.0418907122475325   T   T   T
 11.4186210705822724  6.6255300120248473  0.9022054234859910   T   T   T
 22.7643605726174840  5.8550734524494779  3.2842210649529222   T   T   T
 24.5681366206544638 12.9638115372884073 12.9761868895418040   T   T   T
 11.0080213349551457  7.9488469981075420 10.6873341620035358   T   T   T
 15.2200598929820501 11.2421381749098295 -0.0332853688770340   T   T   T
  2.6075081730469778  1.4017028764050552 -0.3881048872386328   T   T   T
  7.7835526230662637 10.3199340224540137 14.3720026679256598   T   T   T
 18.9165601247345592  6.8812288232326289  7.9608556865753854   T   T   T
 20.6019231064348745  0.2686059651236428 17.6964751849988104   T   T   T
 10.6425379274124818  7.3424585522449011 14.8457932416734959   T   T   T
 17.6871331272899894  2.6173040353845605  2.7091484526201062   T   T   T
  1.5207328047559712  7.2279621720455269  0.5367499469693245   T   T   T
  8.2075410700592180 -1.7791895437381151 13.3368655105602425   T   T   T
 22.3718538978829713  6.8103525819215749  9.0166754957428044   T   T   T
 -1.4383285839052764  0.8549664083124234 10.6612570807887810   T   T   T
 17.8966954962059077 12.7978163772466189 11.6019676534135741   T   T   T
 18.9507133191371224 -0.6312370396952235  2.2523727910923812   T   T   T
  5.0508691690500385  8.4583886133767265  2.7305811155578668   T   T   T
  4.9621688659815328  6.0458238809027449 12.0789682681551316   T   T   T
 19.8612460733884504 10.0183472011074279  6.3850766670043377   T   T   T
 -2.0151591383631744  0.8706862826652281 14.8360298435407163   T   T   T
 15.1179765713996783 10.6995906443517583 17.0789432655256661   T   T   T
 15.4790404149013145  1.3655422041190683 -0.7974581966288975   T   T   T
  5.9730889272228991  0.1902749953963818  3.0143721739952452   T   T   T
  6.5332758040461130  0.3720478728956504  8.3260440609419195   T   T   T
 22.2387998832601284  7.7084163003422104  5.5623516063369340   T   T   T
  2.4596377215193912 15.6276365022175696 12.8277573815212325   T   T   T
 14.3491929568828027  8.3066677896148349 12.9609852969405743   T   T   T
 10.2107172373916288 14.1902060178978324  8.3136979963625279   T   T   T
  3.6565412985387100  5.8953736870444446  3.0356558853849069   T   T   T
  6.4319332049621787 23.0796434332423388  7.9943201471364214   T   T   T
 23.2390058198905649  9.4659564877493452  7.5004832773110905   T   T   T
 24.2495203502778907  2.7466146644356071 13.5381834836526966   T   T   T
 10.7101467626922613  9.8528397461103872 12.4101057110393711   T   T   T
 17.9439840480644222  5.6034905613081918 -0.3010716115382285   T   T   T
  1.7198886763839383  9.0157157565179347  2.5371290429104745   T   T   T
  7.9905191311518031 -1.9083311840980197  6.5914783355827939   T   T   T
 20.2294086124864947  9.2189284457973493  9.4258365937781150   T   T   T
  1.8194695718463378 10.0915748733614805  9.0787334569646774   T   T   T
 12.7635066522521452  1.4627229631339691 11.3773989315442297   T   T   T
 13.5917862844490784 15.1291574312655470 16.0080592400531891   T   T   T
  6.7680489054283672  6.1319842257105046 14.7137622438723259   T   T   T
  8.9781222797792459  8.5822454821198697 -2.7484049593657738   T   T   T
 23.4738096867221913 -1.5897341106770140  0.2103966771249787   T   T   T
  4.3082372030501901 11.6494922562161385  6.7179022865897684   T   T   T
 15.0965676540386173  6.4956436174546424  8.7957985012960211   T   T   T
 16.1454452143803877 12.5517783068706272 14.6992540177190207   T   T   T
  7.8652024872896487  4.6132460307444250 19.5592447619942860   T   T   T
  5.1969723792483871  9.4503285293794761 12.5843363205625778   T   T   T
 20.6174168671722242  4.2616619173349291  3.2208739642482920   T   T   T
  6.7740655684783011 10.8745716297958523 10.8960383771831690   T   T   T
 12.5696396920798694  9.7102100831896081 14.6219134715180683   T   T   T
 21.9147625001759252 11.7823499859606002 16.5453677805633035   T   T   T
 11.7675339411711555  5.6876128074586791 12.8162383654863721   T   T   T
  9.9476207737839371 13.7202779582486478  2.9354810768552047   T   T   T
 25.9134281036194238  6.4426820609452822  3.4902021851637755   T   T   T
  1.1342508303010124 10.1425289864818389  5.8434201654569025   T   T   T
 14.2750616502694498  1.9373778966714772  8.3549947175358188   T   T   T
 18.7715716504922909 13.6631658075871627 14.5312262488862451   T   T   T
  8.6514301683921815  4.5041345592349264 12.5740609138624251   T   T   T
 14.0895727235758912  7.2251549615882045  3.4004963283727294   T   T   T
 27.6208623288784949  1.6889479535108594  2.8050068325431465   T   T   T
  2.4478969036392364  7.2478530352418629 12.8808813875478503   T   T   T
 12.6619324345187074  4.9766817704945927  8.5201270802755307   T   T   T
 18.6522685811157274 10.6424221436154092 16.0228458646673921   T   T   T
  1.1552542871855507 -0.1729025772857311 15.3995059532611709   T   T   T
 12.3495148261969252 11.2915999863216889  3.0114215108156279   T   T   T
 24.2390724251267287  2.7191529216798527  2.7830114932758896   T   T   T
  1.2661847200463434 12.9439097834469159  5.8089715000413280   T   T   T
 16.5015376203695610  3.8665697970005146  9.3295180500957819   T   T   T
 17.7640620156438871 16.7115908675128679 12.2358576284774028   T   T   T
  6.3764788278543270  2.1303816202487251 13.5108861058703287   T   T   T
  9.6402660871171904 15.3162863164850052  5.0969733930547632   T   T   T
 23.2601653414881042  9.1553053008289176 -2.7523429301458453   T   T   T
 19.5700381668420889 13.6025780422400437  5.8249399983194863   T   T   T
  7.2724394637119367  6.3149385702238128  4.9638470291716432   T   T   T
 16.7530546678105381 14.5732206573638621 18.3760895260587844   T   T   T
 22.9961722166465847  8.5706052015526737 14.2582275184158132   T   T   T
  5.6162125846775162 16.5969682857532703 -0.1327586361503482   T   T   T
 17.4528512456762641  2.9618302820653892  0.4185032139163604   T   T   T
 19.5360925059323236  2.5342088938327749  6.7170192604824370   T   T   T
  8.8993279995202741  9.6128156641631044  8.1095760506564076   T   T   T
 15.1287132040705306  0.3306541673370483 12.4262654990937964   T   T   T
 25.5131798497607036  6.0835451033253438 14.9871263262644892   T   T   T
  2.9741694095434150 -1.2225378989951514  3.0392779366342921   T   T   T
 15.4810888489609990 10.0182136825159880  8.7037648211873559   T   T   T
 21.4337288026636230  2.2151211056628792  9.0441219467794944   T   T   T
  8.2347565435415468  5.6990480431372799  8.2071943410976189   T   T   T
 17.0544967421401168  3.8158547748807834 14.9461234092604656   T   T   T
  4.3757253757630039 12.3366302011607551 14.6652839503822889   T   T   T
  4.0135613552040432  3.8001829485960901  6.0483797490203459   T   T   T
 22.4967151306423858 13.0189631498759759  3.0564032202573834   T   T   T
 23.2261380339485797  0.2989545224966041  6.7023896838234789   T   T   T
 10.1188166474570913  7.9451183425274472  5.7948554981707110   T   T   T
 12.5148985712521181 -1.8032156440932912 13.3826799739496742   T   T   T
  0.3204778889429422 10.2326360121389222 14.4188045800081941   T   T   T
  7.8573870946978595 -3.5811152351309561  1.1320210028413380   T   T   T
 16.2995142710540435  9.7696179897897153  3.0385398600446138   T   T   T
 21.6388224718604860 13.2822539671386757  9.1969352791766994   T   T   T
  6.4153159819159127  3.7500532531531259 10.9352930686916245   T   T   T
 10.4116289507052286 15.8952483927074155 13.6268039553066505   T   T   T
 -0.4997759346761156  9.1150301568489454 11.2977162768042234   T   T   T
  1.6952395453023510 12.8972933033603105  9.0361787082402287   T   T   T
 13.7975721124026176  3.5078764209878259  5.5509623704256565   T   T   T
 18.8174554224660042 -0.3281322140830735  8.7863274391285380   T   T   T
  7.3653346104282340  9.4206838110196429  5.1221514505293655   T   T   T
 12.5515412480714215  2.9318306670040033 13.9368540829120704   T   T   T
 20.6522380606737244 10.7134137000449989 12.9515247816256682   T   T   T
  3.4909406647932375  4.7226324486619982 -0.5117609953949557   T   T   T
 17.3559287375162654  9.2609521895250744  0.4055193073201093   T   T   T
  5.0781791648974925 -2.1393807603458308 31.2445718772298733   T   T   T
 17.5860884349432354  4.8729069614867422 31.0822759832429867   T   T   T
 22.8571051718764906 -1.7209827936657955 26.3157255104213981   T   T   T
 13.4152109554856054  6.6560820344425879 24.9827731865616478   T   T   T
 10.0312247191606261  1.5756260320471942 34.5970332673548242   T   T   T
  0.2645723611686043  6.2821516076854254 34.2972841573720117   T   T   T
  4.4831459468986505 13.6743888017204647 28.9715475110206064   T   T   T
 17.7216154050839094  4.9530608502190088 27.4476021852337020   T   T   T
 22.6894694635779075 11.1173700368429067 23.6680196875220616   T   T   T
  9.2161275348467040  6.2814030311524647 22.3356841644408668   T   T   T
 15.2978617138030835 11.8157733390598843 34.3809089156256604   T   T   T
 -0.9797385335108314  4.1459664248277699 30.7050558239267559   T   T   T
  8.3619955061550897 14.5496621519366833 28.6724960989273967   T   T   T
 18.7286473826192221  8.4052658583554667 27.7477045818786578   T   T   T
 24.1534787693425770 15.6118934176576403 23.6978804166353143   T   T   T
 12.1604644565746920  5.7541435869523010 22.4658061668284326   T   T   T
 17.2999144842529020 13.1836754095207525 36.2083342109771706   T   T   T
  1.9934739473984779 11.1507935870164907 34.6187951126626530   T   T   T
  6.2092665427218865  1.4163818649838000 28.3135478702960803   T   T   T
 20.8259776797273872  6.5429413161446570 31.0159672818194707   T   T   T
 25.5004985517017602 12.8550829508938591 23.5065822570214280   T   T   T
 10.4132597957025652  8.9490108814595537 23.2285976991116740   T   T   T
 14.5285479359206970 18.4414431250462947 34.4917988312996542   T   T   T
  3.2840415438401411 10.3543770081153141 37.6600970508547661   T   T   T
  4.7032176892557862 -2.9871217684617135 22.5724834086166872   T   T   T
 17.3110610820125430  8.1630411678362336 30.1762963507622786   T   T   T
 21.0298134150716649  0.3022930293970469 23.8480446812604825   T   T   T
 10.2639388854103544  8.0479597415622237 26.0619495541173514   T   T   T
 13.7732923336650845  0.1836002779204472 34.1512331217204661   T   T   T
 -1.0217943898023625 12.0861751173308356 30.4167171772662677   T   T   T
  7.1594188820685289 14.5202017492452633 31.9905940014615382   T   T   T
 20.1317957918994139  5.3196914685032270 28.3088815642799467   T   T   T
 22.9959531875335301 13.1123648311597734 21.5758909468740185   T   T   T
 10.3431479156580899  4.7131494656924868 24.3300283382513491   T   T   T
 16.0994645464186092 12.8021485273243201 45.9235357301705207   T   T   T
  3.5703697624099231  7.9641914868985975 36.2408813363348656   T   T   T
  6.4315938419153067  4.3759408185915589 23.7892313407824609   T   T   T
 18.7710065437269549  9.2848861161631433 22.7650607846661366   T   T   T
 16.2071746738983364  5.5966303757694060 38.8504216686706485   T   T   T
  3.8110784729938949 15.0519683742966244 34.4017717447338072   T   T   T
 11.8938480431542555  1.9913129950053483 31.7824680083336979   T   T   T
 27.6169906116891966 10.1367308483765832 31.1160793923898176   T   T   T
  3.8524138472676381  3.7422476961181443 25.7988174298563351   T   T   T
 15.4196836502231545 10.9548591482432158 22.1100167343529606   T   T   T
 19.2623101364689546  2.2258292568579110 34.7086603199701145   T   T   T
  2.0416185985524602  8.5779401584099553 34.2662446387845563   T   T   T
 10.9148553408774589  3.7292529278322419 28.1576183210468152   T   T   T
 23.7800105339674701  8.4924499706107568 28.9748733825587017   T   T   T
  3.2381941584979819  4.7208463131831495 22.8846535490261829   T   T   T
 16.2033775366277624  8.1757364623088691 22.1236351345811109   T   T   T
 25.2158782438716074  0.5453397816836801 36.2042059339238875   T   T   T
  8.9165807562551169  5.4440315246479818 33.8903163558895884   T   T   T
 14.2746498659193843  3.3142688760400651 28.0676308974534550   T   T   T
  1.6466076387989586  8.2845440815913385 28.9375435537288332   T   T   T
  7.0172572705672591  1.9119385004852631 23.2548967119541388   T   T   T
 15.7744075483559207  8.5304516886140824 25.3116992459409680   T   T   T
 23.1960739788037529  3.1814937794795912 36.4945257073744571   T   T   T
 10.1068850351518602 16.7236676121146139 38.4761585018679568   T   T   T
 14.6570304071392528  3.2467395780744539 30.6832737353863720   T   T   T
  0.3737492100962306  5.9334050563254896 22.7859411759315158   T   T   T
  5.2965636539048351  3.2262938840430539 20.8528700846676571   T   T   T
 18.9232506063772803 10.6613040729254323 24.7490833283677532   T   T   T
 21.2320256655960407  4.9106037351004268 35.0469078345466158   T   T   T
  8.1667651118798918 12.8559318005820593 35.1543811047035604   T   T   T
 12.0817785528522670  5.1484078444586237 30.5638401016637040   T   T   T
  1.6338042776491968 11.5805021438104809 28.2595258887379117   T   T   T
  3.2848987183969114 -2.3930718646159566 24.9159181555415969   T   T   T
 16.0599914651636837 12.1107928923153025 24.7447965105291949   T   T   T
 20.6506639429628933  3.1707963886690202 38.1590851160120010   T   T   T
 10.2027085005846914 10.4474432193900739 36.4879507642757588   T   T   T
 12.3636266427260821  1.1274753074145600 28.1878243683311105   T   T   T
 24.2173610147354168  8.9317038812261451 31.7557047943601312   T   T   T
  4.4659425277204896  6.3025915718868344 28.0021167672125557   T   T   T
 20.6494062753279550  0.5859350833615479 28.8442616381364374   T   T   T
 24.3782024466326277  6.4088716437881654 25.6908605053865458   T   T   T
  9.1173614784476591 -1.9402481458525962 22.0338688351924787   T   T   T
 20.7190947859865418 13.9488759724166158 32.1081034305991366   T   T   T
  2.0754349546014095  3.6272119334233710 34.3091824560421585   T   T   T
  1.2727725292364984  5.6200251282995906 18.2575241764361564   T   T   T
 17.7021004839649336 15.3477658597116999 31.7914689893505660   T   T   T
 23.1679082308097719  4.4245333500186979 23.4060641364751376   T   T   T
  9.7596871671811680 11.8639739931451125 24.6460855317321901   T   T   T
 12.0513630946688615  7.2579052630078813 34.5966244957095199   T   T   T
 -3.9847878819017444 10.0466452991302546 37.9938254993256166   T   T   T
  7.7356976805067976  6.2954515696137978 27.9828175893526421   T   T   T
 16.6635866181648282 13.5296009628491696 29.1321533939449218   T   T   T
 22.7354177788170446  8.6955285510316678 21.6029652217135677   T   T   T
 11.6779523875344324 14.0963306750029780 25.6960567851159887   T   T   T
 12.3824364711624462 12.5599839861609510 35.1091989819603327   T   T   T
 -2.5377230092364598 16.1838458204928877 34.3482468137277905   T   T   T
  8.3567508499039764  6.6092954610276093 30.5364137272937803   T   T   T
 20.0570745684801466 11.9036415299642293 28.9170734355063530   T   T   T
 24.6675923434215534 10.0544005907390357 18.5907969165330975   T   T   T
 10.9501856819407610 15.5845687739829053 22.3784330353992011   T   T   T
 15.6430264345221435  8.3778067313922122 34.9541766487738812   T   T   T
  8.8882624254916198 18.6424362660738687 40.0924434522378164   T   T   T
  5.9590094997071086  8.8760446102194273 28.9859304585989044   T   T   T
 17.9213639838255290  1.7402199081008274 28.0804277441128107   T   T   T
 37.2638726069917681 11.4814527384218010 17.5271595425250908   T   T   T
 12.5966172869001305 -1.5034893533563012 22.8137265839778856   T   T   T
 17.0500290085813475  4.8810184472603773 34.3548850037156299   T   T   T
  7.4915521554532765 -2.7069858158185163 28.5318371059111193   T   T   T
  5.3144935181006216  4.1652559400106668 30.0385243532031652   T   T   T
 18.2666749818849468 12.2529628948772817 31.8602604921516495   T   T   T
 22.1072895951073249  7.8598598119240952 24.7516937859881878   T   T   T
  9.3785007452318148 15.6731707429100631 24.3985877651560408   T   T   T
 16.7948008759278125  4.2460527183997563 43.4500094317995860   T   T   T
 -0.4178398903499827 13.1636653931192811 34.2301222137287766   T   T   T
 24.2146481639894091  1.3642743942686755 27.5411840973640523   T   T   T
 11.5947754874152054 11.6901065903768568 31.3676976683684821   T   T   T
 15.5846647526674982  2.5217157754334147 21.4938009043539360   T   T   T
  2.2339958359562555  9.0404965779602016 23.5495359985903221   T   T   T
  6.0981033888725840  9.2947227106002757 34.3770519637879630   T   T   T
 14.2619699319471351 14.6542427005263178 38.2399417221745068   T   T   T
 27.2616630950912153  1.5043747160592984 27.9031997020764138   T   T   T
 14.4826046577606409 10.0624163957506205 31.6110009463626760   T   T   T
 18.4898541865251573  1.3754920533582129 22.4024472233507908   T   T   T
  4.7121387000387083  8.1450856705613006 22.9020857364785364   T   T   T
  6.1160664282126440  3.8002775642425650 34.5223184754040133   T   T   T
 19.0735667762243253  9.6161480503587633 34.3088573060062387   T   T   T
 -0.6083288801713951  1.0881322043803674 30.7760033738561489   T   T   T
 13.1147639982431947  8.0051888529117079 29.3362137131333149   T   T   T
 18.7960069210560334  3.3760422395124654 24.4295667744975873   T   T   T
 -5.2156383656897285  7.6055094398326277 19.0363955105243186   T   T   T
  9.5598892265697977  4.7323090944795903 36.7323866821702580   T   T   T
 21.2708005606915194  7.5565660302638626 34.8895416008220778   T   T   T
  0.2929346302982382  4.3566091813698922 28.0225807894957093   T   T   T
 11.9441885901653126 12.0133517652193831 28.0083257090185853   T   T   T
 15.5790274905376052  5.1356434833937348 24.5990654441751673   T   T   T
  3.5899300994633823  9.2885698472066416 26.0761129910813096   T   T   T
  5.8705612296535703  7.3157207357265515 32.0036059868470062   T   T   T
 21.8815827528989004 12.2394180195100830 34.3289309253319672   T   T   T
  2.2702046929491186  2.7595542272676652 30.3976689631840351   T   T   T
 10.6437138733384611  9.3884628153949343 29.3524699440147039   T   T   T
 16.6357935638495675  5.0384710068843788 21.9175339855831339   T   T   T
  6.8502074238974169 10.3365244758453088 24.7066916379662302   T   T   T
  5.2601361443215238 11.8499678087087865 35.3888391351777329   T   T   T
 19.5121194111428551 11.1442937546945764 36.9420735697601472   T   T   T
 29.1276465156963340  0.4845019953790459 23.7441724717121261   T   T   T
 14.3093060603346114 10.5073618555724551 28.2582959124543542   T   T   T
 15.9100140172018065  0.4720925695560536 24.2171025707298320   T   T   T
  4.3094653971949484  8.1171996575141492 16.4096043007573655   T   T   T
  4.1291057907539130  5.9401515408925460 34.2641219081545714   T   T   T
 18.6180325561489894  8.0711988747143302 40.7493255730122286   T   T   T
  0.8378556701365801 -0.5829238065952212  1.6783547900277467   T   T   T
 14.1588980325175555  8.5425307287286998  0.6475511488703521   T   T   T
 16.4431089851166945  0.6608595870801064  5.8051462555741384   T   T   T
  3.9418116823397007  7.9183933156035700  5.7911271825858348   T   T   T
  8.3689912794485419  0.8742262408260209 11.6073183988127546   T   T   T
 20.9849955091978870  7.6943189824844511 11.8473345539767081   T   T   T
 22.8381718605862218 11.5761904943853438  5.8602556834998181   T   T   T
 10.1842285611757770  4.4498124506140941  5.7298684457312552   T   T   T
 14.3899747061506442 10.9988173123621671 11.7276860024619900   T   T   T
  2.0075165772699610  4.4347943448658276 11.7883310732800499   T   T   T
  4.2473648949302394 13.1735482889248345  0.3140333523102404   T   T   T
 15.5328575448243793  4.6046261802638853 -0.8549117746052991   T   T   T
  4.0291555770365388  0.8435370740412289  5.6359285691680343   T   T   T
 16.8277820148490065  8.2219877492983535  6.1398132654873772   T   T   T
 20.8675694874669517  0.5537075060925194 12.0357994297395443   T   T   T
  8.0538615982174395  7.8301204503983763 11.4660434465354264   T   T   T
 10.8826014119755268 -0.9336343502935213 -0.1169712925011960   T   T   T
  1.8013500691939499 12.8152833289104358  0.0713520303189152   T   T   T
 23.1707596237739679  4.3619624302797737  6.2170062963830244   T   T   T
 10.2106357623922417 11.6386314306079974  5.3803791376129899   T   T   T
 14.7041286797388828  4.0983132670633298 11.7575267309888414   T   T   T
  2.0670616698115909 11.7211737245134557 11.9614440488219493   T   T   T
  7.1676040198894713  4.3995234900098144  1.0016637309214504   T   T   T
 19.2332625581302850 10.2259845485675065  1.9633413280599756   T   T   T
  4.4449868019130028  5.2752425859252909 18.2526927138328894   T   T   T
 17.3312633278581743  9.3982187993607944 19.2446509517621323   T   T   T
 20.8565262858543292  2.8532915256211040 31.3177425071280631   T   T   T
  7.9686777032050209 10.3577805944851775 31.5510656539974015   T   T   T
 12.6325493660946861  2.8308177401932308 25.1451509064268848   T   T   T
 25.2697238764215655 10.2788903536394045 25.3090712438136585   T   T   T
  2.4542018342503833  6.6042306282177643 31.2396763764916727   T   T   T
 14.5961800089727642 13.9535746551988566 31.5580383214129583   T   T   T
 18.5797646060704977  6.3874636084276242 25.1134304717563843   T   T   T
  6.4292016337488427 13.9395091042498045 25.5115782138947260   T   T   T
 10.6228627786224461  6.6446048510137130 19.2277421485027027   T   T   T
 24.1943055386402648 13.4276252152920179 18.8369938543623370   T   T   T
  8.5386063312239546  3.0228208976215036 31.4154192802793197   T   T   T
 21.0306119750514497  9.9592000805007430 31.5537077441357496   T   T   T
 25.6214059882530023  2.9150925807664230 24.8991775132454940   T   T   T
 12.7625993860696347 10.5098069209152278 25.7394084157606251   T   T   T
 17.2073983359188176  3.0757671153712232 19.0161583420796028   T   T   T
  4.5814874357676869 10.6194628780148221 18.4457166265190153   T   T   T
  2.0635394639677056 -0.6892316281908701 31.2274147990986037   T   T   T
 14.9787803990776318  6.6966755652040604 31.7762207574122044   T   T   T
 18.9139623092824678 13.8892419380089578 25.9498107972459451   T   T   T
  6.6440315758852035  6.7042470077017402 25.3325807902414368   T   T   T
 10.6800409944964905 14.1019896843903325 19.4986800292672591   T   T   T
 23.1675889008214639  7.4796967593772949 18.3141530821332488   T   T   T
  4.1000441115286250  0.8590455160613265  7.7778775126761897   T   T   T
 16.7942331758692589  8.1475051703688877  8.2396773458455872   T   T   T
 20.8101376117279386  0.6853257644958357 14.1041972643271940   T   T   T
  8.2786241859744241  8.0147092595595453 13.5908193128004573   T   T   T
 11.7122924082474338  0.2567968165630986  1.4491521070406288   T   T   T
 -0.0331308426029739  7.8486761348270848  1.9306895018324162   T   T   T
 21.7436431507071291  2.4109157035691759 11.6786364444425477   T   T   T
  8.9988728328146994  9.4513148871803985 10.5124070820203102   T   T   T
 14.1040898537946013 -1.5101703709601100 16.5511488885058746   T   T   T
 -1.2860535266404554  3.8231292981945075 18.2476270856045026   T   T   T
  4.9758125288899695  2.4498450688111357  4.7228967622884124   T   T   T
 17.6117809819478310  9.9676467146363024  5.4781460480796493   T   T   T
 21.8291211767298847  5.8653921279102024 11.3324305162270456   T   T   T
  9.0576225892038522 13.5397772301393822 10.8487800402988714   T   T   T
 12.8199294297735964  9.4829196066202570 16.7010967181457062   T   T   T
  2.8975055233555485 15.3210951295168414 17.2087218120667842   T   T   T
  4.8742071153045856  6.3503744075089701  4.9390648340511341   T   T   T
 17.2868869911866909 13.6565111057699120  4.7389421185408809   T   T   T
  6.4524327721668921  1.1958516188860526 10.9605439166602086   T   T   T
 19.1572481372692209  7.6819407157188078 10.9000569630965529   T   T   T
 24.3256854646037795 -1.7396172214950614 16.9426761898188474   T   T   T
  9.4116365642763657  6.7433883241938748 17.4011457767898463   T   T   T
 14.5331610598697569  0.6932793868707297  5.1428051570164977   T   T   T
  2.0100538741426877  7.7815650937153960  5.1029402628447764   T   T   T
  2.0446319136090025  4.3544884102673667  7.4965984060917394   T   T   T
 14.3161614630239864 11.4193766617738248  7.1800115396200965   T   T   T
 18.6551128517662548  4.1754358830793716 13.1909441114473029   T   T   T
  6.1921732861345609 11.6137800690306392 12.8785166256486807   T   T   T
 11.1858988046003738  4.3344875789207418  1.1301092030836450   T   T   T
 23.1669755219103237 11.0593648521773282  1.4241177718944449   T   T   T
 23.0044921437109551  4.2532877745462079  8.2814475616048320   T   T   T
 10.1918559464273777 11.6116777945268481  7.4861523152304663   T   T   T
 14.6348865501461027  4.0960862859858835 13.7807125059892748   T   T   T
  2.0699114862816641 11.7153529572368704 14.1400621103198301   T   T   T
  5.2477615607312007  5.1302188306693335  1.0705447589075119   T   T   T
 17.9907290488490403 11.9527782343248177  1.7701886881800069   T   T   T
  2.8127896103779171 13.3463158052691711 11.0425829096117916   T   T   T
 15.8245758296699375  5.8148337006485837 10.9941548316596229   T   T   T
 18.8136085785775435 12.4445348002718994 18.7660495507701661   T   T   T
  6.8269194670010354  2.5288615282866278 18.9583006520757884   T   T   T
 11.2464443085297372 13.3559137940483517  4.8739186979256299   T   T   T
 24.0420270576485606  6.0763097787180920  5.4366972612257101   T   T   T
  2.9361097701050176  2.7144018399142622 11.2637234296374142   T   T   T
 15.4449820431831473  9.5202907532494514 11.0077998218984909   T   T   T
 20.9924004044566175  2.3033905480373500 16.6043084984293081   T   T   T
  7.9495468517358834 12.3578035752867592 16.2426399020185457   T   T   T
 11.3394403944880864  2.9195410761800265  4.9198620739755317   T   T   T
 23.7634774081146105  9.8200199070404572  5.4459606256930000   T   T   T
 -0.0000035223282651  4.0826254404090792 11.3271471871654565   T   T   T
 12.4681818999125937 11.5688076851102188 11.1748978947214024   T   T   T
 17.0458024907598897  2.3825359377889583 17.0840365238461764   T   T   T
  2.9665443599214694 11.0138107118267747 17.3074195763627685   T   T   T
  8.3140940775688232  4.2555133889882573  5.1498321046016295   T   T   T
 20.9436427858269028 11.7607451715383355  5.0181662266200515   T   T   T
  0.0174216687953871  0.8082924278730088 13.8802935654874222   T   T   T
 12.0513331308865563  7.9208712598787621 13.0182881025576815   T   T   T
 16.8424595492549827  0.6999571459951343  1.3489580096267513   T   T   T
  3.4473667797262300  8.0270865677530274  1.3250511975673449   T   T   T
  8.3023513589953453  0.6715882139071150  6.9450030354272325   T   T   T
 20.8634481107307082  8.2437687809437321  7.4989673640613779   T   T   T
 25.7515872472309084  1.5889530805547374  1.0994698334823967   T   T   T
 12.3455549963823525  8.4537265804851955  1.8786109495617278   T   T   T
 16.6868281234461264  0.6001416452230045  7.7756367257617311   T   T   T
  4.0230972647460348  7.9752489487617719  7.7331624358669275   T   T   T
  8.3758146082399101  0.7128835786912096 13.6873513629167949   T   T   T
 20.7500028081486647  7.7608424105184266 13.9557529285236903   T   T   T
 21.9833799114002773  9.3266501721185584 11.2279821998798681   T   T   T
  9.5471199761252628  2.4242816522971089 11.0011862834339667   T   T   T
 13.0671876479880513  7.3910563114882555 16.8998150672916623   T   T   T
  2.2092203022231427  0.1575228115380909 19.2061632717158375   T   T   T