Li P  S  Cl
 1.0000000000000000
    25.1819793006824639    0.0000000000000000    0.0000000000000015
    -0.0000000000000009   14.5388225279766061    0.0000000000000009
     0.0000000000000000    0.0000000000000000   37.2126966544236950
 Li  P   S   Cl 
 288  48 240  48
Selective dynamics
Cartesian
  2.1798047199515866  6.5128936290930746  8.9467509591354162   T   T   T
 11.6846038678817763 14.7294150097650967 10.8181762006847499   T   T   T
 21.6412894024020375  5.4315740761415059 13.3187566186246045   T   T   T
  5.0274993917591617 12.0903615141190457 18.2251848402161443   T   T   T
 13.1474936828872568  3.9014551185111390  4.1156025639672089   T   T   T
 20.7150073035370781  4.2864683839178817 -3.0871513636100643   T   T   T
  0.9773271984551590 -0.9401495415413241 10.7927749225826322   T   T   T
 12.5402607035587170 11.3798096985451913  8.8811432986396870   T   T   T
 16.4427248162198012  5.9775214326655366 17.3909146505804202   T   T   T
  6.2535869086381393 16.4768698991801230 12.8081547522567192   T   T   T
 10.4925436871773279  7.6443873855196065  6.0967982322070844   T   T   T
 28.3396370496267593 16.5878056532497524 -2.9542884004511181   T   T   T
  2.9489801516893670  2.8573514057625680  8.4558679641176333   T   T   T
 16.3331317994186378  5.6173581076777346  9.0778617192380171   T   T   T
 23.3957604510392336  7.7837173303020792 15.0861124573694578   T   T   T
 10.1830200302569036  9.3379807059652489 14.8695585437583251   T   T   T
 16.5146364140540278 -2.3075443265788582  2.8891855692417785   T   T   T
 22.4422147236761802 16.3814193054770953  7.8054947315804277   T   T   T
  0.2875855010446045 -1.7381764020567938  6.4230308893592909   T   T   T
 16.7956301720566223 11.5023071800991872  7.1374947525025592   T   T   T
 19.0260734331000521  3.4146797969722340 11.4216982761731281   T   T   T
  7.4975855988869018 13.2128439074747828 14.4637585812614979   T   T   T
 16.5601344063780438  4.8927739544757225  6.4044870587177121   T   T   T
 32.1401313324637741 -0.8072639990456838 -6.6684980854820823   T   T   T
  0.8380133056993766  5.4950109736192347  5.7886344949189299   T   T   T
 14.8486175713009718 10.2466411515304969  9.8438330021572700   T   T   T
 22.8601039132655366  6.2142009069846278 18.8343695824944213   T   T   T
  1.9127537715539127  8.7073744186783273 17.2075210165368162   T   T   T
  9.7822048279553933  5.5349215773869265  3.0571577217330046   T   T   T
 30.3891058084989503  4.5407295543035078 -3.0580882094957658   T   T   T
  0.0151820358058511  4.4743091777211719  8.4864742309689554   T   T   T
 19.3082293701139243 11.2735336534559583 11.5640311447165001   T   T   T
 18.3776782030458996  6.6019420328726302 12.4192756792246328   T   T   T
  4.9704955993668101 13.5430688947535938 12.7097144605255732   T   T   T
  2.9151051393976628  4.2575797199349035 -0.3681469577419225   T   T   T
 18.8003995494798701 13.8141501234096591 -3.2085583946505172   T   T   T
 21.0578664802310804 13.1388866162134708 14.3075458169973402   T   T   T
 10.3106410963121728  5.8811147949381111 13.8075541698433497   T   T   T
  9.7838550180216011 16.4789569572400580 -4.9671558776025311   T   T   T
  4.5804519112488409  4.2007138917830025  6.7601391213040074   T   T   T
 18.9646346243922146 19.5989658593733509 15.7308255381628523   T   T   T
 17.2831769328592841  3.1527272006358107 14.2427099255652525   T   T   T
 24.4877314075594867 -3.9436752944938656 15.9399710336397167   T   T   T
 10.7047758528611290  7.3289484367274467 19.3144960604582145   T   T   T
  5.7909314390073066 -5.1297017799270490  2.9913907838763083   T   T   T
  0.5072137668584445 10.4152445542998642  8.7049440701512193   T   T   T
  9.2775221641527654 -1.3694281555975671  8.6503926537381552   T   T   T
 23.9313984779834783  8.4122893227780597  2.4856215250891442   T   T   T
 -0.0080385825034161  2.3510721151369265 10.9049382748948851   T   T   T
 13.8555847540171175  5.7924092772877307 14.5400947541170833   T   T   T
 22.4829508373806704 -1.3009372703530961  2.7334803532906982   T   T   T
  4.1184567266273513 10.1833983935716255  8.4459040878013809   T   T   T
  5.3536178940805268  3.9724337532507787 10.5888642793771872   T   T   T
 19.8133148900492451  5.8922879337595626  7.7273338279250829   T   T   T
  0.3318284816852005  5.8888871028640164 14.6935412746729686   T   T   T
 16.8047511435770183  9.6965206786307689 17.4322231694661589   T   T   T
 21.8515865068966058 -1.2771483061098525  8.4615761871786130   T   T   T
  6.4222572553365103  7.1173290360947101  3.5750956269299845   T   T   T
  9.2345244627202998 -0.7410495831352832  0.8361985416817750   T   T   T
 13.8485386873296417  9.6391492806995327  4.8893343116759462   T   T   T
  0.8337966105105645 12.9608834714935330 14.2512329938610076   T   T   T
 15.2777149138458466  2.3124964200149551 18.1418499933296715   T   T   T
 18.2711853609994996 14.7187003919277615  3.1077114949225919   T   T   T
  9.5305484417810575  9.1945995918033905  8.1217414523829827   T   T   T
  7.4750225384381315 15.8453578134672259  5.3298542212746209   T   T   T
 16.8219409489363123 10.8732432336338611 13.5422837022372455   T   T   T
 23.6446947579637694 -0.6204004226644544 12.6153922381105321   T   T   T
 11.8026202513778884  7.1183259169221165 16.2405619924206732   T   T   T
 16.5773279374667055  3.4088810252597335 -2.1136400065487204   T   T   T
 10.6027384234123687 15.6699580001143062  7.6701848642601895   T   T   T
  5.9796676050759725  0.1091514175524648  2.2571830354164910   T   T   T
 21.4079663802356812 10.1632098512688600  7.4691019039892410   T   T   T
  2.9532049553606101 13.1770573717270096  8.2322475536610504   T   T   T
 13.8289512928769742  1.9753378565021202  6.2752683519970942   T   T   T
 20.1790959030771937  8.6406178362341137 24.2009631404710817   T   T   T
  7.9646038380951509  4.2076060313808732 10.7071658273870192   T   T   T
  3.3172913682093306  9.3130012094681511  2.5802097249027804   T   T   T
 20.6259628229537988  7.9307782036575141  0.1462508588221080   T   T   T
  5.2991426517525850 10.3706969777350153 14.1829974930268090   T   T   T
 13.5454030024670740  5.9750989798210377  6.8171633473283579   T   T   T
 18.5883651967516847 12.5128725549776547 15.9825418199089633   T   T   T
 10.7158377329435055  1.0248306916034153 15.4190094252628036   T   T   T
  8.1092779769621703 12.2959317448470031  2.5726748349926027   T   T   T
 24.9657879551049717  3.9458754869109840  0.3905711081579863   T   T   T
  1.2174268856948909 10.4741537556768183  5.2143607645688661   T   T   T
 13.4250254198062464  3.1382272465590213  9.3145863976952494   T   T   T
 19.4604570754940482 18.6560880149110346 19.2635397122423093   T   T   T
 -1.5219824749484780  1.2899883590140797 14.2117934512642297   T   T   T
  9.3483935726438805 11.1640111382637244 -0.4700522252300158   T   T   T
 18.8974695715072265  9.2266742997704867  9.0392869380170264   T   T   T
  3.8013470347254654 11.8010464033657545  5.0436856256074307   T   T   T
 20.8492701521085486  3.0756921018349268 14.3690921592193863   T   T   T
 18.7323330938032875  9.0944957016862826 20.0866148921685337   T   T   T
 10.1654385203095128 12.1797462637734402 16.7895892986690107   T   T   T
  9.9799080329030350 13.6974699276663756 -2.3592417392645539   T   T   T
 25.7073347850731437  2.0573351411283984  6.6548883710331710   T   T   T
  3.3169640373797709 15.0224302813307684 17.9942522146494426   T   T   T
 12.1637907313569116  6.0998947443135805 10.8426516108043476   T   T   T
 14.8585842293181862  8.9872468090380604 21.1258371139082293   T   T   T
  6.1220801501401372  6.4494507888025518 12.8948566896555796   T   T   T
 16.3658705697169964 11.4737060690085837 -0.2414177042890518   T   T   T
 23.6254331017949362  2.2282271848500397 -0.9054097795417727   T   T   T
 -2.7338179725544021  7.4855723649304311  9.2558705446876299   T   T   T
 13.5652917208990438 13.4263913516965641  6.6537630550412183   T   T   T
 19.7299781410210606 14.3912693781006968 20.9879554759573601   T   T   T
  8.4802831171340163  3.0172574894124677 13.5070417430928167   T   T   T
  6.9990538422924677 15.8748460808381306  8.4117579812970895   T   T   T
 21.6215222706471408  8.6108492413693956 -3.0063152219804055   T   T   T
 18.8373621452768383 14.9034824936695554 12.9930814633589478   T   T   T
  7.1767465199490559  9.4716703770732682  6.5353893466318906   T   T   T
 15.6428347958280316 15.2773750741806378 12.3678663866034633   T   T   T
 24.2593600034391237 10.1470404141712081 12.9189208095960897   T   T   T
  0.8368419739399282 15.2267280591822001 -1.6102265222515377   T   T   T
 16.4709916671005878  2.9363331948814264  8.7403997588100459   T   T   T
 14.0703330610216710  8.7436681672766294 14.6172130812812497   T   T   T
  5.7832222441702017 11.8871010380498152 10.6747257187087090   T   T   T
 11.5771381347402862 -5.2705277949350053 12.4653043694858230   T   T   T
 39.2522150140514015 -1.1498541251940306 17.3537719740662446   T   T   T
  3.7051825992488805  2.3128482891736901  2.5776280716474420   T   T   T
 18.2424349375041857  6.1366013985848475 -0.3173026433256547   T   T   T
 19.0551885652849435 -0.0065640038313306  8.4815207028461899   T   T   T
  6.9656643052587137  5.3536126493437015  6.8081201778287905   T   T   T
 12.8135222597938760 -1.7310713440754411 14.5230567694474022   T   T   T
  1.8333798802715870 16.6267110288545368 13.5226706398643728   T   T   T
  3.6636867275350711 -0.9897323951361719  2.4498664570887483   T   T   T
 16.1947671166884959  7.6612397563823746 -1.4497835689342864   T   T   T
 19.8692008169938070 -1.1777220194930675  5.5371826991538002   T   T   T
 14.0655688080912462  8.8849256912807171  7.3922404395333503   T   T   T
 12.0115252208414240  3.9149071182429358 16.6789463543238234   T   T   T
 -0.1018093974810128  7.0967573775776769 11.4672548134539589   T   T   T
 12.7587604649729016  4.2950435740196271 -1.7141428854129031   T   T   T
 17.2634110379082060  6.0714912590972796  2.7501909731046501   T   T   T
 19.4523641332544237  9.2395934987179320 15.0255222613170822   T   T   T
  9.8977238293845993  6.1217476593712217  8.6192598908609810   T   T   T
  8.9211337280810081 11.1858377937037741 12.5170678845186210   T   T   T
 -1.8787396760795085  2.9480941411032755 16.6830894206439027   T   T   T
  7.3557223346478713 12.5116323741739759  6.5634188098715560   T   T   T
 19.6884860679406337  8.1084208470258154  5.5080901885063138   T   T   T
 22.1508790357413403  0.5246387916602709  5.4807078876800066   T   T   T
  6.4496000225373971  7.5085062310761854  8.4459406469584763   T   T   T
 11.6597105286439700  1.0043724691411942 18.5187986703455572   T   T   T
 28.3418552370372474  7.7066932946759463 12.9288309149084792   T   T   T
 -5.3624796012292117  1.9305539033120791  6.1626772839456292   T   T   T
 18.5839645145259773  7.5755390281500787 -2.9872372122864972   T   T   T
  8.9884816661198101 11.0527629282292459 28.6667439219179592   T   T   T
 29.0815837954311931  4.9825867155257031 28.3532197073323218   T   T   T
  2.6259330144430058  8.2965296719741417 22.7177441111092371   T   T   T
 14.8800673773223391  1.3841252198597076 21.5399823380652151   T   T   T
 18.6141705336533079 15.0987124016278642 36.3503475719062124   T   T   T
  1.5523719387426240  7.9136010800454590 34.7954920162668202   T   T   T
  6.1045059024118444 14.9658478278864848 24.0304584277959847   T   T   T
 20.7260982656820687  2.8910115781563497 28.4015771696326986   T   T   T
  8.5113313151293113  9.7401411541382430 18.5739748986767736   T   T   T
 13.2605622980652722 -1.2192184789974796 20.4872558596469432   T   T   T
 12.3858311862176667 11.9218361121008911 37.3771948354976615   T   T   T
  0.6662901103874673  4.7435891324668269 25.7440519483947199   T   T   T
 11.7691291101468867  8.1888125515650128 28.6106917753268171   T   T   T
 25.3342758306672344  2.9178778671326389 29.9303928980696945   T   T   T
 -0.3845745312316130  9.2087774837931669 23.5544495833716745   T   T   T
 11.6253812482380621  3.3428974732643004 22.0534944239974529   T   T   T
 25.5326852924371863 11.3982736923460557 30.1628198561268235   T   T   T
 12.1925022999619461  0.9615954715375550 34.2933345044504279   T   T   T
  6.3388378597131734  5.0497663967117301 22.8597804904885784   T   T   T
 21.3602214207765400  4.4372142400401628 30.5091412243412137   T   T   T
 -2.9883798813346014  6.3641108114034459 25.3575829035649569   T   T   T
 13.5325756056295088  0.2440981716855430 23.4104665614621936   T   T   T
 21.7912012036369909 13.2018885670227881 36.4177581650335895   T   T   T
 13.0764198749486873 -2.5698301767480758 34.6453160111095286   T   T   T
  8.3643958582900648  8.4458180184944336 30.0674500033122882   T   T   T
 17.4755558714834116 -1.2326464288222641 27.4190918213951704   T   T   T
  1.9195005520726671 19.4778807248128629 22.7746401416901385   T   T   T
 15.8116076989874692 -2.7678212801712703 22.4337990048278044   T   T   T
 18.3585963550326241 10.7260845294420619 34.1188244664862594   T   T   T
  9.4248538763102001 -0.7357581128335487 42.1852500299262516   T   T   T
 12.4905599935603817  9.5526189235812122 31.4360519461222516   T   T   T
 21.4901639136680771  1.3907975903459484 31.1426019602833861   T   T   T
  3.9911307241975011 11.9647055041941819 23.1384792513098496   T   T   T
 13.2562955985184967  4.7629046758528073 24.7117890048760742   T   T   T
 14.8552549013220112  9.2045206144576657 38.8231894910105950   T   T   T
  5.5086536984517682 -0.0286965722768486 34.0188192414233583   T   T   T
  8.0540629431767528 -5.9920399184738420 22.8034183474982513   T   T   T
 18.3610824811432352  6.9328169128611696 22.8927610011805633   T   T   T
 28.2175349216530620 -8.1003546913513791 39.9410630200001862   T   T   T
  4.9722781699565459  9.3454979655231796 37.1307171476947246   T   T   T
 13.2210401938943125  2.0043022006858475 25.4308635656983704   T   T   T
  5.7548033724173342  7.6301071252950408 28.6648227104324533   T   T   T
  7.8016693061714708 -7.1621764046958720 26.3210893726025219   T   T   T
 21.8772839214041035 12.4679219842564901 28.1088676851039523   T   T   T
 23.5493045902679263  1.4740079991209187 32.7096576047764387   T   T   T
  7.9107171945181367  7.4905350488685132 37.2048315165672818   T   T   T
 14.3931251764045189 -0.4565402655091853 28.0696046449592558   T   T   T
  0.7805203482367896 12.3020364229068679 24.7655349709018680   T   T   T
  9.7309006903224819 14.7262789829210590 22.7433871630567381   T   T   T
 24.3504816804678761  9.7392597236006999 19.2097832133579693   T   T   T
 -1.1491695092036347 12.0831755998365811 34.9059617284619748   T   T   T
 15.6565425898309556  1.1400946802856013 29.8787876824473209   T   T   T
 18.0292058446673948  8.3809901247727439 28.2795419543670370   T   T   T
  2.5640696693559772  5.2463555570344811 31.6819794885885599   T   T   T
 14.8777340210519000  7.2002640363387638 28.5479553496577694   T   T   T
 19.1128668320653112  4.4395063453792050 24.2007478475157072   T   T   T
  1.0505285424390609 -3.2137775850152326 38.1447230688971075   T   T   T
 15.5767557626414508 15.3532877544377993 33.3194043038815977   T   T   T
 14.6413485594274952 -2.9523874077420187 29.5813978256944239   T   T   T
  6.1396806191743956  6.4216915251224567 31.1771234201769651   T   T   T
  8.2468583139455678 -2.8396928259156833 22.1945149902688179   T   T   T
 18.5335193466806842  0.6130101766284604 24.0538610110178332   T   T   T
 -6.2802645248971647 -2.0465074685124205 38.1517923182548770   T   T   T
 11.7466522552604733 11.6133118877871162 40.4734831113681679   T   T   T
 18.3832099455568354 -0.8509844180046567 30.7106272340322910   T   T   T
 13.3900887318223596  5.7438459692196151 19.7521477747878400   T   T   T
 10.1477319597830640 13.0687681340973239 25.1011339115276400   T   T   T
 24.1430680606448362  4.5848779064312648 22.9025069122288052   T   T   T
 27.7487948503094763 14.7600289813190457 21.2531931091040001   T   T   T
 12.9084299967761620  1.6192433542163069 36.8372438254413908   T   T   T
 12.6420499444099637  8.5393114065062097 35.8825677508441885   T   T   T
  3.4860723052522338 10.2585533219665663 25.8104595331473448   T   T   T
  2.8401497078303284  1.4035990013961717 30.4542710238383911   T   T   T
 23.1082493047844224 13.7148049528719689 21.7268917228519953   T   T   T
  9.6145782262073514  5.5930022329363309 22.3514369299545592   T   T   T
 13.8261648968134221 11.5350288476526170 24.9522521391181478   T   T   T
 21.5274235577770909  5.0016832969687846 39.5000228215171774   T   T   T
  2.3193139787219592 13.7791792180894870 28.5085636207677453   T   T   T
  8.2465847879651442  1.6239496444914645 28.8223600587719524   T   T   T
 31.9403117943177115 11.1314566947475342 24.6074017483985656   T   T   T
 -0.3205077698820789  1.7033171995180414 23.6525738092342763   T   T   T
  7.8295424884429750  4.3535004516821507 25.2376000364979625   T   T   T
  7.7791332254371506  3.9048520659498855 36.5550619349063055   T   T   T
  9.6982113373756373 17.5120282684222488 40.1040943689582434   T   T   T
 12.8681893965384031  3.5589537005787508 30.6128295425906671   T   T   T
 21.5960252703248372  9.3792213201833103 28.4360627039615750   T   T   T
  0.0854461540687038  6.8073122564789550 20.8333636726248805   T   T   T
 16.1520813268477461  3.1490097497402214 24.2472922085319738   T   T   T
 21.1316346014382432  4.0958198517425579 36.6395211473838032   T   T   T
  8.2291751008270939 10.4038767030574473 33.6703879019977137   T   T   T
 15.7247016554508754 -1.9355215879758396 31.7320023945213237   T   T   T
 21.8965546118242216 11.4344994502464150 31.3857936211617492   T   T   T
  1.2121915289107790 -9.0170467607769336 17.8114698154365136   T   T   T
 18.8382384838580137 15.5251167629659879 17.5089633359441557   T   T   T
 23.6543814915011197  2.2228102517227248 39.6651787084306164   T   T   T
  9.2922022725078470  6.6972898383443642 35.1922264345787568   T   T   T
  7.8723694608158059 -0.2114058656304445 26.1503789865204403   T   T   T
 23.8177935603635298  8.9506925242687281 31.5543982536795937   T   T   T
  3.9261048710523259  4.8729537238911673 18.8983641447940620   T   T   T
 20.7339232154611857  6.9517110899658228 21.2833520551657536   T   T   T
 22.8634503357711480  4.7260587742163107 28.4890295132314897   T   T   T
  3.4483820757569772  8.5091357712120939 31.4457958324449187   T   T   T
  9.7178506383094589  4.7910569488756805 31.3584544253063022   T   T   T
 27.2594132665512703  7.9571800194404174 28.9438431882313907   T   T   T
  3.4754079490129843  2.2743678977331467 22.3837496345932898   T   T   T
 16.5482659058173098  9.6277715172843781 24.4984814222042679   T   T   T
 10.6158435477330926 -5.0712386177366202 39.6419019506576404   T   T   T
  5.0142240824907800  6.0577395883569549 37.2661853083546930   T   T   T
  9.8153835483440659  4.3879154197891230 27.8691626853680567   T   T   T
 10.7766500486948864 11.1578635028914945 31.9047943904813884   T   T   T
 22.8061124489020273 -0.4186844790243480 24.6991140417696791   T   T   T
  5.5207595428145497  6.6487909314752924 16.8384718271728175   T   T   T
 11.4665846352698342  1.4672618478549193 28.2705831747391230   T   T   T
 23.5968136126266295  7.8773622054582004 43.3992375326584181   T   T   T
  5.4273578293995133 -2.1522628111623416 28.6658903164318168   T   T   T
 17.0729334765674743  4.7847676228395670 28.4934434210604053   T   T   T
 29.1675315105321538  3.4989859220781905 25.1124647102308032   T   T   T
  5.0311224492897750  3.8827952102365475 14.0455688367959990   T   T   T
 15.1607835015715491  0.0317838877016009 36.5833396112702047   T   T   T
 24.6981335443920607 10.0761915903951191 27.7247142482782216   T   T   T
  2.2733232358220254 10.6977633303224664 20.8601866122468067   T   T   T
 12.3029608811426971 10.5871759173771451 22.3195991058191190   T   T   T
 13.6317162453274765  7.6698874772262107 24.2899176683324178   T   T   T
  6.3278498693631500  2.9333323306950838 18.5554396178483074   T   T   T
 15.5882229539904973  5.5089113505747864 31.3950042955919031   T   T   T
 -2.4613314325913862  6.1095833034909033 36.6520834961463606   T   T   T
  3.3584595413174472 -2.2706738249674920 31.7673204376415015   T   T   T
 15.7293644647672277  8.6357198420011141 31.0296011156670275   T   T   T
 20.4343756767397942 -2.8848428054641353 22.9894001848278577   T   T   T
 11.7982584358338407 -3.7560972718048280 28.2913149658508623   T   T   T
 16.7989029026630661  1.9472176420179061 39.3986382810113298   T   T   T
  1.3721761105122754  1.4694397646569950 37.9657105347652646   T   T   T
  5.0050155403026695  0.9132328639985120 28.8687765358283315   T   T   T
 18.9874873619926525  6.8534436054542089 30.4148176478114003   T   T   T
 25.4683177854851444  0.5686444337189770 18.1665128391850565   T   T   T
 10.5581840233900675  6.4236431457401473 24.7171033878660786   T   T   T
 14.6219722692987801  4.4887648514964535 38.1635788637412077   T   T   T
 -2.8801166910681530 15.1623373602571654 28.4314054122100401   T   T   T
 -1.7812867536015322  5.2728872689115924 34.1022128328461349   T   T   T
 19.5196627519098769  6.5070033116280035 26.2051390965512070   T   T   T
 21.0147016140434140 16.0554642271410017 22.2731268757742633   T   T   T
  1.2282063411180253  1.5599557856361574 26.5140492965962622   T   T   T
  6.2470673484336601  8.0455695554659226 34.3673957985196665   T   T   T
 26.5161480662525726  4.6761683680464978 34.7349215178455353   T   T   T
 -0.8494441785768011 -0.4870248422315569  0.7692928005854511   T   T   T
 11.7093953521205414  6.9099019473935117  0.8395070129396259   T   T   T
 16.7235458637472370  0.5935404961626884  5.3623531260444315   T   T   T
  4.2022275199517818  7.6059620558967644  5.8002967464292130   T   T   T
  8.8771017793697542  0.5834666948425890 11.6977789086105979   T   T   T
 21.4547774864966172  8.0989118399577205 11.8195947156476553   T   T   T
 23.1695568373884591 11.4456306693129601  5.3716820713954565   T   T   T
 10.1550215114390898  3.8584567904849636  5.9454705794736080   T   T   T
 14.1064611025831237 11.9103952162894835 11.8586197333228736   T   T   T
  2.6072741347460715  4.6336430780893263 11.5257629260341705   T   T   T
  6.1093837087862815 11.6764178478236271 -0.3092050702795518   T   T   T
 18.2059273401410486  3.2947612646417954  0.6217603692120929   T   T   T
  4.1226262012944339  0.5144228308772038  5.3757630262120593   T   T   T
 16.6708139379992097  8.1399582444236636  6.3195855758833863   T   T   T
 21.1876222308926430  0.3609282013546818 11.2590776410534303   T   T   T
  8.7835975851871542  7.6524399105390648 11.4041453506803219   T   T   T
 10.8393088015721002  4.8419573056058489  0.2637044615751717   T   T   T
 -0.0076350804958027  8.2182805781440535 -0.0061501481714281   T   T   T
 22.6344182749343936  4.2852743434479486  6.0805649094279515   T   T   T
 10.6343165108419697 11.4256666985389899  5.7860565715850996   T   T   T
 15.1229267221825499  4.1085946935961370 12.0939476033959608   T   T   T
  2.3621543269282279 10.9989597650851838 11.7727103955826511   T   T   T
  5.2333672814662311  2.1993966955740687  0.4779485053949891   T   T   T
 18.3381476335556179  8.6886158075378450  0.8198537230625069   T   T   T
  7.2262390510963144 -0.0646041021179952 18.0260620695442846   T   T   T
 19.1021870341892495  6.9993231965174258 17.9323500333073866   T   T   T
 24.7225682208537769 -0.6996821020319087 31.5901872727014954   T   T   T
 12.7747462292041600  6.5121990663997522 32.0607532162125466   T   T   T
 15.8803099696090033 -0.3968695952437166 24.7570896054520020   T   T   T
  4.3182264868596985  6.6855903395307399 25.5079425611942625   T   T   T
  5.9347862703030190  2.6588161050744810 31.4683033849322484   T   T   T
 18.9677454310382885 10.3841179273452298 31.2488991615726341   T   T   T
 22.4697194686987025  2.6560003612784033 25.4841000171115084   T   T   T
 10.3908948639249967 10.1084618058117375 25.4658481897649267   T   T   T
 14.0775297519970941  8.0614786565495091 18.2589958533392291   T   T   T
  1.7651995363957131 12.1595796983866400 17.7705405229271634   T   T   T
 12.4957503957672795 -0.7938312185366483 31.3033635972511419   T   T   T
 24.9571200970333322  6.1544232435279911 31.8064277562765554   T   T   T
  3.7348135713144539 -0.7148151961536925 25.4119964745426259   T   T   T
 16.3536919929201012  6.3892396619309366 25.2741147645463613   T   T   T
 21.7225220750355099  0.4989231429550542 18.7263133999163252   T   T   T
  8.0541816734497562  6.1364543827168028 19.3106206811911107   T   T   T
  6.0059869742937551 10.2557421292317255 31.4640110079994599   T   T   T
 18.3940684294823740  2.8556675775154536 31.2312414782976369   T   T   T
 22.8646316354125538 10.2827770397679252 25.3272210457175504   T   T   T
 10.2227309260078325  2.6154211263706064 25.2032934726375935   T   T   T
 16.1924167908176031 12.3917425322304755 19.1718074114960650   T   T   T
  3.5202756202297767  7.1669779102483160 20.0787463768897467   T   T   T
  4.4910308636619751  0.4535080418505851  7.3646894575593942   T   T   T
 16.8940656895846182  8.0577049523430908  8.4344549081210403   T   T   T
 21.4328010699339728  0.7031433913459021 13.3051842255156387   T   T   T
  8.5648186534762498  8.0141932628868275 13.4274342442711987   T   T   T
 12.0556110197365474  3.1735062829663145  1.1395297130877100   T   T   T
  0.9252938177299317  7.8715922987306683  1.8521341588719917   T   T   T
 21.6256257815946213 -1.6094437156956016 10.9729949366245894   T   T   T
  9.8108900950372355  9.2851925109874109 10.6287776571705059   T   T   T
 16.0934349971828432  7.8854140833920479 18.9759208166940176   T   T   T
 -0.2084902712722776 11.7265371806123433 18.2545266191236095   T   T   T
  5.1294876572774095  2.2298784602483606  4.7837738586387442   T   T   T
 17.1316179501417594  9.8483844901308135  5.4647814369924861   T   T   T
 21.8086855410060529  6.1420924024818877 11.0569124270073758   T   T   T
  9.7731980359935342 13.4073271037405650 10.9975910590535655   T   T   T
 13.6527337067778181  5.9974402218595566 17.1556041632376797   T   T   T
  1.5601050933700358 13.8360029058220295 16.5114541069720033   T   T   T
  5.0359642473844479  5.8413985142959053  4.9942052735004889   T   T   T
 17.5048439781075977 13.2437651711929512  4.8766559422079299   T   T   T
  6.9670082290796795  1.0571926620446845 10.7637822176072397   T   T   T
 19.3335805949455910  8.6267569136943667 11.3476053949868891   T   T   T
 27.8508111150925473  2.7699404967970973 17.8838439689724318   T   T   T
 10.6518881866811430 11.2935027439002447 20.2412676935836764   T   T   T
 14.7266167767386431  0.6605163948100848  4.6109989800155011   T   T   T
  2.4506940996788988  7.5595271869656981  4.7534530782645588   T   T   T
  2.1873434788064423  4.2748377222055742  7.1870388296613852   T   T   T
 14.1532388504098403 11.1094060130901298  7.3558980944264905   T   T   T
 19.3153913053436561  4.5273362443636396 13.5056310222911780   T   T   T
  6.4653489537919810 11.9147661507366571 12.6739234755572312   T   T   T
  9.0236804216141948  4.3614051568300898  1.2503881795442029   T   T   T
 23.5246520824699772 12.1051775551680656  0.6524045983788125   T   T   T
 22.8044267134993781  4.2247478275912957  8.1905266505411571   T   T   T
 10.5397784855640406 11.2545644850818292  7.8756147626659567   T   T   T
 15.1986243826388119  3.9306128815286927 14.2408349347645871   T   T   T
  2.3859692489914397 11.1582722704298813 13.8657478454795449   T   T   T
  4.4633502560106235  3.9771106863963293  1.2133974261236948   T   T   T
 17.6289376352300096 10.2830150459284582  1.9146672045475068   T   T   T
  3.2929989429761766 12.5882669399774656 10.8043937484748263   T   T   T
 16.3266745781621658  2.6897186523873371 11.2553445082059262   T   T   T
 21.7084593922824638 13.1758456154921806 19.5475610710036314   T   T   T
  7.6794627936978070  4.3226772706997947 16.7486746367409118   T   T   T
 11.7115236574032267 12.9876941884926769  5.1235421571571704   T   T   T
 23.7841133747718771  5.6985227999128698  4.9311623641566262   T   T   T
  3.2081038684966394  2.7966310451994367 10.8259773887794744   T   T   T
 12.8002107443522544 10.6653970663231430 10.9288240616245105   T   T   T
 21.1438982323966513  0.5604700358406762 16.6025113172784380   T   T   T
  8.4276994709401158  7.9184936907689085 20.4148460587111558   T   T   T
 11.4896032151459817  2.4708365886716241  5.5038467877083290   T   T   T
 24.0526838553562392  9.6598769840518983  4.7897101921247085   T   T   T
  0.4460237564481787  4.8609173841446323 10.9964422361203962   T   T   T
 13.4922033142525066 13.9114181653192031 12.1450063594088533   T   T   T
 16.8552598448347837  3.9278577233305412 16.5337107044515648   T   T   T
  7.2723975777634076 11.2275559835659049 17.6229177412562805   T   T   T
  8.4070037623066458  3.7233309170016997  4.9776419385711694   T   T   T
 21.1106302663352920 11.2169510416240481  4.8633200052657894   T   T   T
  0.5483583210433614  0.2700416842969363 12.9523863345654089   T   T   T
 12.1268787033254668  7.3976668814067015 13.8313411315273029   T   T   T
 16.7860783790261650 -0.6324136118277052  1.1065651026135996   T   T   T
  4.9763324700786713  7.6919667569682488  1.8942648181455397   T   T   T
  8.5686194354032743  0.0230333352684544  6.9556273969752747   T   T   T
 21.0439544226776114  7.9056692051667623  7.3237703458440295   T   T   T
 26.3911302499061620 -0.6441264083081724  0.6403257677249443   T   T   T
 10.4466815662926340  8.0350921459366145 -0.2896076459299698   T   T   T
 16.9492015814106765  0.9643374862036590  7.3797628079238580   T   T   T
  4.1559872173353485  7.5323675155806109  7.7611458524348560   T   T   T
  8.6744933663941008  0.4262655217677221 13.7882827528679055   T   T   T
 21.5637284054029621  7.7010064505021072 13.9724550264918683   T   T   T
 22.7150199875384224  9.4472114622646313 11.1182659313344523   T   T   T
 10.0815534116167793  2.2440578491251335 11.1311805274360704   T   T   T
 10.6050529625559111  9.2982651716574338 17.1686674012229048   T   T   T
  1.8908033218719766  1.9971261231135755 19.6652800680122972   T   T   T