Li P  S  Cl
 1.0000000000000000
    20.5609999999999999    0.0000000000000000    0.0000000000000013
     0.0000000000000033   20.5609999999999999    0.0000000000000013
     0.0000000000000000    0.0000000000000000   20.5609999999999999
 Li  P   S   Cl 
 191  32 160  32
Selective dynamics
Cartesian
  1.8885478182947735  1.1418415658006151  0.7420238115648928   T   T   T
  0.6257658949473839  5.8689833834187644  7.3478818081161190   T   T   T
  5.9564010421473723  8.7952671804621527  2.6280312266332997   T   T   T
  5.3677493581160478  2.2081480327340057  7.0813764657677227   T   T   T
  1.1222530689277885  7.7964701418665561  9.7224776600528493   T   T   T
  3.0380351045911169  4.0237826975441315  0.5688104884653383   T   T   T
  7.1847582610576728  5.0747093064646691  7.3098680651300345   T   T   T
  8.7909162524052249  9.0006642265135124  0.5792486822217200   T   T   T
  9.6602008910476531  2.7603100923521704  5.6463405852196704   T   T   T
  6.9450832630997592  6.1643807336116554  1.0750286959623496   T   T   T
  5.0001596889786883  3.1534855529332502  2.3695812967220049   T   T   T
  6.1113723077128839  7.3442458136090858 11.0192502149008167   T   T   T
 12.1786418837991679  4.7852285187410475  3.1941041983761109   T   T   T
  7.3892856181793931  0.2579043134984106  6.6865962079508519   T   T   T
  2.9076673147567651  0.2842569480220397  3.7313043601302311   T   T   T
  4.9337182725069724  8.8430912970826210  7.3680786122277340   T   T   T
  9.4778915160967916  2.1545350344390690  9.0539563593275432   T   T   T
 10.2118090838458091  7.3730423062795074  2.8735480031008311   T   T   T
  2.3123510702878383  6.8677820397711100  5.6800053419808894   T   T   T
  2.8704432413351424  4.2829401335823629  3.9580685031942715   T   T   T
  0.2913719591684892  2.3429155987308059  2.9273815122926159   T   T   T
  3.5017092426562328  5.6066639904767408  8.4710111789580385   T   T   T
  6.7533405110401477  2.4875511328307658  4.8161408579986196   T   T   T
  7.7323390471755831  9.2659176613518710  4.6264324480673507   T   T   T
  1.5800264040946508  3.1456244933812543 14.7038458364287621   T   T   T
  3.5898222001397491  6.9411884743972312 19.8427683089380480   T   T   T
  8.3479897659325513  9.8675025185754439 12.3549942428835031   T   T   T
 10.0718055220492673  2.5904916703197567 17.4435116603322662   T   T   T
  2.3805299646653086  7.0324846013551765 15.9210371948174707   T   T   T
  2.3974067722725492  2.3407680511817111 10.5159962015358879   T   T   T
  5.3276607070813613  2.0038769042076763 17.6017896272106995   T   T   T
  8.9582208874251652  7.9073709401886898 10.7214188115449254   T   T   T
  9.0287594709363326  1.7168620400651524 20.2133674409313677   T   T   T
  8.0574083588537739  3.0862431491160986 15.2844404392996172   T   T   T
  4.9090583564411219  1.9398625398595326 14.0258641473776162   T   T   T
  1.9705976830266823  5.2029103123894789 18.0225865690755498   T   T   T
  5.1651904427844020  8.8382235543578656 13.8726758033497219   T   T   T
  7.6645673900482993  5.0560925276342177 18.4984988338231844   T   T   T
  5.3548633285013878  2.8300810232705165 11.1220331954446383   T   T   T
  4.6802670333569099  8.1349064821706722 17.5132258257931319   T   T   T
  6.7530395118633981 -1.6575258880802870 15.0945725924720762   T   T   T
  8.1750669011716113  9.0154214318199131 14.8527304949803032   T   T   T
  2.2549178415220421 10.0967870049955728 19.0997951602926435   T   T   T
  3.2266793812273247  0.1964018577115470 12.9141447605992603   T   T   T
  3.4962156235283963  4.6918106315329293 12.2112980947186927   T   T   T
  0.0660707923362397  8.1040389377171600 18.9143620779056967   T   T   T
  7.8485717847624565  0.4094497271145105 17.9644911237659848   T   T   T
  8.2556199246212110  5.7212070893508979 13.1619038823404075   T   T   T
  1.2694175704549600 16.5289880433372574  3.6527895530841414   T   T   T
  0.7039321323212936 18.4557120077449355  6.6911499816528686   T   T   T
  7.2933554524552440 19.9923952630744637  2.8559371916748688   T   T   T
  5.4602584290383716 12.5280575395232301  7.7643640401463658   T   T   T
  2.1075557048954989 20.7411704675689634  8.5084922532937348   T   T   T
  0.1655340780611424 12.0649185146032298  2.3675333656866258   T   T   T
  8.6050659367842215 13.3067352781895423  5.2973358123114007   T   T   T
 10.0993055723587037 18.4333177932676691  1.4548819401088793   T   T   T
  7.4857340933381931 15.2475635258818105  7.8491111369838942   T   T   T
  5.2552653376523057 17.5183818181279563  2.3735052044789038   T   T   T
  5.0215608901053219 12.4450234924486089  3.0374005978808500   T   T   T
  1.6640109978698909 18.3590876402642067  9.6933834102453424   T   T   T
  7.9738797763267764 17.0448842698364444  4.4793075914607705   T   T   T
  7.3219372265123575 10.7698162511661533  7.1654231704599471   T   T   T
  3.2388625879902051 13.8474607446100393  0.4507947461659686   T   T   T
  4.8908730448672895 17.0983785302585929  8.5764565984378365   T   T   T
  9.7592402620297491 12.1122004301530986  8.2866526604169639   T   T   T
  7.5563986615706691 18.0691613078091891 -0.4135151612244582   T   T   T
  4.3306454343612106 19.3009074599128283  6.5013055297071656   T   T   T
  2.2364892635993829 10.3547977724116773  1.8876304031148754   T   T   T
  1.5126158809870627 15.5902359171635219 -3.1464920898914990   T   T   T
  1.8444558882224522 15.9541462969385108  7.5736428395434148   T   T   T
  7.1630978875367690 13.6005169934399355 10.5813646064630653   T   T   T
  7.1999350134237767 15.4102693846851420  1.3356984086373924   T   T   T
  2.6584546065115222 10.4683270636558650 15.0518829265781129   T   T   T
 -0.1521574184423435 19.0424993950805614 19.0880950973506529   T   T   T
  5.2530247250860471 17.5841918962871731 12.1083547898705994   T   T   T
  7.2507017323866423 12.5926763044548213 15.7737316547660900   T   T   T
  3.0910950318347399 20.1943798831215418 18.2390938067388717   T   T   T
  2.2064196379042804 11.0893674623585543 11.1409552906232001   T   T   T
 10.0368284849249410 13.8448543760683869 17.1854862560076924   T   T   T
  2.5126051583617333 17.1935349791566807 20.4762462352605361   T   T   T
  8.5910108584248963 12.3837946097133393 20.4242464846089078   T   T   T
  8.1780884580495865 16.6753028906583012 14.7195683696202870   T   T   T
 -0.1612862628353004 13.3009476615708646 13.8403986429390482   T   T   T
 -2.3776499837709695 18.4868739531040376 10.7688610916699883   T   T   T
  7.8993232494748513 20.0332782214790655 12.1088762305768931   T   T   T
  5.2375339987287548 13.6519818774015764 18.6408532250406580   T   T   T
  2.1097593053460901 14.4887105183721712 12.6096893899475813   T   T   T
  4.3919942706680946 17.8198065626020536 18.0384534550642215   T   T   T
  4.7160507600167234 12.4681037129928001 13.1974185586409192   T   T   T
  2.4076997615257860 18.9240224653772060 15.8157577520280732   T   T   T
  2.0963034087668109  9.9944580191033729  7.5685998478464596   T   T   T
  2.1152252043254491 13.2325081820569395 15.4143485957564650   T   T   T
 10.1564332989667161 17.9364100278107159 12.3786190454531368   T   T   T
  7.4148112624920852 15.3287479844961805 17.5429119123823902   T   T   T
  7.7971281383549593 17.2139767807703805 10.3306387581952475   T   T   T
  7.8884255499323572  5.7910558035790975  4.3570274782381135   T   T   T
 15.2217581648911668  7.6145804573818632  6.7957674908133194   T   T   T
 18.4598058968575316  5.3809002007383633  2.5238176955522902   T   T   T
 18.5635171235188388  0.3047848160020614  8.1304030076458087   T   T   T
 11.1531789579887217  7.6004768632500284  6.6964106096253353   T   T   T
 13.1861331991061927  3.0342835304507223  0.3703371052258743   T   T   T
 20.3017976312421489  3.1027447282919058  7.5391014568571446   T   T   T
 15.8644587899545879  7.5606840880671928  2.3859053841597699   T   T   T
 15.6350119109834917  2.3008331321228623  7.4115762515771451   T   T   T
 20.6235592505106951  7.6602096632263752  2.5140645264467039   T   T   T
 14.9013867459117435  3.7735616137117187  2.7049598933543413   T   T   T
 12.1229834724412537  9.4084386381039788  9.1640170697606766   T   T   T
 18.4341304840781497  9.3844950209277815  1.1368601867528292   T   T   T
 17.2848456599278393  3.2698747595837738 10.3212575477139872   T   T   T
 10.4451344171257965  2.7932547902891400  2.5209794229384164   T   T   T
 12.5821577378586973  5.7984301945655110  9.2572469128239625   T   T   T
 17.6943333360474568  2.2616077014234230  5.6175836953096914   T   T   T
 17.4989927628511914  9.4124810012170101  4.3884309904337337   T   T   T
 13.3571159935919876  9.7493882498234523  6.3758595537254807   T   T   T
 13.2927183383571812  1.6203879326905426  4.4723581174820248   T   T   T
 12.3610263757884145  0.5219980046739847  1.0640707315578972   T   T   T
 15.0060237663657912  7.7230273404259453  9.4064153792152307   T   T   T
 17.6419744566910239  5.1698562779228663  8.3149402144136051   T   T   T
 19.0535663573965941  6.5518808357163536  5.1433698264493968   T   T   T
 11.1783828633088174  1.1796466412661135 12.8315105322898315   T   T   T
 14.8311406332143534  7.7903916075144579 19.1939932547623044   T   T   T
 17.3459997887548099  8.1146021196510159 14.9580927611207599   T   T   T
 20.2328389356010767  3.5207473704422676 17.5501881017572749   T   T   T
 15.3851634282954901  3.0278563288198539 18.9014910388725816   T   T   T
 13.9017626905135003  0.5410491486427343 13.7946132443209795   T   T   T
 17.6398540292248107  0.4708868806619954 17.6467386136000819   T   T   T
 20.6873856082123559 10.2943092583782754 13.0473921507337849   T   T   T
 17.5749026240522497  4.9860078273334674 19.1435262338728975   T   T   T
 20.5731281215839772  5.4386202390703566 13.1130843531753261   T   T   T
 12.6491599780947457  2.4333043171628246 10.3140075580244321   T   T   T
 10.9827127856211977  7.7024100942179947 17.7169407699914707   T   T   T
 16.7140810282075734  6.2436512265720072 12.9721481342836196   T   T   T
 18.3830100886633190  3.9835710064059540 15.4555089657364935   T   T   T
 10.8794375391343436  4.5468750530149933 12.7152580846625956   T   T   T
 12.6941408050484554  5.9559492209884706 18.9139282208367447   T   T   T
 16.3897574563371151  2.7782397469478504 16.1063863540746013   T   T   T
 18.3084602834721615  8.3546610041347584 10.5116711633981144   T   T   T
 13.9522314386291999  8.3875890119239465 15.5608884864469719   T   T   T
 15.0319254457372402  3.2849139115061794 12.3492278162558176   T   T   T
 12.5212285142411783  3.9557223246290190 15.1824297259163572   T   T   T
 12.2943433215093449  9.6872930378627355 19.3035884271512721   T   T   T
 18.3128931316797363  2.3907712491921043 19.9413777956080835   T   T   T
 17.6150884514040662 10.0208755699773810 13.3218222399153188   T   T   T
 15.1059510123173961 11.6538416636204332  3.9021804277419760   T   T   T
 12.4682496246650505 19.5561679326842750  9.1066405756139535   T   T   T
 17.9104156167451727 17.6197866615723981  4.9967840006235091   T   T   T
 19.8546749186967091 12.9681978249024379  7.9652050727985069   T   T   T
 12.1894824118017819 15.6100164302296847  6.2882238946056948   T   T   T
 14.6676705843108159 14.4708456231059195  1.9336195916156809   T   T   T
 22.9725419002894107 14.3049134582220496  4.7004963354058180   T   T   T
 15.8777841417876822 19.9287050115343405  3.1022002072128045   T   T   T
 17.6707730630890829 14.7031005225578522  6.2377037746796846   T   T   T
 17.3155731924764069 18.1962134249878744  0.3738439868535927   T   T   T
 11.5007389999777825 11.0241497924059733  2.6942865817945063   T   T   T
 10.4185716391445489 18.0268087011011744  7.5089769679967961   T   T   T
 17.5622542816110148 16.0865502218732104  1.6160310604787946   T   T   T
 17.7511879554866674 10.6536853264120186  6.9401109648853216   T   T   T
 13.0364759774459760 12.4848336328679270  0.6306580841114440   T   T   T
 13.6230280013046379 15.8250455234911378  8.4691278372946748   T   T   T
 15.2662646384988197 12.5999149078634805  7.5149224901453229   T   T   T
 19.8741917754043023 19.0896251792436900  2.3298980982630684   T   T   T
 14.9540700914169484 19.0929610512904233  7.4373440292177797   T   T   T
 11.6790269817448866 15.1510237796863798  2.9057738327650431   T   T   T
 11.3032689169221285 12.8406134766466131  4.5955959723810027   T   T   T
 13.0561110770258662 18.2461008324890415  4.8439875645201171   T   T   T
 17.3144522094223596 15.0589747647343852  9.4332894514098147   T   T   T
 12.3186843195972706 20.2710932583034946 -2.0276220804445826   T   T   T
 13.2509316345388193 12.3479911958963626 15.3289825578051033   T   T   T
 14.5994101476058749 19.2242726858165085 17.4440823985108899   T   T   T
 18.6325395734531511 16.0152040542303880 13.6717047984962985   T   T   T
 17.4783898582189288 10.5943606513981532 18.0311982821031158   T   T   T
  6.6591872151607747 10.6940985668503323 17.7625467371593331   T   T   T
 14.5955322497143314 14.5622783862537162 12.8527354613190763   T   T   T
 17.6141815848747285 12.3470281509832738 20.8776372645304527   T   T   T
 18.5259411639474543 11.9376732442817204 10.0580105324611360   T   T   T
 15.7569785276555372 13.5522282704049832 18.5173141233077523   T   T   T
 19.8567950487009952 20.3142615611566342 12.5794242084580734   T   T   T
 11.0310584937033624 11.2964095415460797 12.5004428279010771   T   T   T
 18.0278516596971947 18.5936437284274447 15.3584102845957826   T   T   T
 17.1505301032549049 20.8439801912133404 13.5716938566330789   T   T   T
 19.0040204709369149 14.7450551346502827 18.6074102116320574   T   T   T
 14.7102663805116567 11.2467246336053837 13.0934379366783489   T   T   T
 12.3912288548608398 17.1716363400494956 15.7864044614842687   T   T   T
 17.9206919824033584 12.9528473497331884 15.8197603363353689   T   T   T
 20.2340515892686454 12.3489549531661478 19.3009648185271274   T   T   T
 10.3879877175561539 17.5820113034422789 17.6129398751090704   T   T   T
 10.8325013715159084 14.4594692462554129 13.2136022986448332   T   T   T
 13.4617657931757293 13.2774462822975199  9.7164978458277442   T   T   T
 13.6630691267493063 15.8687591957835625 18.4151133549711830   T   T   T
 14.1622369884380674 17.9489347946159654 20.3886023961591540   T   T   T
 15.7663877567236064 17.9261394593872936 12.2186517197321436   T   T   T
 -0.1764664728372372 -0.1154481042057640  5.1975529396275135   T   T   T
  5.1039218221834455  0.1795233200940703  0.0450499828565867   T   T   T
  0.0836727575435538  5.0111818773740859  0.1210266401958627   T   T   T
  5.0307073002246909  5.5868534216544763  5.0180021331300653   T   T   T
 -0.1507668687437464  0.2442417162571894 15.4802643760241310   T   T   T
  5.2023847001582375 -0.0671641065738684  9.8655025010320667   T   T   T
  0.1376089357908634  5.0891222440694479 10.5918429217836234   T   T   T
  5.1945730358046776  5.2498957135826121 15.2022559696939297   T   T   T
 -0.3791849595516590 10.1532925310380335  5.2917473544972378   T   T   T
  5.1217429711956175 10.2803149821368720  0.1237757596185274   T   T   T
 -0.2697290842642939 15.7100432009499524  0.1558953203179444   T   T   T
  4.9690884989687545 15.2608242092529220  5.2770502698354109   T   T   T
 -0.1690299358416671 10.4700146694821239 16.0792614367522155   T   T   T
  5.3895115714187227 10.4809447975307446 10.6628562842249188   T   T   T
 -0.1581368554860848 15.3011832633863971 10.5240982046396674   T   T   T
  5.0592215523563011 15.4060237175783090 15.2032822509340964   T   T   T
 10.0574749614786203 -0.2929881316889089  4.8134771370230434   T   T   T
 15.1382262394781346  0.1858208589750264 -0.1425181854952353   T   T   T
 10.1305046919950570  5.0686676259040571  0.0973092563621274   T   T   T
 15.7312280510321436  4.9803547125849255  5.1472715065268515   T   T   T
 10.0824709461607931 -0.1211783274614208 15.1804267297080511   T   T   T
 15.3295213770077687  0.2102704399275097 10.3779513221249839   T   T   T
  9.9591429085747158  4.8864719481347851  9.9242302740919754   T   T   T
 15.5857014388239037  5.1904279179165602 15.3070883752319062   T   T   T
 10.2652828139620151 10.0177553158037078  5.5269932216268387   T   T   T
 15.3703666770477465 10.0851405101566254  0.3398847646636565   T   T   T
 10.5455861611935653 15.4548814050383623 -0.0798322609443025   T   T   T
 15.1440967857529092 15.1170111756912036  5.1248635622049594   T   T   T
 10.3765856030475678 10.6332062370725300 15.7441968178563432   T   T   T
 15.4173269490767471 10.2189773512533293 10.2043689265772599   T   T   T
 10.7672743869512768 15.3492535685894698 10.2378944532925154   T   T   T
 15.4603647033108693 15.7989220706469258 15.6843652935598730   T   T   T
  0.8538992322855858  1.3210681847271093  6.4046642788002703   T   T   T
  0.9792053367501548  9.3279526783838271  4.1506538247235447   T   T   T
  9.0582677380267533  9.1211559156228752  6.8003532890548906   T   T   T
  8.8559864451679680  0.9233529424805439  3.4659107843428609   T   T   T
  6.2942829086729466  0.9925641842614611  1.5271450246832519   T   T   T
  4.1094070686105981  1.4839311928782262  8.9104283447136368   T   T   T
  6.3382622294085218  9.1550506337728557  9.4894191493369018   T   T   T
  3.7915717297332097  8.9361275101187712  0.8901305791575543   T   T   T
  1.3650046646534926  6.3154070829440725  1.1818125417926260   T   T   T
  8.7152851600961032  3.7450719314629235  1.1034796656873713   T   T   T
  8.7257557923241986  6.1927015821742559  8.8931877835199895   T   T   T
  1.0720041714410551  3.9964983780722854  9.1228358511172782   T   T   T
  6.2197147919625939  6.7978506077990790  6.0929101765268339   T   T   T
  6.3898667958852178  4.4390332776906689  3.7190234524515482   T   T   T
  4.0353378752281230  4.1928066850636521  6.0815659343550283   T   T   T
  3.8723896642758326  6.4542919219762895  3.8060340109382498   T   T   T
  2.7615439757710618  2.4084103020357395  2.6182122039689211   T   T   T
  2.5683116315700905  7.7403091067764560  7.8541098879767741   T   T   T
  8.0268931690613314  7.7230503174822873  2.4558030860464917   T   T   T
  7.6926397903916355  2.5186498894048590  7.1988021154304684   T   T   T
  1.3365719677514680  1.5500837037052679 16.5496741337427089   T   T   T
  0.9509761003464997  9.1359814634386467 14.9329487396116996   T   T   T
  9.3124563825494242  9.5001457705018915 16.9947771804344967   T   T   T
  8.9036730499453540  1.1498963980249548 13.9381780620190625   T   T   T
  6.6990273748866631  1.0719108236530681 10.8204465191205177   T   T   T
  4.0432573933954279  1.6034410297418096 19.6205820393078092   T   T   T
  6.5777134847520156  9.0041853899984456 19.7187444114385855   T   T   T
  4.1426306283507754  9.2149924222648067 11.6638461140417657   T   T   T
  1.4177799524145878  6.3079101020115154 11.5378796639262227   T   T   T
  8.9731716549203675  3.7540196034226900 11.3090558452281567   T   T   T
  9.1356062522920070  6.5430414534731396 19.6904008113274820   T   T   T
  1.3214675576682435  3.6590386162435879 19.6169074789069029   T   T   T
  6.2745633196369193  6.8740449784495592 16.0650558649483592   T   T   T
  6.4407916400291541  3.8537027240090835 14.0041905563249749   T   T   T
  3.9058739044435389  3.9649052476314246 16.3840319580615059   T   T   T
  3.9244926651878420  6.2478123327874622 14.0658410447158673   T   T   T
  3.1068753911268705  2.5976884157472870 12.7630230315865969   T   T   T
  2.4128897731761509  7.7430399305169599 18.1492728260236440   T   T   T
  7.5815754886653224  7.9825307364619720 12.7452121228676543   T   T   T
  7.8899451721995595  2.5771783437931073 17.7625183429419273   T   T   T
  0.5961755070999732 11.4194716780379135  6.5709286187493205   T   T   T
  0.9889304575551572 19.2478913746519567  4.2857257029309723   T   T   T
  8.6559662753033582 19.1465256200477469  5.7648158919943748   T   T   T
  9.4958717235021908 11.3631512409673103  4.0529245904157465   T   T   T
  6.2185305205629824 11.1635820037480471  1.5324842153578653   T   T   T
  4.1237879961413784 11.4679408723434584  9.2348274335529759   T   T   T
  6.3698383462956265 19.1902481186505796  8.8794854227991262   T   T   T
  3.7176181789331233 19.3762543562788423  0.6573244949992076   T   T   T
  0.9594398669103245 16.7709652768576092  1.3693553306450081   T   T   T
  9.4727099903049048 14.3360355372444310  1.3252784539247977   T   T   T
  9.3228350735957477 16.6935802262396109  8.8262251591529015   T   T   T
  1.0353352718340443 14.1506862840974179  9.1690885874981731   T   T   T
  5.9528828023834608 16.6818107130126592  6.2754864109543496   T   T   T
  6.4720294164272056 14.3112677363951093  4.3063212204444232   T   T   T
  3.8370300191120017 14.3421455321267306  6.7237788306797919   T   T   T
  3.6135628639674793 16.1977824691703347  3.8735062703014012   T   T   T
  2.6260360943443275 12.4397182047300863  2.1992053862618914   T   T   T
  2.6667501237062736 18.1317868651626313  7.4868300879344831   T   T   T
  7.3609580355671547 17.6754386036977778  1.8612633403410004   T   T   T
  7.6330561861832535 12.9939051395010985  7.6615652383232504   T   T   T
  1.1916069014238850 11.7826373598102148 16.9148982658279792   T   T   T
  0.7002546403360403 19.5760134927708478 14.3715948807528804   T   T   T
  8.8681644521195899 19.2812381607483161 16.4073338836138909   T   T   T
  8.8315884711623109 11.2903851340408377 14.4742163969872948   T   T   T
  6.4475050609596805 11.6968002661150052 11.8780108312435413   T   T   T
  4.1718567795419226 11.5254437589181311 19.3388648011999145   T   T   T
  6.2839806941836764 19.7904198268452163 19.1404126458993105   T   T   T
  3.8816563336575300 19.4236383582070431 10.9498612100769854   T   T   T
  0.7541510560528600 16.4456529422644735 11.7766097117156381   T   T   T
  9.3355180033908756 14.2181535954463776 11.1355616907343844   T   T   T
  9.2747323313385994 16.5947783774962545 19.1356593167854143   T   T   T
  1.0146110311111847 14.4972316752444002 19.5852103407187030   T   T   T
  6.2524054300547620 16.8253596836675570 16.2256792663171332   T   T   T
  6.4538922287199929 14.3683276178222119 14.0382350822244586   T   T   T
  3.8558699699406511 14.6814730119115335 16.6151193865482121   T   T   T
  3.5684604439757659 16.2288722115040258 14.0325408518375347   T   T   T
  2.1139903771529420 12.3887953818120646 13.3195331599495113   T   T   T
  1.8994514677897578 18.0452447117332682 17.9222794863092432   T   T   T
  7.5692335153273644 17.6878059495010689 12.7720055620035708   T   T   T
  7.3989668739623937 13.0151129517563469 17.9879336313690317   T   T   T
 11.4100334940289230  0.9415447925962200  6.0218141312099771   T   T   T
 11.4541283287131321  8.8647745703754826  4.5056200483710400   T   T   T
 19.2877390192303011  8.7725795559839455  6.5346329558536320   T   T   T
 19.1395112634454634  1.0227990251856200  3.9864983363247224   T   T   T
 16.4050790836158988  1.4237246870865765  0.8881591153978854   T   T   T
 14.0551775928186142  1.0991161058962837  8.9684858746854932   T   T   T
 16.5297423651363076  9.2940224586639211  8.8488047866564905   T   T   T
 13.9981924841053154  8.9231840096866115  1.1445466208164043   T   T   T
 11.5025620459711959  6.1443932139275939  1.2615379956658852   T   T   T
 19.3218826040645375  3.7415502959928015  1.1684684619923695   T   T   T
 19.6591921877040718  6.3545510850938660  9.4083803580977179   T   T   T
 11.2645443857197360  3.8961122579431362  8.7712381079180517   T   T   T
 16.8727238519502798  6.2344130037780401  6.4809390615754277   T   T   T
 17.2978616578238302  3.9601772355882141  4.1232328522910047   T   T   T
 14.4327977665515714  3.5838839257102348  5.7611027026090191   T   T   T
 14.6579441199606535  6.0318997376326076  3.7058615987684997   T   T   T
 12.5619745144948602  2.5509211540250218  2.5147997608096131   T   T   T
 13.2626045183560439  7.4411360770558961  8.0318701149105998   T   T   T
 18.2660186741479933  7.7276641992125805  2.7038840061062648   T   T   T
 17.8195209492537252  2.6100142944629456  7.9486489303361658   T   T   T
 11.5441285434724268  1.1520490723313039 16.1113371688234253   T   T   T
 11.8844579792570180  9.7867980493221136 14.5010375097391151   T   T   T
 19.3055282052862722  9.1447647052758079 17.1765971643388937   T   T   T
 19.3556397223012198  1.5367108005045553 14.2538843411965210   T   T   T
 16.5805887342304210  1.5385614462349040 11.3591775240101391   T   T   T
 13.6807362123444207  1.2757739229574860 19.2481998998337609   T   T   T
 16.6622669838776680  8.8531158322178225 19.8970800988058478   T   T   T
 14.3322257976598522  8.9380377066885988 11.3219028568376530   T   T   T
 10.9372234612223753  6.2908234226219166 11.1821580703425543   T   T   T
 19.6380938175165056  3.8016495379405781 11.9543190082436048   T   T   T
 19.5251675391604316  5.8908229090590920 19.1310507878766600   T   T   T
 11.2566647540235927  4.0053474845160340 19.1404751177028309   T   T   T
 16.9821417881955874  6.1875843518392442 16.3229040387984021   T   T   T
 16.6222987914736855  3.8629407583284259 14.0627444361022196   T   T   T
 14.3766435462450737  3.9009306522310263 16.6018222025846818   T   T   T
 14.5488211760228108  6.2756874491543648 14.0211043178372243   T   T   T
 12.9624397264723754  2.6518478277317103 12.8422718113491747   T   T   T
 13.2148984447826212  7.7521127360801767 17.8474857461363285   T   T   T
 18.3902313205397121  7.9790061481969063 13.0054996519782424   T   T   T
 17.7534796178422312  2.7682286053935643 17.7660789501365315   T   T   T
 11.3420357916196934 11.1611340800693508  6.9516409741537277   T   T   T
 11.2532334415192281 19.2327881669310656  3.6571222268307197   T   T   T
 19.3421479418390376 19.2731844136483659  6.5844408093890552   T   T   T
 18.8941096958473871 11.1736729105543198  3.9821078589466912   T   T   T
 16.5039364228811181 11.1352665857222597  1.7200856287566975   T   T   T
 13.8964751431414122 11.1248473785420785  9.0556264188002249   T   T   T
 16.6591425961629369 19.6672976061446718  9.2290642676212684   T   T   T
 14.1982390098886135 19.6541609050768429  1.3265150897797162   T   T   T
 11.5737922655501517 16.8679269616278233  1.0558837367744445   T   T   T
 18.9923641138159915 14.5557282839129858  1.0867834669992984   T   T   T
 18.9872603605123977 16.4861584190892927  9.2363855094222664   T   T   T
 11.7243370944031717 14.4071176634529650  8.7742755392075402   T   T   T
 15.9828627233331950 16.4475429391841601  6.3912343250358710   T   T   T
 16.4959169185685859 14.1910913683233257  3.8335261181231282   T   T   T
 14.0542406551530732 13.7941719243861272  6.0465720294325429   T   T   T
 13.8590733463927780 16.0834876171435255  3.8391227595152042   T   T   T
 13.0387054554861930 12.8171447117802089  2.9229283605863232   T   T   T
 12.7623415759058823 17.7041837844094161  7.2777945662661887   T   T   T
 17.7155213977774189 18.0687242249622599  2.6038753509915082   T   T   T
 17.4845314321185086 12.7608114444989926  7.5641331522035467   T   T   T
 11.3804565026648490 12.1077326675970767 16.8054609294327015   T   T   T
 11.4060486564005554 19.5882635568924286 13.7331068805079646   T   T   T
 19.2674821290722313 19.8424008055047949 16.9588263302968301   T   T   T
 19.1414577002326673 11.4577922054466566 14.8551293215094411   T   T   T
 16.3421743054022208 11.6971525807728369 11.3034758006707801   T   T   T
 14.4917556239299383 11.4708805936858251 19.5534830179597634   T   T   T
 16.1151241299960937 19.3522528101119775 19.3228606766729385   T   T   T
 14.3325640157081260 19.5938636619658979 11.6458879763767680   T   T   T
 11.9597338756469593 16.5602815426875765 11.3865332694269661   T   T   T
 19.3673216577882954 13.9774267496856428 11.8011648269768816   T   T   T
 19.0095335962575511 17.1806623463613093 19.7825030006350637   T   T   T
 11.9359372138055857 14.4192291510784294 19.4778264136906252   T   T   T
 16.5705288552499042 16.8990879677267287 16.9987651393135231   T   T   T
 16.6224126532411169 14.5481055302124194 14.4744214700706628   T   T   T
 14.4058819320552605 14.3723946599920520 16.6036803436420151   T   T   T
 14.4332583497202265 16.9848898768873227 14.2826240077322488   T   T   T
 12.8898057290465431 12.7658904686862851 13.0069686959122368   T   T   T
 12.4905167339690131 17.9712293529523706 17.9869495758552915   T   T   T
 17.9235541617677185 18.3816254983601937 13.0036608885680725   T   T   T
 17.9593368179337816 12.9519374942089840 18.0146060783635349   T   T   T
 -0.1502740647221156  0.0763096316122706  0.2077327748208070   T   T   T
  5.0747628608489812  5.0894581579803466  0.2027034785795338   T   T   T
  5.4966293237139654  0.2976932366085789  5.0643827330211915   T   T   T
  0.5531986247940867  5.5638956796850856  4.9402062433597287   T   T   T
  0.3289273883211231  0.4747395470915476 10.3067294157160205   T   T   T
  5.1292208117985236  5.2766223786111004 10.0153668729168750   T   T   T
  5.0038614640030250 -0.3508856076178699 14.6950451994439675   T   T   T
  0.2036380142729333  4.8038929796322005 15.6098569363437729   T   T   T
 -0.0782914710603336 10.4394440519318668  0.2156979569270216   T   T   T
  5.0074639245949815 15.3048441453287705 -0.1059871959290290   T   T   T
  5.6363653713464075  9.8859421584686231  5.3698063107291238   T   T   T
  0.3178311534156096 15.3377422666802286  5.4402550731228230   T   T   T
 -0.2859315910856216 10.3663681341386660 10.3241993769772105   T   T   T
  5.9416107236850557 15.6373229018777398 10.2261157726064784   T   T   T
  5.0509137308793060 10.4676913216675445 15.6073671079057270   T   T   T
 -0.4678855915819061 14.9138293878682333 15.8565447816234997   T   T   T
 10.3424876012242510 -0.0610228298682658  0.1161355018775606   T   T   T
 15.6162138014474703  4.9189170446313870 -0.3074737366144263   T   T   T
 15.5123970092677244  0.3320996393786351  5.4243880296864972   T   T   T
 10.0278655970969695  4.7102148661108814  4.2001134929343182   T   T   T
 10.6216823894668089  0.1925847333597409  9.6431251500662949   T   T   T
 15.6785202040261549  4.9493277901377448 10.1668014076369602   T   T   T
 15.9450518748764782  0.4826893927858301 15.5833764383896867   T   T   T